*SPEF "ieee 1481-1999"
*DESIGN "apb_master_slave_interface"
*DATE "11:11:11 Fri 11 11, 1111"
*VENDOR "OpenRCX"
*PROGRAM "Parallel Extraction"
*VERSION "1.0"
*DESIGN_FLOW "NAME_SCOPE LOCAL" "PIN_CAP NONE"
*DIVIDER /
*DELIMITER :
*BUS_DELIMITER []
*T_UNIT 1 NS
*C_UNIT 1 PF
*R_UNIT 1 OHM
*L_UNIT 1 HENRY

*NAME_MAP
*3 clk
*4 m_addr[0]
*5 m_addr[10]
*6 m_addr[11]
*7 m_addr[12]
*8 m_addr[13]
*9 m_addr[14]
*10 m_addr[15]
*11 m_addr[16]
*12 m_addr[17]
*13 m_addr[18]
*14 m_addr[19]
*15 m_addr[1]
*16 m_addr[20]
*17 m_addr[21]
*18 m_addr[22]
*19 m_addr[23]
*20 m_addr[24]
*21 m_addr[25]
*22 m_addr[26]
*23 m_addr[27]
*24 m_addr[28]
*25 m_addr[29]
*26 m_addr[2]
*27 m_addr[30]
*28 m_addr[31]
*29 m_addr[3]
*30 m_addr[4]
*31 m_addr[5]
*32 m_addr[6]
*33 m_addr[7]
*34 m_addr[8]
*35 m_addr[9]
*36 m_rdata[0]
*37 m_rdata[10]
*38 m_rdata[11]
*39 m_rdata[12]
*40 m_rdata[13]
*41 m_rdata[14]
*42 m_rdata[15]
*43 m_rdata[16]
*44 m_rdata[17]
*45 m_rdata[18]
*46 m_rdata[19]
*47 m_rdata[1]
*48 m_rdata[20]
*49 m_rdata[21]
*50 m_rdata[22]
*51 m_rdata[23]
*52 m_rdata[24]
*53 m_rdata[25]
*54 m_rdata[26]
*55 m_rdata[27]
*56 m_rdata[28]
*57 m_rdata[29]
*58 m_rdata[2]
*59 m_rdata[30]
*60 m_rdata[31]
*61 m_rdata[3]
*62 m_rdata[4]
*63 m_rdata[5]
*64 m_rdata[6]
*65 m_rdata[7]
*66 m_rdata[8]
*67 m_rdata[9]
*68 m_ready
*69 m_req
*70 m_wdata[0]
*71 m_wdata[10]
*72 m_wdata[11]
*73 m_wdata[12]
*74 m_wdata[13]
*75 m_wdata[14]
*76 m_wdata[15]
*77 m_wdata[16]
*78 m_wdata[17]
*79 m_wdata[18]
*80 m_wdata[19]
*81 m_wdata[1]
*82 m_wdata[20]
*83 m_wdata[21]
*84 m_wdata[22]
*85 m_wdata[23]
*86 m_wdata[24]
*87 m_wdata[25]
*88 m_wdata[26]
*89 m_wdata[27]
*90 m_wdata[28]
*91 m_wdata[29]
*92 m_wdata[2]
*93 m_wdata[30]
*94 m_wdata[31]
*95 m_wdata[3]
*96 m_wdata[4]
*97 m_wdata[5]
*98 m_wdata[6]
*99 m_wdata[7]
*100 m_wdata[8]
*101 m_wdata[9]
*102 m_write
*103 paddr[0]
*104 paddr[10]
*105 paddr[11]
*106 paddr[12]
*107 paddr[13]
*108 paddr[14]
*109 paddr[15]
*110 paddr[16]
*111 paddr[17]
*112 paddr[18]
*113 paddr[19]
*114 paddr[1]
*115 paddr[20]
*116 paddr[21]
*117 paddr[22]
*118 paddr[23]
*119 paddr[24]
*120 paddr[25]
*121 paddr[26]
*122 paddr[27]
*123 paddr[28]
*124 paddr[29]
*125 paddr[2]
*126 paddr[30]
*127 paddr[31]
*128 paddr[3]
*129 paddr[4]
*130 paddr[5]
*131 paddr[6]
*132 paddr[7]
*133 paddr[8]
*134 paddr[9]
*135 pclk
*136 penable
*137 prdata[0]
*138 prdata[10]
*139 prdata[11]
*140 prdata[12]
*141 prdata[13]
*142 prdata[14]
*143 prdata[15]
*144 prdata[16]
*145 prdata[17]
*146 prdata[18]
*147 prdata[19]
*148 prdata[1]
*149 prdata[20]
*150 prdata[21]
*151 prdata[22]
*152 prdata[23]
*153 prdata[24]
*154 prdata[25]
*155 prdata[26]
*156 prdata[27]
*157 prdata[28]
*158 prdata[29]
*159 prdata[2]
*160 prdata[30]
*161 prdata[31]
*162 prdata[3]
*163 prdata[4]
*164 prdata[5]
*165 prdata[6]
*166 prdata[7]
*167 prdata[8]
*168 prdata[9]
*169 pready
*170 presetn
*171 psel
*172 pwdata[0]
*173 pwdata[10]
*174 pwdata[11]
*175 pwdata[12]
*176 pwdata[13]
*177 pwdata[14]
*178 pwdata[15]
*179 pwdata[16]
*180 pwdata[17]
*181 pwdata[18]
*182 pwdata[19]
*183 pwdata[1]
*184 pwdata[20]
*185 pwdata[21]
*186 pwdata[22]
*187 pwdata[23]
*188 pwdata[24]
*189 pwdata[25]
*190 pwdata[26]
*191 pwdata[27]
*192 pwdata[28]
*193 pwdata[29]
*194 pwdata[2]
*195 pwdata[30]
*196 pwdata[31]
*197 pwdata[3]
*198 pwdata[4]
*199 pwdata[5]
*200 pwdata[6]
*201 pwdata[7]
*202 pwdata[8]
*203 pwdata[9]
*204 pwrite
*205 rstn
*206 _000_
*207 _001_
*208 _002_
*209 _003_
*210 _004_
*211 _005_
*212 _006_
*213 _007_
*214 _008_
*215 _009_
*216 _010_
*217 _011_
*218 _012_
*219 _013_
*220 _014_
*221 _015_
*222 _016_
*223 _017_
*224 _018_
*225 _019_
*226 _020_
*227 _021_
*228 _022_
*229 _023_
*230 _024_
*231 _025_
*232 _026_
*233 _027_
*234 _028_
*235 _029_
*236 _030_
*237 _031_
*238 _032_
*239 _033_
*240 _034_
*241 _035_
*242 _036_
*243 _037_
*244 _038_
*245 _039_
*246 _040_
*247 _041_
*248 _042_
*249 _043_
*250 _044_
*251 _045_
*252 _046_
*253 _047_
*254 _048_
*255 _049_
*256 _050_
*257 _051_
*258 _052_
*259 _053_
*260 _054_
*261 _055_
*262 _056_
*263 _057_
*264 _058_
*265 _059_
*266 _060_
*267 _061_
*268 _062_
*269 _063_
*270 _064_
*271 _065_
*272 _066_
*273 _067_
*274 _068_
*275 _069_
*276 _070_
*277 _071_
*278 _072_
*279 _073_
*280 _074_
*281 _075_
*282 _076_
*283 _077_
*284 _078_
*285 _079_
*286 _080_
*287 _081_
*288 _082_
*289 _083_
*290 _084_
*291 _085_
*292 _086_
*293 _087_
*294 _088_
*295 _089_
*296 _090_
*297 _091_
*298 _092_
*299 _093_
*300 _094_
*301 _095_
*302 _096_
*303 _097_
*304 _098_
*305 _099_
*306 _100_
*307 _101_
*308 _102_
*309 _103_
*310 _104_
*311 _105_
*312 _106_
*313 _107_
*314 _108_
*315 _109_
*316 _110_
*317 _111_
*318 _112_
*319 _113_
*320 _114_
*321 _115_
*322 _116_
*323 _117_
*324 _118_
*325 _119_
*326 _120_
*327 _121_
*328 _122_
*329 _123_
*330 _124_
*331 _125_
*332 _126_
*333 _127_
*334 _128_
*335 _129_
*336 _130_
*337 _131_
*338 _132_
*339 _133_
*340 _134_
*341 _135_
*342 _136_
*343 _137_
*344 _138_
*345 _139_
*346 _140_
*347 _141_
*348 _142_
*349 _143_
*350 _144_
*351 _145_
*352 _146_
*353 _147_
*354 _148_
*355 _149_
*356 _150_
*357 _151_
*358 _152_
*359 _153_
*360 _154_
*361 _155_
*362 _156_
*363 _157_
*364 _158_
*365 _159_
*366 _160_
*367 _161_
*368 _162_
*369 _163_
*370 _164_
*371 _165_
*372 _166_
*373 _167_
*374 _168_
*375 _169_
*376 _170_
*377 _171_
*378 _172_
*379 _173_
*380 _174_
*381 _175_
*382 _176_
*383 clknet_0_clk
*384 clknet_3_0__leaf_clk
*385 clknet_3_1__leaf_clk
*386 clknet_3_2__leaf_clk
*387 clknet_3_3__leaf_clk
*388 clknet_3_4__leaf_clk
*389 clknet_3_5__leaf_clk
*390 clknet_3_6__leaf_clk
*391 clknet_3_7__leaf_clk
*392 net1
*393 net10
*394 net100
*395 net101
*396 net102
*397 net103
*398 net104
*399 net105
*400 net106
*401 net107
*402 net108
*403 net109
*404 net11
*405 net110
*406 net111
*407 net112
*408 net113
*409 net114
*410 net115
*411 net116
*412 net117
*413 net118
*414 net119
*415 net12
*416 net120
*417 net121
*418 net122
*419 net123
*420 net124
*421 net125
*422 net126
*423 net127
*424 net128
*425 net129
*426 net13
*427 net130
*428 net131
*429 net132
*430 net133
*431 net134
*432 net135
*433 net136
*434 net137
*435 net138
*436 net139
*437 net14
*438 net140
*439 net141
*440 net142
*441 net143
*442 net144
*443 net145
*444 net146
*445 net147
*446 net148
*447 net149
*448 net15
*449 net150
*450 net151
*451 net152
*452 net153
*453 net154
*454 net155
*455 net156
*456 net157
*457 net158
*458 net159
*459 net16
*460 net160
*461 net161
*462 net162
*463 net163
*464 net164
*465 net165
*466 net166
*467 net167
*468 net168
*469 net169
*470 net17
*471 net170
*472 net171
*473 net172
*474 net173
*475 net174
*476 net175
*477 net176
*478 net177
*479 net178
*480 net179
*481 net18
*482 net180
*483 net181
*484 net182
*485 net183
*486 net184
*487 net185
*488 net186
*489 net187
*490 net188
*491 net189
*492 net19
*493 net190
*494 net191
*495 net192
*496 net193
*497 net194
*498 net195
*499 net196
*500 net197
*501 net198
*502 net199
*503 net2
*504 net20
*505 net200
*506 net201
*507 net202
*508 net203
*509 net204
*510 net205
*511 net206
*512 net207
*513 net208
*514 net209
*515 net21
*516 net210
*517 net211
*518 net212
*519 net213
*520 net214
*521 net215
*522 net216
*523 net217
*524 net218
*525 net219
*526 net22
*527 net220
*528 net221
*529 net23
*530 net24
*531 net25
*532 net26
*533 net27
*534 net28
*535 net29
*536 net3
*537 net30
*538 net31
*539 net32
*540 net33
*541 net34
*542 net35
*543 net36
*544 net37
*545 net38
*546 net39
*547 net4
*548 net40
*549 net41
*550 net42
*551 net43
*552 net44
*553 net45
*554 net46
*555 net47
*556 net48
*557 net49
*558 net5
*559 net50
*560 net51
*561 net52
*562 net53
*563 net54
*564 net55
*565 net56
*566 net57
*567 net58
*568 net59
*569 net6
*570 net60
*571 net61
*572 net62
*573 net63
*574 net64
*575 net65
*576 net66
*577 net67
*578 net68
*579 net69
*580 net7
*581 net70
*582 net71
*583 net72
*584 net73
*585 net74
*586 net75
*587 net76
*588 net77
*589 net78
*590 net79
*591 net8
*592 net80
*593 net81
*594 net82
*595 net83
*596 net84
*597 net85
*598 net86
*599 net87
*600 net88
*601 net89
*602 net9
*603 net90
*604 net91
*605 net92
*606 net93
*607 net94
*608 net95
*609 net96
*610 net97
*611 net98
*612 net99
*613 state\[0\]
*614 state\[1\]
*615 ANTENNA_1
*616 ANTENNA_2
*617 ANTENNA_3
*618 ANTENNA_4
*619 FILLER_0_0_104
*620 FILLER_0_0_119
*621 FILLER_0_0_126
*622 FILLER_0_0_141
*623 FILLER_0_0_149
*624 FILLER_0_0_153
*625 FILLER_0_0_161
*626 FILLER_0_0_167
*627 FILLER_0_0_169
*628 FILLER_0_0_175
*629 FILLER_0_0_182
*630 FILLER_0_0_19
*631 FILLER_0_0_191
*632 FILLER_0_0_195
*633 FILLER_0_0_197
*634 FILLER_0_0_202
*635 FILLER_0_0_210
*636 FILLER_0_0_216
*637 FILLER_0_0_231
*638 FILLER_0_0_245
*639 FILLER_0_0_251
*640 FILLER_0_0_253
*641 FILLER_0_0_261
*642 FILLER_0_0_265
*643 FILLER_0_0_273
*644 FILLER_0_0_279
*645 FILLER_0_0_281
*646 FILLER_0_0_289
*647 FILLER_0_0_29
*648 FILLER_0_0_293
*649 FILLER_0_0_301
*650 FILLER_0_0_309
*651 FILLER_0_0_317
*652 FILLER_0_0_328
*653 FILLER_0_0_337
*654 FILLER_0_0_342
*655 FILLER_0_0_35
*656 FILLER_0_0_350
*657 FILLER_0_0_359
*658 FILLER_0_0_363
*659 FILLER_0_0_371
*660 FILLER_0_0_380
*661 FILLER_0_0_391
*662 FILLER_0_0_393
*663 FILLER_0_0_401
*664 FILLER_0_0_405
*665 FILLER_0_0_417
*666 FILLER_0_0_42
*667 FILLER_0_0_427
*668 FILLER_0_0_442
*669 FILLER_0_0_455
*670 FILLER_0_0_463
*671 FILLER_0_0_468
*672 FILLER_0_0_477
*673 FILLER_0_0_485
*674 FILLER_0_0_499
*675 FILLER_0_0_503
*676 FILLER_0_0_511
*677 FILLER_0_0_518
*678 FILLER_0_0_526
*679 FILLER_0_0_531
*680 FILLER_0_0_533
*681 FILLER_0_0_541
*682 FILLER_0_0_546
*683 FILLER_0_0_558
*684 FILLER_0_0_57
*685 FILLER_0_0_570
*686 FILLER_0_0_576
*687 FILLER_0_0_581
*688 FILLER_0_0_587
*689 FILLER_0_0_589
*690 FILLER_0_0_595
*691 FILLER_0_0_62
*692 FILLER_0_0_623
*693 FILLER_0_0_70
*694 FILLER_0_0_76
*695 FILLER_0_0_85
*696 FILLER_0_0_90
*697 FILLER_0_0_98
*698 FILLER_0_100_109
*699 FILLER_0_100_121
*700 FILLER_0_100_133
*701 FILLER_0_100_139
*702 FILLER_0_100_14
*703 FILLER_0_100_141
*704 FILLER_0_100_153
*705 FILLER_0_100_165
*706 FILLER_0_100_177
*707 FILLER_0_100_189
*708 FILLER_0_100_195
*709 FILLER_0_100_197
*710 FILLER_0_100_209
*711 FILLER_0_100_221
*712 FILLER_0_100_233
*713 FILLER_0_100_245
*714 FILLER_0_100_251
*715 FILLER_0_100_253
*716 FILLER_0_100_26
*717 FILLER_0_100_265
*718 FILLER_0_100_277
*719 FILLER_0_100_29
*720 FILLER_0_100_297
*721 FILLER_0_100_305
*722 FILLER_0_100_314
*723 FILLER_0_100_321
*724 FILLER_0_100_333
*725 FILLER_0_100_345
*726 FILLER_0_100_357
*727 FILLER_0_100_363
*728 FILLER_0_100_365
*729 FILLER_0_100_377
*730 FILLER_0_100_389
*731 FILLER_0_100_401
*732 FILLER_0_100_41
*733 FILLER_0_100_413
*734 FILLER_0_100_419
*735 FILLER_0_100_421
*736 FILLER_0_100_433
*737 FILLER_0_100_445
*738 FILLER_0_100_457
*739 FILLER_0_100_469
*740 FILLER_0_100_475
*741 FILLER_0_100_477
*742 FILLER_0_100_489
*743 FILLER_0_100_501
*744 FILLER_0_100_513
*745 FILLER_0_100_525
*746 FILLER_0_100_53
*747 FILLER_0_100_531
*748 FILLER_0_100_533
*749 FILLER_0_100_545
*750 FILLER_0_100_557
*751 FILLER_0_100_569
*752 FILLER_0_100_581
*753 FILLER_0_100_587
*754 FILLER_0_100_589
*755 FILLER_0_100_601
*756 FILLER_0_100_613
*757 FILLER_0_100_65
*758 FILLER_0_100_77
*759 FILLER_0_100_83
*760 FILLER_0_100_85
*761 FILLER_0_100_97
*762 FILLER_0_101_100
*763 FILLER_0_101_111
*764 FILLER_0_101_113
*765 FILLER_0_101_121
*766 FILLER_0_101_128
*767 FILLER_0_101_135
*768 FILLER_0_101_139
*769 FILLER_0_101_141
*770 FILLER_0_101_149
*771 FILLER_0_101_15
*772 FILLER_0_101_163
*773 FILLER_0_101_167
*774 FILLER_0_101_169
*775 FILLER_0_101_175
*776 FILLER_0_101_183
*777 FILLER_0_101_188
*778 FILLER_0_101_20
*779 FILLER_0_101_203
*780 FILLER_0_101_212
*781 FILLER_0_101_231
*782 FILLER_0_101_237
*783 FILLER_0_101_249
*784 FILLER_0_101_259
*785 FILLER_0_101_268
*786 FILLER_0_101_272
*787 FILLER_0_101_281
*788 FILLER_0_101_289
*789 FILLER_0_101_29
*790 FILLER_0_101_303
*791 FILLER_0_101_307
*792 FILLER_0_101_309
*793 FILLER_0_101_314
*794 FILLER_0_101_322
*795 FILLER_0_101_331
*796 FILLER_0_101_335
*797 FILLER_0_101_337
*798 FILLER_0_101_345
*799 FILLER_0_101_349
*800 FILLER_0_101_357
*801 FILLER_0_101_363
*802 FILLER_0_101_365
*803 FILLER_0_101_37
*804 FILLER_0_101_373
*805 FILLER_0_101_377
*806 FILLER_0_101_385
*807 FILLER_0_101_391
*808 FILLER_0_101_393
*809 FILLER_0_101_401
*810 FILLER_0_101_412
*811 FILLER_0_101_421
*812 FILLER_0_101_429
*813 FILLER_0_101_440
*814 FILLER_0_101_449
*815 FILLER_0_101_457
*816 FILLER_0_101_464
*817 FILLER_0_101_475
*818 FILLER_0_101_477
*819 FILLER_0_101_485
*820 FILLER_0_101_492
*821 FILLER_0_101_503
*822 FILLER_0_101_505
*823 FILLER_0_101_51
*824 FILLER_0_101_513
*825 FILLER_0_101_520
*826 FILLER_0_101_524
*827 FILLER_0_101_533
*828 FILLER_0_101_538
*829 FILLER_0_101_546
*830 FILLER_0_101_55
*831 FILLER_0_101_555
*832 FILLER_0_101_559
*833 FILLER_0_101_561
*834 FILLER_0_101_566
*835 FILLER_0_101_57
*836 FILLER_0_101_574
*837 FILLER_0_101_580
*838 FILLER_0_101_595
*839 FILLER_0_101_604
*840 FILLER_0_101_617
*841 FILLER_0_101_65
*842 FILLER_0_101_76
*843 FILLER_0_101_83
*844 FILLER_0_101_85
*845 FILLER_0_101_93
*846 FILLER_0_10_109
*847 FILLER_0_10_121
*848 FILLER_0_10_133
*849 FILLER_0_10_139
*850 FILLER_0_10_141
*851 FILLER_0_10_15
*852 FILLER_0_10_153
*853 FILLER_0_10_165
*854 FILLER_0_10_177
*855 FILLER_0_10_189
*856 FILLER_0_10_195
*857 FILLER_0_10_197
*858 FILLER_0_10_209
*859 FILLER_0_10_221
*860 FILLER_0_10_233
*861 FILLER_0_10_245
*862 FILLER_0_10_251
*863 FILLER_0_10_253
*864 FILLER_0_10_265
*865 FILLER_0_10_27
*866 FILLER_0_10_277
*867 FILLER_0_10_289
*868 FILLER_0_10_29
*869 FILLER_0_10_3
*870 FILLER_0_10_301
*871 FILLER_0_10_307
*872 FILLER_0_10_309
*873 FILLER_0_10_321
*874 FILLER_0_10_333
*875 FILLER_0_10_345
*876 FILLER_0_10_357
*877 FILLER_0_10_363
*878 FILLER_0_10_365
*879 FILLER_0_10_377
*880 FILLER_0_10_389
*881 FILLER_0_10_401
*882 FILLER_0_10_41
*883 FILLER_0_10_413
*884 FILLER_0_10_419
*885 FILLER_0_10_421
*886 FILLER_0_10_433
*887 FILLER_0_10_445
*888 FILLER_0_10_457
*889 FILLER_0_10_469
*890 FILLER_0_10_475
*891 FILLER_0_10_477
*892 FILLER_0_10_489
*893 FILLER_0_10_501
*894 FILLER_0_10_513
*895 FILLER_0_10_525
*896 FILLER_0_10_53
*897 FILLER_0_10_531
*898 FILLER_0_10_533
*899 FILLER_0_10_545
*900 FILLER_0_10_557
*901 FILLER_0_10_569
*902 FILLER_0_10_581
*903 FILLER_0_10_587
*904 FILLER_0_10_589
*905 FILLER_0_10_601
*906 FILLER_0_10_613
*907 FILLER_0_10_65
*908 FILLER_0_10_77
*909 FILLER_0_10_83
*910 FILLER_0_10_85
*911 FILLER_0_10_97
*912 FILLER_0_11_109
*913 FILLER_0_11_113
*914 FILLER_0_11_125
*915 FILLER_0_11_137
*916 FILLER_0_11_149
*917 FILLER_0_11_161
*918 FILLER_0_11_167
*919 FILLER_0_11_169
*920 FILLER_0_11_181
*921 FILLER_0_11_193
*922 FILLER_0_11_205
*923 FILLER_0_11_21
*924 FILLER_0_11_217
*925 FILLER_0_11_223
*926 FILLER_0_11_225
*927 FILLER_0_11_237
*928 FILLER_0_11_249
*929 FILLER_0_11_261
*930 FILLER_0_11_273
*931 FILLER_0_11_279
*932 FILLER_0_11_281
*933 FILLER_0_11_293
*934 FILLER_0_11_305
*935 FILLER_0_11_317
*936 FILLER_0_11_329
*937 FILLER_0_11_33
*938 FILLER_0_11_335
*939 FILLER_0_11_337
*940 FILLER_0_11_349
*941 FILLER_0_11_361
*942 FILLER_0_11_373
*943 FILLER_0_11_385
*944 FILLER_0_11_391
*945 FILLER_0_11_393
*946 FILLER_0_11_405
*947 FILLER_0_11_417
*948 FILLER_0_11_429
*949 FILLER_0_11_441
*950 FILLER_0_11_447
*951 FILLER_0_11_449
*952 FILLER_0_11_45
*953 FILLER_0_11_461
*954 FILLER_0_11_473
*955 FILLER_0_11_485
*956 FILLER_0_11_497
*957 FILLER_0_11_503
*958 FILLER_0_11_505
*959 FILLER_0_11_517
*960 FILLER_0_11_529
*961 FILLER_0_11_53
*962 FILLER_0_11_541
*963 FILLER_0_11_553
*964 FILLER_0_11_559
*965 FILLER_0_11_561
*966 FILLER_0_11_57
*967 FILLER_0_11_573
*968 FILLER_0_11_585
*969 FILLER_0_11_597
*970 FILLER_0_11_609
*971 FILLER_0_11_61
*972 FILLER_0_11_615
*973 FILLER_0_11_617
*974 FILLER_0_11_73
*975 FILLER_0_11_85
*976 FILLER_0_11_9
*977 FILLER_0_11_97
*978 FILLER_0_12_109
*979 FILLER_0_12_121
*980 FILLER_0_12_133
*981 FILLER_0_12_139
*982 FILLER_0_12_141
*983 FILLER_0_12_15
*984 FILLER_0_12_153
*985 FILLER_0_12_165
*986 FILLER_0_12_177
*987 FILLER_0_12_189
*988 FILLER_0_12_195
*989 FILLER_0_12_197
*990 FILLER_0_12_209
*991 FILLER_0_12_221
*992 FILLER_0_12_233
*993 FILLER_0_12_245
*994 FILLER_0_12_251
*995 FILLER_0_12_253
*996 FILLER_0_12_265
*997 FILLER_0_12_27
*998 FILLER_0_12_277
*999 FILLER_0_12_289
*1000 FILLER_0_12_29
*1001 FILLER_0_12_3
*1002 FILLER_0_12_301
*1003 FILLER_0_12_307
*1004 FILLER_0_12_309
*1005 FILLER_0_12_321
*1006 FILLER_0_12_333
*1007 FILLER_0_12_345
*1008 FILLER_0_12_357
*1009 FILLER_0_12_363
*1010 FILLER_0_12_365
*1011 FILLER_0_12_377
*1012 FILLER_0_12_389
*1013 FILLER_0_12_401
*1014 FILLER_0_12_41
*1015 FILLER_0_12_413
*1016 FILLER_0_12_419
*1017 FILLER_0_12_421
*1018 FILLER_0_12_433
*1019 FILLER_0_12_445
*1020 FILLER_0_12_457
*1021 FILLER_0_12_469
*1022 FILLER_0_12_475
*1023 FILLER_0_12_477
*1024 FILLER_0_12_489
*1025 FILLER_0_12_49
*1026 FILLER_0_12_501
*1027 FILLER_0_12_513
*1028 FILLER_0_12_525
*1029 FILLER_0_12_531
*1030 FILLER_0_12_533
*1031 FILLER_0_12_545
*1032 FILLER_0_12_557
*1033 FILLER_0_12_569
*1034 FILLER_0_12_581
*1035 FILLER_0_12_587
*1036 FILLER_0_12_589
*1037 FILLER_0_12_601
*1038 FILLER_0_12_613
*1039 FILLER_0_12_81
*1040 FILLER_0_12_85
*1041 FILLER_0_12_97
*1042 FILLER_0_13_105
*1043 FILLER_0_13_111
*1044 FILLER_0_13_113
*1045 FILLER_0_13_125
*1046 FILLER_0_13_137
*1047 FILLER_0_13_149
*1048 FILLER_0_13_15
*1049 FILLER_0_13_161
*1050 FILLER_0_13_167
*1051 FILLER_0_13_169
*1052 FILLER_0_13_181
*1053 FILLER_0_13_193
*1054 FILLER_0_13_205
*1055 FILLER_0_13_217
*1056 FILLER_0_13_223
*1057 FILLER_0_13_225
*1058 FILLER_0_13_237
*1059 FILLER_0_13_249
*1060 FILLER_0_13_261
*1061 FILLER_0_13_27
*1062 FILLER_0_13_273
*1063 FILLER_0_13_279
*1064 FILLER_0_13_281
*1065 FILLER_0_13_293
*1066 FILLER_0_13_3
*1067 FILLER_0_13_305
*1068 FILLER_0_13_317
*1069 FILLER_0_13_329
*1070 FILLER_0_13_335
*1071 FILLER_0_13_337
*1072 FILLER_0_13_349
*1073 FILLER_0_13_361
*1074 FILLER_0_13_373
*1075 FILLER_0_13_385
*1076 FILLER_0_13_39
*1077 FILLER_0_13_391
*1078 FILLER_0_13_393
*1079 FILLER_0_13_405
*1080 FILLER_0_13_417
*1081 FILLER_0_13_429
*1082 FILLER_0_13_441
*1083 FILLER_0_13_447
*1084 FILLER_0_13_449
*1085 FILLER_0_13_461
*1086 FILLER_0_13_473
*1087 FILLER_0_13_485
*1088 FILLER_0_13_497
*1089 FILLER_0_13_503
*1090 FILLER_0_13_505
*1091 FILLER_0_13_51
*1092 FILLER_0_13_517
*1093 FILLER_0_13_529
*1094 FILLER_0_13_541
*1095 FILLER_0_13_55
*1096 FILLER_0_13_553
*1097 FILLER_0_13_559
*1098 FILLER_0_13_561
*1099 FILLER_0_13_57
*1100 FILLER_0_13_573
*1101 FILLER_0_13_585
*1102 FILLER_0_13_597
*1103 FILLER_0_13_609
*1104 FILLER_0_13_615
*1105 FILLER_0_13_617
*1106 FILLER_0_13_69
*1107 FILLER_0_13_81
*1108 FILLER_0_13_93
*1109 FILLER_0_14_109
*1110 FILLER_0_14_121
*1111 FILLER_0_14_133
*1112 FILLER_0_14_139
*1113 FILLER_0_14_141
*1114 FILLER_0_14_153
*1115 FILLER_0_14_165
*1116 FILLER_0_14_177
*1117 FILLER_0_14_189
*1118 FILLER_0_14_195
*1119 FILLER_0_14_197
*1120 FILLER_0_14_209
*1121 FILLER_0_14_21
*1122 FILLER_0_14_221
*1123 FILLER_0_14_233
*1124 FILLER_0_14_245
*1125 FILLER_0_14_251
*1126 FILLER_0_14_253
*1127 FILLER_0_14_265
*1128 FILLER_0_14_27
*1129 FILLER_0_14_277
*1130 FILLER_0_14_289
*1131 FILLER_0_14_29
*1132 FILLER_0_14_301
*1133 FILLER_0_14_307
*1134 FILLER_0_14_309
*1135 FILLER_0_14_321
*1136 FILLER_0_14_333
*1137 FILLER_0_14_345
*1138 FILLER_0_14_357
*1139 FILLER_0_14_363
*1140 FILLER_0_14_365
*1141 FILLER_0_14_377
*1142 FILLER_0_14_389
*1143 FILLER_0_14_401
*1144 FILLER_0_14_41
*1145 FILLER_0_14_413
*1146 FILLER_0_14_419
*1147 FILLER_0_14_421
*1148 FILLER_0_14_433
*1149 FILLER_0_14_445
*1150 FILLER_0_14_457
*1151 FILLER_0_14_469
*1152 FILLER_0_14_475
*1153 FILLER_0_14_477
*1154 FILLER_0_14_489
*1155 FILLER_0_14_501
*1156 FILLER_0_14_513
*1157 FILLER_0_14_525
*1158 FILLER_0_14_53
*1159 FILLER_0_14_531
*1160 FILLER_0_14_533
*1161 FILLER_0_14_545
*1162 FILLER_0_14_557
*1163 FILLER_0_14_569
*1164 FILLER_0_14_581
*1165 FILLER_0_14_587
*1166 FILLER_0_14_589
*1167 FILLER_0_14_601
*1168 FILLER_0_14_613
*1169 FILLER_0_14_65
*1170 FILLER_0_14_77
*1171 FILLER_0_14_83
*1172 FILLER_0_14_85
*1173 FILLER_0_14_9
*1174 FILLER_0_14_97
*1175 FILLER_0_15_105
*1176 FILLER_0_15_111
*1177 FILLER_0_15_113
*1178 FILLER_0_15_125
*1179 FILLER_0_15_137
*1180 FILLER_0_15_149
*1181 FILLER_0_15_15
*1182 FILLER_0_15_161
*1183 FILLER_0_15_167
*1184 FILLER_0_15_169
*1185 FILLER_0_15_181
*1186 FILLER_0_15_193
*1187 FILLER_0_15_205
*1188 FILLER_0_15_217
*1189 FILLER_0_15_223
*1190 FILLER_0_15_225
*1191 FILLER_0_15_237
*1192 FILLER_0_15_249
*1193 FILLER_0_15_261
*1194 FILLER_0_15_27
*1195 FILLER_0_15_273
*1196 FILLER_0_15_279
*1197 FILLER_0_15_281
*1198 FILLER_0_15_293
*1199 FILLER_0_15_3
*1200 FILLER_0_15_305
*1201 FILLER_0_15_317
*1202 FILLER_0_15_329
*1203 FILLER_0_15_335
*1204 FILLER_0_15_337
*1205 FILLER_0_15_349
*1206 FILLER_0_15_361
*1207 FILLER_0_15_373
*1208 FILLER_0_15_385
*1209 FILLER_0_15_39
*1210 FILLER_0_15_391
*1211 FILLER_0_15_393
*1212 FILLER_0_15_405
*1213 FILLER_0_15_417
*1214 FILLER_0_15_429
*1215 FILLER_0_15_441
*1216 FILLER_0_15_447
*1217 FILLER_0_15_449
*1218 FILLER_0_15_461
*1219 FILLER_0_15_473
*1220 FILLER_0_15_485
*1221 FILLER_0_15_497
*1222 FILLER_0_15_503
*1223 FILLER_0_15_505
*1224 FILLER_0_15_51
*1225 FILLER_0_15_517
*1226 FILLER_0_15_529
*1227 FILLER_0_15_541
*1228 FILLER_0_15_55
*1229 FILLER_0_15_553
*1230 FILLER_0_15_559
*1231 FILLER_0_15_561
*1232 FILLER_0_15_57
*1233 FILLER_0_15_573
*1234 FILLER_0_15_585
*1235 FILLER_0_15_597
*1236 FILLER_0_15_609
*1237 FILLER_0_15_615
*1238 FILLER_0_15_617
*1239 FILLER_0_15_69
*1240 FILLER_0_15_81
*1241 FILLER_0_15_93
*1242 FILLER_0_16_109
*1243 FILLER_0_16_121
*1244 FILLER_0_16_133
*1245 FILLER_0_16_139
*1246 FILLER_0_16_141
*1247 FILLER_0_16_153
*1248 FILLER_0_16_165
*1249 FILLER_0_16_177
*1250 FILLER_0_16_189
*1251 FILLER_0_16_195
*1252 FILLER_0_16_197
*1253 FILLER_0_16_209
*1254 FILLER_0_16_21
*1255 FILLER_0_16_221
*1256 FILLER_0_16_233
*1257 FILLER_0_16_245
*1258 FILLER_0_16_251
*1259 FILLER_0_16_253
*1260 FILLER_0_16_265
*1261 FILLER_0_16_27
*1262 FILLER_0_16_277
*1263 FILLER_0_16_289
*1264 FILLER_0_16_29
*1265 FILLER_0_16_301
*1266 FILLER_0_16_307
*1267 FILLER_0_16_309
*1268 FILLER_0_16_321
*1269 FILLER_0_16_333
*1270 FILLER_0_16_345
*1271 FILLER_0_16_357
*1272 FILLER_0_16_363
*1273 FILLER_0_16_365
*1274 FILLER_0_16_377
*1275 FILLER_0_16_389
*1276 FILLER_0_16_401
*1277 FILLER_0_16_41
*1278 FILLER_0_16_413
*1279 FILLER_0_16_419
*1280 FILLER_0_16_421
*1281 FILLER_0_16_433
*1282 FILLER_0_16_445
*1283 FILLER_0_16_457
*1284 FILLER_0_16_469
*1285 FILLER_0_16_475
*1286 FILLER_0_16_477
*1287 FILLER_0_16_489
*1288 FILLER_0_16_501
*1289 FILLER_0_16_513
*1290 FILLER_0_16_525
*1291 FILLER_0_16_53
*1292 FILLER_0_16_531
*1293 FILLER_0_16_533
*1294 FILLER_0_16_545
*1295 FILLER_0_16_557
*1296 FILLER_0_16_569
*1297 FILLER_0_16_581
*1298 FILLER_0_16_587
*1299 FILLER_0_16_589
*1300 FILLER_0_16_601
*1301 FILLER_0_16_613
*1302 FILLER_0_16_65
*1303 FILLER_0_16_77
*1304 FILLER_0_16_83
*1305 FILLER_0_16_85
*1306 FILLER_0_16_9
*1307 FILLER_0_16_97
*1308 FILLER_0_17_105
*1309 FILLER_0_17_111
*1310 FILLER_0_17_113
*1311 FILLER_0_17_125
*1312 FILLER_0_17_137
*1313 FILLER_0_17_149
*1314 FILLER_0_17_15
*1315 FILLER_0_17_161
*1316 FILLER_0_17_167
*1317 FILLER_0_17_169
*1318 FILLER_0_17_181
*1319 FILLER_0_17_193
*1320 FILLER_0_17_205
*1321 FILLER_0_17_217
*1322 FILLER_0_17_223
*1323 FILLER_0_17_225
*1324 FILLER_0_17_237
*1325 FILLER_0_17_249
*1326 FILLER_0_17_261
*1327 FILLER_0_17_27
*1328 FILLER_0_17_273
*1329 FILLER_0_17_279
*1330 FILLER_0_17_281
*1331 FILLER_0_17_293
*1332 FILLER_0_17_3
*1333 FILLER_0_17_305
*1334 FILLER_0_17_317
*1335 FILLER_0_17_329
*1336 FILLER_0_17_335
*1337 FILLER_0_17_337
*1338 FILLER_0_17_349
*1339 FILLER_0_17_361
*1340 FILLER_0_17_373
*1341 FILLER_0_17_385
*1342 FILLER_0_17_39
*1343 FILLER_0_17_391
*1344 FILLER_0_17_393
*1345 FILLER_0_17_405
*1346 FILLER_0_17_417
*1347 FILLER_0_17_429
*1348 FILLER_0_17_441
*1349 FILLER_0_17_447
*1350 FILLER_0_17_449
*1351 FILLER_0_17_461
*1352 FILLER_0_17_473
*1353 FILLER_0_17_485
*1354 FILLER_0_17_497
*1355 FILLER_0_17_503
*1356 FILLER_0_17_505
*1357 FILLER_0_17_51
*1358 FILLER_0_17_517
*1359 FILLER_0_17_529
*1360 FILLER_0_17_541
*1361 FILLER_0_17_55
*1362 FILLER_0_17_553
*1363 FILLER_0_17_559
*1364 FILLER_0_17_561
*1365 FILLER_0_17_57
*1366 FILLER_0_17_573
*1367 FILLER_0_17_585
*1368 FILLER_0_17_597
*1369 FILLER_0_17_609
*1370 FILLER_0_17_615
*1371 FILLER_0_17_617
*1372 FILLER_0_17_69
*1373 FILLER_0_17_81
*1374 FILLER_0_17_93
*1375 FILLER_0_18_109
*1376 FILLER_0_18_121
*1377 FILLER_0_18_133
*1378 FILLER_0_18_139
*1379 FILLER_0_18_141
*1380 FILLER_0_18_15
*1381 FILLER_0_18_153
*1382 FILLER_0_18_165
*1383 FILLER_0_18_177
*1384 FILLER_0_18_189
*1385 FILLER_0_18_195
*1386 FILLER_0_18_197
*1387 FILLER_0_18_209
*1388 FILLER_0_18_221
*1389 FILLER_0_18_233
*1390 FILLER_0_18_245
*1391 FILLER_0_18_251
*1392 FILLER_0_18_253
*1393 FILLER_0_18_265
*1394 FILLER_0_18_27
*1395 FILLER_0_18_277
*1396 FILLER_0_18_289
*1397 FILLER_0_18_29
*1398 FILLER_0_18_3
*1399 FILLER_0_18_301
*1400 FILLER_0_18_307
*1401 FILLER_0_18_309
*1402 FILLER_0_18_321
*1403 FILLER_0_18_333
*1404 FILLER_0_18_345
*1405 FILLER_0_18_357
*1406 FILLER_0_18_363
*1407 FILLER_0_18_365
*1408 FILLER_0_18_377
*1409 FILLER_0_18_389
*1410 FILLER_0_18_401
*1411 FILLER_0_18_41
*1412 FILLER_0_18_413
*1413 FILLER_0_18_419
*1414 FILLER_0_18_421
*1415 FILLER_0_18_433
*1416 FILLER_0_18_445
*1417 FILLER_0_18_457
*1418 FILLER_0_18_469
*1419 FILLER_0_18_475
*1420 FILLER_0_18_477
*1421 FILLER_0_18_489
*1422 FILLER_0_18_501
*1423 FILLER_0_18_513
*1424 FILLER_0_18_525
*1425 FILLER_0_18_53
*1426 FILLER_0_18_531
*1427 FILLER_0_18_533
*1428 FILLER_0_18_545
*1429 FILLER_0_18_557
*1430 FILLER_0_18_569
*1431 FILLER_0_18_581
*1432 FILLER_0_18_587
*1433 FILLER_0_18_589
*1434 FILLER_0_18_601
*1435 FILLER_0_18_613
*1436 FILLER_0_18_65
*1437 FILLER_0_18_77
*1438 FILLER_0_18_83
*1439 FILLER_0_18_85
*1440 FILLER_0_18_97
*1441 FILLER_0_19_105
*1442 FILLER_0_19_111
*1443 FILLER_0_19_113
*1444 FILLER_0_19_125
*1445 FILLER_0_19_137
*1446 FILLER_0_19_149
*1447 FILLER_0_19_161
*1448 FILLER_0_19_167
*1449 FILLER_0_19_169
*1450 FILLER_0_19_18
*1451 FILLER_0_19_181
*1452 FILLER_0_19_193
*1453 FILLER_0_19_205
*1454 FILLER_0_19_217
*1455 FILLER_0_19_223
*1456 FILLER_0_19_225
*1457 FILLER_0_19_237
*1458 FILLER_0_19_241
*1459 FILLER_0_19_262
*1460 FILLER_0_19_274
*1461 FILLER_0_19_281
*1462 FILLER_0_19_293
*1463 FILLER_0_19_30
*1464 FILLER_0_19_305
*1465 FILLER_0_19_317
*1466 FILLER_0_19_329
*1467 FILLER_0_19_335
*1468 FILLER_0_19_337
*1469 FILLER_0_19_349
*1470 FILLER_0_19_361
*1471 FILLER_0_19_373
*1472 FILLER_0_19_385
*1473 FILLER_0_19_391
*1474 FILLER_0_19_393
*1475 FILLER_0_19_405
*1476 FILLER_0_19_417
*1477 FILLER_0_19_42
*1478 FILLER_0_19_429
*1479 FILLER_0_19_441
*1480 FILLER_0_19_447
*1481 FILLER_0_19_449
*1482 FILLER_0_19_461
*1483 FILLER_0_19_473
*1484 FILLER_0_19_485
*1485 FILLER_0_19_497
*1486 FILLER_0_19_503
*1487 FILLER_0_19_505
*1488 FILLER_0_19_517
*1489 FILLER_0_19_529
*1490 FILLER_0_19_54
*1491 FILLER_0_19_541
*1492 FILLER_0_19_553
*1493 FILLER_0_19_559
*1494 FILLER_0_19_561
*1495 FILLER_0_19_57
*1496 FILLER_0_19_573
*1497 FILLER_0_19_585
*1498 FILLER_0_19_597
*1499 FILLER_0_19_6
*1500 FILLER_0_19_609
*1501 FILLER_0_19_615
*1502 FILLER_0_19_617
*1503 FILLER_0_19_69
*1504 FILLER_0_19_81
*1505 FILLER_0_19_93
*1506 FILLER_0_1_105
*1507 FILLER_0_1_111
*1508 FILLER_0_1_113
*1509 FILLER_0_1_125
*1510 FILLER_0_1_137
*1511 FILLER_0_1_149
*1512 FILLER_0_1_161
*1513 FILLER_0_1_167
*1514 FILLER_0_1_169
*1515 FILLER_0_1_17
*1516 FILLER_0_1_173
*1517 FILLER_0_1_177
*1518 FILLER_0_1_189
*1519 FILLER_0_1_201
*1520 FILLER_0_1_213
*1521 FILLER_0_1_221
*1522 FILLER_0_1_225
*1523 FILLER_0_1_237
*1524 FILLER_0_1_242
*1525 FILLER_0_1_252
*1526 FILLER_0_1_264
*1527 FILLER_0_1_276
*1528 FILLER_0_1_281
*1529 FILLER_0_1_29
*1530 FILLER_0_1_3
*1531 FILLER_0_1_331
*1532 FILLER_0_1_335
*1533 FILLER_0_1_337
*1534 FILLER_0_1_349
*1535 FILLER_0_1_361
*1536 FILLER_0_1_373
*1537 FILLER_0_1_381
*1538 FILLER_0_1_387
*1539 FILLER_0_1_402
*1540 FILLER_0_1_41
*1541 FILLER_0_1_414
*1542 FILLER_0_1_426
*1543 FILLER_0_1_438
*1544 FILLER_0_1_446
*1545 FILLER_0_1_449
*1546 FILLER_0_1_461
*1547 FILLER_0_1_473
*1548 FILLER_0_1_485
*1549 FILLER_0_1_497
*1550 FILLER_0_1_503
*1551 FILLER_0_1_505
*1552 FILLER_0_1_517
*1553 FILLER_0_1_529
*1554 FILLER_0_1_53
*1555 FILLER_0_1_541
*1556 FILLER_0_1_553
*1557 FILLER_0_1_559
*1558 FILLER_0_1_561
*1559 FILLER_0_1_57
*1560 FILLER_0_1_573
*1561 FILLER_0_1_585
*1562 FILLER_0_1_597
*1563 FILLER_0_1_609
*1564 FILLER_0_1_617
*1565 FILLER_0_1_69
*1566 FILLER_0_1_81
*1567 FILLER_0_1_93
*1568 FILLER_0_20_109
*1569 FILLER_0_20_121
*1570 FILLER_0_20_133
*1571 FILLER_0_20_139
*1572 FILLER_0_20_141
*1573 FILLER_0_20_153
*1574 FILLER_0_20_165
*1575 FILLER_0_20_177
*1576 FILLER_0_20_189
*1577 FILLER_0_20_19
*1578 FILLER_0_20_195
*1579 FILLER_0_20_197
*1580 FILLER_0_20_209
*1581 FILLER_0_20_221
*1582 FILLER_0_20_233
*1583 FILLER_0_20_245
*1584 FILLER_0_20_251
*1585 FILLER_0_20_253
*1586 FILLER_0_20_265
*1587 FILLER_0_20_27
*1588 FILLER_0_20_277
*1589 FILLER_0_20_289
*1590 FILLER_0_20_29
*1591 FILLER_0_20_301
*1592 FILLER_0_20_307
*1593 FILLER_0_20_309
*1594 FILLER_0_20_321
*1595 FILLER_0_20_333
*1596 FILLER_0_20_345
*1597 FILLER_0_20_357
*1598 FILLER_0_20_363
*1599 FILLER_0_20_365
*1600 FILLER_0_20_377
*1601 FILLER_0_20_389
*1602 FILLER_0_20_401
*1603 FILLER_0_20_41
*1604 FILLER_0_20_413
*1605 FILLER_0_20_419
*1606 FILLER_0_20_421
*1607 FILLER_0_20_436
*1608 FILLER_0_20_447
*1609 FILLER_0_20_459
*1610 FILLER_0_20_471
*1611 FILLER_0_20_475
*1612 FILLER_0_20_477
*1613 FILLER_0_20_489
*1614 FILLER_0_20_501
*1615 FILLER_0_20_513
*1616 FILLER_0_20_525
*1617 FILLER_0_20_53
*1618 FILLER_0_20_531
*1619 FILLER_0_20_533
*1620 FILLER_0_20_545
*1621 FILLER_0_20_557
*1622 FILLER_0_20_569
*1623 FILLER_0_20_581
*1624 FILLER_0_20_587
*1625 FILLER_0_20_589
*1626 FILLER_0_20_601
*1627 FILLER_0_20_613
*1628 FILLER_0_20_621
*1629 FILLER_0_20_65
*1630 FILLER_0_20_7
*1631 FILLER_0_20_77
*1632 FILLER_0_20_83
*1633 FILLER_0_20_85
*1634 FILLER_0_20_97
*1635 FILLER_0_21_105
*1636 FILLER_0_21_111
*1637 FILLER_0_21_113
*1638 FILLER_0_21_125
*1639 FILLER_0_21_137
*1640 FILLER_0_21_149
*1641 FILLER_0_21_15
*1642 FILLER_0_21_161
*1643 FILLER_0_21_167
*1644 FILLER_0_21_169
*1645 FILLER_0_21_181
*1646 FILLER_0_21_193
*1647 FILLER_0_21_205
*1648 FILLER_0_21_217
*1649 FILLER_0_21_223
*1650 FILLER_0_21_225
*1651 FILLER_0_21_237
*1652 FILLER_0_21_249
*1653 FILLER_0_21_261
*1654 FILLER_0_21_27
*1655 FILLER_0_21_273
*1656 FILLER_0_21_279
*1657 FILLER_0_21_281
*1658 FILLER_0_21_293
*1659 FILLER_0_21_3
*1660 FILLER_0_21_305
*1661 FILLER_0_21_317
*1662 FILLER_0_21_329
*1663 FILLER_0_21_335
*1664 FILLER_0_21_337
*1665 FILLER_0_21_349
*1666 FILLER_0_21_361
*1667 FILLER_0_21_373
*1668 FILLER_0_21_385
*1669 FILLER_0_21_39
*1670 FILLER_0_21_391
*1671 FILLER_0_21_393
*1672 FILLER_0_21_405
*1673 FILLER_0_21_417
*1674 FILLER_0_21_425
*1675 FILLER_0_21_446
*1676 FILLER_0_21_449
*1677 FILLER_0_21_461
*1678 FILLER_0_21_473
*1679 FILLER_0_21_485
*1680 FILLER_0_21_497
*1681 FILLER_0_21_503
*1682 FILLER_0_21_505
*1683 FILLER_0_21_51
*1684 FILLER_0_21_517
*1685 FILLER_0_21_529
*1686 FILLER_0_21_541
*1687 FILLER_0_21_55
*1688 FILLER_0_21_553
*1689 FILLER_0_21_559
*1690 FILLER_0_21_561
*1691 FILLER_0_21_57
*1692 FILLER_0_21_573
*1693 FILLER_0_21_585
*1694 FILLER_0_21_597
*1695 FILLER_0_21_609
*1696 FILLER_0_21_615
*1697 FILLER_0_21_617
*1698 FILLER_0_21_69
*1699 FILLER_0_21_81
*1700 FILLER_0_21_93
*1701 FILLER_0_22_109
*1702 FILLER_0_22_121
*1703 FILLER_0_22_133
*1704 FILLER_0_22_139
*1705 FILLER_0_22_141
*1706 FILLER_0_22_153
*1707 FILLER_0_22_165
*1708 FILLER_0_22_177
*1709 FILLER_0_22_189
*1710 FILLER_0_22_195
*1711 FILLER_0_22_197
*1712 FILLER_0_22_209
*1713 FILLER_0_22_21
*1714 FILLER_0_22_221
*1715 FILLER_0_22_233
*1716 FILLER_0_22_245
*1717 FILLER_0_22_251
*1718 FILLER_0_22_253
*1719 FILLER_0_22_265
*1720 FILLER_0_22_27
*1721 FILLER_0_22_277
*1722 FILLER_0_22_289
*1723 FILLER_0_22_29
*1724 FILLER_0_22_301
*1725 FILLER_0_22_307
*1726 FILLER_0_22_309
*1727 FILLER_0_22_321
*1728 FILLER_0_22_333
*1729 FILLER_0_22_345
*1730 FILLER_0_22_357
*1731 FILLER_0_22_363
*1732 FILLER_0_22_365
*1733 FILLER_0_22_377
*1734 FILLER_0_22_389
*1735 FILLER_0_22_401
*1736 FILLER_0_22_41
*1737 FILLER_0_22_413
*1738 FILLER_0_22_419
*1739 FILLER_0_22_421
*1740 FILLER_0_22_433
*1741 FILLER_0_22_445
*1742 FILLER_0_22_457
*1743 FILLER_0_22_469
*1744 FILLER_0_22_475
*1745 FILLER_0_22_477
*1746 FILLER_0_22_489
*1747 FILLER_0_22_501
*1748 FILLER_0_22_513
*1749 FILLER_0_22_525
*1750 FILLER_0_22_53
*1751 FILLER_0_22_531
*1752 FILLER_0_22_533
*1753 FILLER_0_22_545
*1754 FILLER_0_22_557
*1755 FILLER_0_22_569
*1756 FILLER_0_22_581
*1757 FILLER_0_22_587
*1758 FILLER_0_22_589
*1759 FILLER_0_22_601
*1760 FILLER_0_22_613
*1761 FILLER_0_22_65
*1762 FILLER_0_22_77
*1763 FILLER_0_22_83
*1764 FILLER_0_22_85
*1765 FILLER_0_22_9
*1766 FILLER_0_22_97
*1767 FILLER_0_23_105
*1768 FILLER_0_23_111
*1769 FILLER_0_23_113
*1770 FILLER_0_23_125
*1771 FILLER_0_23_137
*1772 FILLER_0_23_149
*1773 FILLER_0_23_15
*1774 FILLER_0_23_161
*1775 FILLER_0_23_167
*1776 FILLER_0_23_169
*1777 FILLER_0_23_181
*1778 FILLER_0_23_193
*1779 FILLER_0_23_205
*1780 FILLER_0_23_217
*1781 FILLER_0_23_223
*1782 FILLER_0_23_225
*1783 FILLER_0_23_237
*1784 FILLER_0_23_249
*1785 FILLER_0_23_261
*1786 FILLER_0_23_27
*1787 FILLER_0_23_273
*1788 FILLER_0_23_279
*1789 FILLER_0_23_281
*1790 FILLER_0_23_293
*1791 FILLER_0_23_3
*1792 FILLER_0_23_305
*1793 FILLER_0_23_317
*1794 FILLER_0_23_329
*1795 FILLER_0_23_335
*1796 FILLER_0_23_337
*1797 FILLER_0_23_349
*1798 FILLER_0_23_361
*1799 FILLER_0_23_373
*1800 FILLER_0_23_385
*1801 FILLER_0_23_39
*1802 FILLER_0_23_391
*1803 FILLER_0_23_393
*1804 FILLER_0_23_405
*1805 FILLER_0_23_417
*1806 FILLER_0_23_429
*1807 FILLER_0_23_441
*1808 FILLER_0_23_447
*1809 FILLER_0_23_449
*1810 FILLER_0_23_461
*1811 FILLER_0_23_473
*1812 FILLER_0_23_485
*1813 FILLER_0_23_497
*1814 FILLER_0_23_503
*1815 FILLER_0_23_505
*1816 FILLER_0_23_51
*1817 FILLER_0_23_517
*1818 FILLER_0_23_529
*1819 FILLER_0_23_541
*1820 FILLER_0_23_55
*1821 FILLER_0_23_553
*1822 FILLER_0_23_559
*1823 FILLER_0_23_561
*1824 FILLER_0_23_57
*1825 FILLER_0_23_573
*1826 FILLER_0_23_585
*1827 FILLER_0_23_597
*1828 FILLER_0_23_609
*1829 FILLER_0_23_615
*1830 FILLER_0_23_617
*1831 FILLER_0_23_69
*1832 FILLER_0_23_81
*1833 FILLER_0_23_93
*1834 FILLER_0_24_109
*1835 FILLER_0_24_121
*1836 FILLER_0_24_133
*1837 FILLER_0_24_139
*1838 FILLER_0_24_141
*1839 FILLER_0_24_15
*1840 FILLER_0_24_153
*1841 FILLER_0_24_165
*1842 FILLER_0_24_177
*1843 FILLER_0_24_189
*1844 FILLER_0_24_195
*1845 FILLER_0_24_197
*1846 FILLER_0_24_209
*1847 FILLER_0_24_221
*1848 FILLER_0_24_233
*1849 FILLER_0_24_245
*1850 FILLER_0_24_251
*1851 FILLER_0_24_253
*1852 FILLER_0_24_265
*1853 FILLER_0_24_27
*1854 FILLER_0_24_277
*1855 FILLER_0_24_289
*1856 FILLER_0_24_29
*1857 FILLER_0_24_3
*1858 FILLER_0_24_301
*1859 FILLER_0_24_307
*1860 FILLER_0_24_309
*1861 FILLER_0_24_321
*1862 FILLER_0_24_333
*1863 FILLER_0_24_345
*1864 FILLER_0_24_357
*1865 FILLER_0_24_363
*1866 FILLER_0_24_365
*1867 FILLER_0_24_377
*1868 FILLER_0_24_389
*1869 FILLER_0_24_401
*1870 FILLER_0_24_41
*1871 FILLER_0_24_413
*1872 FILLER_0_24_419
*1873 FILLER_0_24_421
*1874 FILLER_0_24_433
*1875 FILLER_0_24_441
*1876 FILLER_0_24_448
*1877 FILLER_0_24_456
*1878 FILLER_0_24_468
*1879 FILLER_0_24_477
*1880 FILLER_0_24_489
*1881 FILLER_0_24_501
*1882 FILLER_0_24_513
*1883 FILLER_0_24_525
*1884 FILLER_0_24_53
*1885 FILLER_0_24_531
*1886 FILLER_0_24_533
*1887 FILLER_0_24_545
*1888 FILLER_0_24_557
*1889 FILLER_0_24_569
*1890 FILLER_0_24_581
*1891 FILLER_0_24_587
*1892 FILLER_0_24_589
*1893 FILLER_0_24_601
*1894 FILLER_0_24_613
*1895 FILLER_0_24_65
*1896 FILLER_0_24_77
*1897 FILLER_0_24_83
*1898 FILLER_0_24_85
*1899 FILLER_0_24_97
*1900 FILLER_0_25_105
*1901 FILLER_0_25_111
*1902 FILLER_0_25_113
*1903 FILLER_0_25_125
*1904 FILLER_0_25_137
*1905 FILLER_0_25_149
*1906 FILLER_0_25_161
*1907 FILLER_0_25_167
*1908 FILLER_0_25_169
*1909 FILLER_0_25_181
*1910 FILLER_0_25_19
*1911 FILLER_0_25_193
*1912 FILLER_0_25_205
*1913 FILLER_0_25_217
*1914 FILLER_0_25_223
*1915 FILLER_0_25_225
*1916 FILLER_0_25_237
*1917 FILLER_0_25_249
*1918 FILLER_0_25_261
*1919 FILLER_0_25_273
*1920 FILLER_0_25_279
*1921 FILLER_0_25_281
*1922 FILLER_0_25_293
*1923 FILLER_0_25_305
*1924 FILLER_0_25_31
*1925 FILLER_0_25_317
*1926 FILLER_0_25_329
*1927 FILLER_0_25_335
*1928 FILLER_0_25_337
*1929 FILLER_0_25_349
*1930 FILLER_0_25_361
*1931 FILLER_0_25_373
*1932 FILLER_0_25_385
*1933 FILLER_0_25_391
*1934 FILLER_0_25_393
*1935 FILLER_0_25_405
*1936 FILLER_0_25_417
*1937 FILLER_0_25_429
*1938 FILLER_0_25_43
*1939 FILLER_0_25_441
*1940 FILLER_0_25_447
*1941 FILLER_0_25_449
*1942 FILLER_0_25_461
*1943 FILLER_0_25_473
*1944 FILLER_0_25_485
*1945 FILLER_0_25_497
*1946 FILLER_0_25_503
*1947 FILLER_0_25_505
*1948 FILLER_0_25_517
*1949 FILLER_0_25_529
*1950 FILLER_0_25_541
*1951 FILLER_0_25_55
*1952 FILLER_0_25_553
*1953 FILLER_0_25_559
*1954 FILLER_0_25_561
*1955 FILLER_0_25_57
*1956 FILLER_0_25_573
*1957 FILLER_0_25_585
*1958 FILLER_0_25_597
*1959 FILLER_0_25_609
*1960 FILLER_0_25_615
*1961 FILLER_0_25_617
*1962 FILLER_0_25_69
*1963 FILLER_0_25_7
*1964 FILLER_0_25_81
*1965 FILLER_0_25_93
*1966 FILLER_0_26_109
*1967 FILLER_0_26_121
*1968 FILLER_0_26_133
*1969 FILLER_0_26_139
*1970 FILLER_0_26_141
*1971 FILLER_0_26_15
*1972 FILLER_0_26_153
*1973 FILLER_0_26_165
*1974 FILLER_0_26_177
*1975 FILLER_0_26_189
*1976 FILLER_0_26_195
*1977 FILLER_0_26_197
*1978 FILLER_0_26_209
*1979 FILLER_0_26_221
*1980 FILLER_0_26_233
*1981 FILLER_0_26_245
*1982 FILLER_0_26_251
*1983 FILLER_0_26_253
*1984 FILLER_0_26_265
*1985 FILLER_0_26_27
*1986 FILLER_0_26_277
*1987 FILLER_0_26_289
*1988 FILLER_0_26_29
*1989 FILLER_0_26_3
*1990 FILLER_0_26_301
*1991 FILLER_0_26_307
*1992 FILLER_0_26_309
*1993 FILLER_0_26_321
*1994 FILLER_0_26_333
*1995 FILLER_0_26_345
*1996 FILLER_0_26_357
*1997 FILLER_0_26_363
*1998 FILLER_0_26_365
*1999 FILLER_0_26_377
*2000 FILLER_0_26_389
*2001 FILLER_0_26_401
*2002 FILLER_0_26_41
*2003 FILLER_0_26_413
*2004 FILLER_0_26_419
*2005 FILLER_0_26_421
*2006 FILLER_0_26_433
*2007 FILLER_0_26_445
*2008 FILLER_0_26_457
*2009 FILLER_0_26_469
*2010 FILLER_0_26_475
*2011 FILLER_0_26_477
*2012 FILLER_0_26_489
*2013 FILLER_0_26_501
*2014 FILLER_0_26_513
*2015 FILLER_0_26_525
*2016 FILLER_0_26_53
*2017 FILLER_0_26_531
*2018 FILLER_0_26_533
*2019 FILLER_0_26_545
*2020 FILLER_0_26_557
*2021 FILLER_0_26_569
*2022 FILLER_0_26_581
*2023 FILLER_0_26_587
*2024 FILLER_0_26_589
*2025 FILLER_0_26_601
*2026 FILLER_0_26_613
*2027 FILLER_0_26_621
*2028 FILLER_0_26_65
*2029 FILLER_0_26_77
*2030 FILLER_0_26_83
*2031 FILLER_0_26_85
*2032 FILLER_0_26_97
*2033 FILLER_0_27_105
*2034 FILLER_0_27_111
*2035 FILLER_0_27_113
*2036 FILLER_0_27_125
*2037 FILLER_0_27_13
*2038 FILLER_0_27_137
*2039 FILLER_0_27_149
*2040 FILLER_0_27_161
*2041 FILLER_0_27_167
*2042 FILLER_0_27_169
*2043 FILLER_0_27_181
*2044 FILLER_0_27_193
*2045 FILLER_0_27_205
*2046 FILLER_0_27_217
*2047 FILLER_0_27_223
*2048 FILLER_0_27_225
*2049 FILLER_0_27_237
*2050 FILLER_0_27_249
*2051 FILLER_0_27_25
*2052 FILLER_0_27_261
*2053 FILLER_0_27_273
*2054 FILLER_0_27_279
*2055 FILLER_0_27_281
*2056 FILLER_0_27_293
*2057 FILLER_0_27_305
*2058 FILLER_0_27_317
*2059 FILLER_0_27_329
*2060 FILLER_0_27_335
*2061 FILLER_0_27_337
*2062 FILLER_0_27_349
*2063 FILLER_0_27_361
*2064 FILLER_0_27_37
*2065 FILLER_0_27_373
*2066 FILLER_0_27_385
*2067 FILLER_0_27_391
*2068 FILLER_0_27_393
*2069 FILLER_0_27_405
*2070 FILLER_0_27_417
*2071 FILLER_0_27_429
*2072 FILLER_0_27_441
*2073 FILLER_0_27_447
*2074 FILLER_0_27_449
*2075 FILLER_0_27_461
*2076 FILLER_0_27_473
*2077 FILLER_0_27_485
*2078 FILLER_0_27_49
*2079 FILLER_0_27_497
*2080 FILLER_0_27_503
*2081 FILLER_0_27_505
*2082 FILLER_0_27_517
*2083 FILLER_0_27_529
*2084 FILLER_0_27_541
*2085 FILLER_0_27_55
*2086 FILLER_0_27_553
*2087 FILLER_0_27_559
*2088 FILLER_0_27_561
*2089 FILLER_0_27_57
*2090 FILLER_0_27_573
*2091 FILLER_0_27_585
*2092 FILLER_0_27_597
*2093 FILLER_0_27_609
*2094 FILLER_0_27_615
*2095 FILLER_0_27_617
*2096 FILLER_0_27_69
*2097 FILLER_0_27_81
*2098 FILLER_0_27_93
*2099 FILLER_0_28_109
*2100 FILLER_0_28_121
*2101 FILLER_0_28_133
*2102 FILLER_0_28_139
*2103 FILLER_0_28_141
*2104 FILLER_0_28_15
*2105 FILLER_0_28_153
*2106 FILLER_0_28_165
*2107 FILLER_0_28_177
*2108 FILLER_0_28_189
*2109 FILLER_0_28_195
*2110 FILLER_0_28_197
*2111 FILLER_0_28_209
*2112 FILLER_0_28_221
*2113 FILLER_0_28_233
*2114 FILLER_0_28_245
*2115 FILLER_0_28_251
*2116 FILLER_0_28_253
*2117 FILLER_0_28_265
*2118 FILLER_0_28_27
*2119 FILLER_0_28_277
*2120 FILLER_0_28_289
*2121 FILLER_0_28_29
*2122 FILLER_0_28_294
*2123 FILLER_0_28_3
*2124 FILLER_0_28_306
*2125 FILLER_0_28_309
*2126 FILLER_0_28_321
*2127 FILLER_0_28_333
*2128 FILLER_0_28_345
*2129 FILLER_0_28_357
*2130 FILLER_0_28_363
*2131 FILLER_0_28_365
*2132 FILLER_0_28_377
*2133 FILLER_0_28_389
*2134 FILLER_0_28_401
*2135 FILLER_0_28_41
*2136 FILLER_0_28_413
*2137 FILLER_0_28_419
*2138 FILLER_0_28_421
*2139 FILLER_0_28_433
*2140 FILLER_0_28_445
*2141 FILLER_0_28_457
*2142 FILLER_0_28_469
*2143 FILLER_0_28_475
*2144 FILLER_0_28_477
*2145 FILLER_0_28_489
*2146 FILLER_0_28_501
*2147 FILLER_0_28_513
*2148 FILLER_0_28_525
*2149 FILLER_0_28_53
*2150 FILLER_0_28_531
*2151 FILLER_0_28_533
*2152 FILLER_0_28_545
*2153 FILLER_0_28_557
*2154 FILLER_0_28_563
*2155 FILLER_0_28_569
*2156 FILLER_0_28_581
*2157 FILLER_0_28_587
*2158 FILLER_0_28_589
*2159 FILLER_0_28_601
*2160 FILLER_0_28_613
*2161 FILLER_0_28_65
*2162 FILLER_0_28_77
*2163 FILLER_0_28_83
*2164 FILLER_0_28_85
*2165 FILLER_0_28_97
*2166 FILLER_0_29_100
*2167 FILLER_0_29_113
*2168 FILLER_0_29_125
*2169 FILLER_0_29_137
*2170 FILLER_0_29_149
*2171 FILLER_0_29_15
*2172 FILLER_0_29_161
*2173 FILLER_0_29_167
*2174 FILLER_0_29_169
*2175 FILLER_0_29_181
*2176 FILLER_0_29_193
*2177 FILLER_0_29_205
*2178 FILLER_0_29_217
*2179 FILLER_0_29_223
*2180 FILLER_0_29_225
*2181 FILLER_0_29_237
*2182 FILLER_0_29_249
*2183 FILLER_0_29_261
*2184 FILLER_0_29_27
*2185 FILLER_0_29_273
*2186 FILLER_0_29_279
*2187 FILLER_0_29_286
*2188 FILLER_0_29_298
*2189 FILLER_0_29_3
*2190 FILLER_0_29_310
*2191 FILLER_0_29_314
*2192 FILLER_0_29_319
*2193 FILLER_0_29_331
*2194 FILLER_0_29_335
*2195 FILLER_0_29_337
*2196 FILLER_0_29_349
*2197 FILLER_0_29_361
*2198 FILLER_0_29_373
*2199 FILLER_0_29_385
*2200 FILLER_0_29_39
*2201 FILLER_0_29_391
*2202 FILLER_0_29_393
*2203 FILLER_0_29_405
*2204 FILLER_0_29_417
*2205 FILLER_0_29_429
*2206 FILLER_0_29_441
*2207 FILLER_0_29_447
*2208 FILLER_0_29_469
*2209 FILLER_0_29_481
*2210 FILLER_0_29_493
*2211 FILLER_0_29_501
*2212 FILLER_0_29_505
*2213 FILLER_0_29_51
*2214 FILLER_0_29_517
*2215 FILLER_0_29_529
*2216 FILLER_0_29_541
*2217 FILLER_0_29_55
*2218 FILLER_0_29_553
*2219 FILLER_0_29_559
*2220 FILLER_0_29_561
*2221 FILLER_0_29_57
*2222 FILLER_0_29_573
*2223 FILLER_0_29_585
*2224 FILLER_0_29_597
*2225 FILLER_0_29_609
*2226 FILLER_0_29_615
*2227 FILLER_0_29_617
*2228 FILLER_0_29_69
*2229 FILLER_0_29_81
*2230 FILLER_0_29_88
*2231 FILLER_0_2_109
*2232 FILLER_0_2_121
*2233 FILLER_0_2_133
*2234 FILLER_0_2_139
*2235 FILLER_0_2_141
*2236 FILLER_0_2_15
*2237 FILLER_0_2_153
*2238 FILLER_0_2_165
*2239 FILLER_0_2_197
*2240 FILLER_0_2_209
*2241 FILLER_0_2_221
*2242 FILLER_0_2_229
*2243 FILLER_0_2_253
*2244 FILLER_0_2_265
*2245 FILLER_0_2_27
*2246 FILLER_0_2_277
*2247 FILLER_0_2_29
*2248 FILLER_0_2_306
*2249 FILLER_0_2_332
*2250 FILLER_0_2_344
*2251 FILLER_0_2_356
*2252 FILLER_0_2_365
*2253 FILLER_0_2_377
*2254 FILLER_0_2_41
*2255 FILLER_0_2_418
*2256 FILLER_0_2_430
*2257 FILLER_0_2_442
*2258 FILLER_0_2_454
*2259 FILLER_0_2_466
*2260 FILLER_0_2_474
*2261 FILLER_0_2_477
*2262 FILLER_0_2_489
*2263 FILLER_0_2_501
*2264 FILLER_0_2_513
*2265 FILLER_0_2_525
*2266 FILLER_0_2_53
*2267 FILLER_0_2_531
*2268 FILLER_0_2_533
*2269 FILLER_0_2_545
*2270 FILLER_0_2_557
*2271 FILLER_0_2_569
*2272 FILLER_0_2_581
*2273 FILLER_0_2_587
*2274 FILLER_0_2_589
*2275 FILLER_0_2_601
*2276 FILLER_0_2_613
*2277 FILLER_0_2_65
*2278 FILLER_0_2_77
*2279 FILLER_0_2_83
*2280 FILLER_0_2_85
*2281 FILLER_0_2_9
*2282 FILLER_0_2_97
*2283 FILLER_0_30_109
*2284 FILLER_0_30_121
*2285 FILLER_0_30_133
*2286 FILLER_0_30_139
*2287 FILLER_0_30_141
*2288 FILLER_0_30_153
*2289 FILLER_0_30_165
*2290 FILLER_0_30_177
*2291 FILLER_0_30_18
*2292 FILLER_0_30_189
*2293 FILLER_0_30_195
*2294 FILLER_0_30_197
*2295 FILLER_0_30_209
*2296 FILLER_0_30_221
*2297 FILLER_0_30_233
*2298 FILLER_0_30_245
*2299 FILLER_0_30_251
*2300 FILLER_0_30_253
*2301 FILLER_0_30_26
*2302 FILLER_0_30_265
*2303 FILLER_0_30_277
*2304 FILLER_0_30_289
*2305 FILLER_0_30_29
*2306 FILLER_0_30_301
*2307 FILLER_0_30_307
*2308 FILLER_0_30_309
*2309 FILLER_0_30_320
*2310 FILLER_0_30_332
*2311 FILLER_0_30_344
*2312 FILLER_0_30_356
*2313 FILLER_0_30_365
*2314 FILLER_0_30_377
*2315 FILLER_0_30_389
*2316 FILLER_0_30_401
*2317 FILLER_0_30_41
*2318 FILLER_0_30_413
*2319 FILLER_0_30_419
*2320 FILLER_0_30_441
*2321 FILLER_0_30_453
*2322 FILLER_0_30_465
*2323 FILLER_0_30_473
*2324 FILLER_0_30_477
*2325 FILLER_0_30_489
*2326 FILLER_0_30_501
*2327 FILLER_0_30_513
*2328 FILLER_0_30_525
*2329 FILLER_0_30_53
*2330 FILLER_0_30_531
*2331 FILLER_0_30_533
*2332 FILLER_0_30_545
*2333 FILLER_0_30_557
*2334 FILLER_0_30_569
*2335 FILLER_0_30_581
*2336 FILLER_0_30_587
*2337 FILLER_0_30_589
*2338 FILLER_0_30_6
*2339 FILLER_0_30_604
*2340 FILLER_0_30_616
*2341 FILLER_0_30_624
*2342 FILLER_0_30_65
*2343 FILLER_0_30_73
*2344 FILLER_0_30_79
*2345 FILLER_0_30_83
*2346 FILLER_0_30_85
*2347 FILLER_0_30_97
*2348 FILLER_0_31_105
*2349 FILLER_0_31_111
*2350 FILLER_0_31_113
*2351 FILLER_0_31_125
*2352 FILLER_0_31_137
*2353 FILLER_0_31_149
*2354 FILLER_0_31_161
*2355 FILLER_0_31_167
*2356 FILLER_0_31_169
*2357 FILLER_0_31_181
*2358 FILLER_0_31_193
*2359 FILLER_0_31_205
*2360 FILLER_0_31_21
*2361 FILLER_0_31_217
*2362 FILLER_0_31_223
*2363 FILLER_0_31_225
*2364 FILLER_0_31_237
*2365 FILLER_0_31_249
*2366 FILLER_0_31_261
*2367 FILLER_0_31_273
*2368 FILLER_0_31_279
*2369 FILLER_0_31_281
*2370 FILLER_0_31_293
*2371 FILLER_0_31_305
*2372 FILLER_0_31_317
*2373 FILLER_0_31_329
*2374 FILLER_0_31_33
*2375 FILLER_0_31_335
*2376 FILLER_0_31_337
*2377 FILLER_0_31_349
*2378 FILLER_0_31_361
*2379 FILLER_0_31_373
*2380 FILLER_0_31_385
*2381 FILLER_0_31_391
*2382 FILLER_0_31_393
*2383 FILLER_0_31_405
*2384 FILLER_0_31_417
*2385 FILLER_0_31_432
*2386 FILLER_0_31_444
*2387 FILLER_0_31_449
*2388 FILLER_0_31_45
*2389 FILLER_0_31_461
*2390 FILLER_0_31_473
*2391 FILLER_0_31_485
*2392 FILLER_0_31_497
*2393 FILLER_0_31_503
*2394 FILLER_0_31_505
*2395 FILLER_0_31_517
*2396 FILLER_0_31_529
*2397 FILLER_0_31_53
*2398 FILLER_0_31_541
*2399 FILLER_0_31_553
*2400 FILLER_0_31_559
*2401 FILLER_0_31_561
*2402 FILLER_0_31_57
*2403 FILLER_0_31_573
*2404 FILLER_0_31_585
*2405 FILLER_0_31_591
*2406 FILLER_0_31_597
*2407 FILLER_0_31_609
*2408 FILLER_0_31_615
*2409 FILLER_0_31_617
*2410 FILLER_0_31_621
*2411 FILLER_0_31_69
*2412 FILLER_0_31_81
*2413 FILLER_0_31_9
*2414 FILLER_0_31_93
*2415 FILLER_0_32_109
*2416 FILLER_0_32_121
*2417 FILLER_0_32_133
*2418 FILLER_0_32_139
*2419 FILLER_0_32_141
*2420 FILLER_0_32_15
*2421 FILLER_0_32_153
*2422 FILLER_0_32_165
*2423 FILLER_0_32_177
*2424 FILLER_0_32_189
*2425 FILLER_0_32_195
*2426 FILLER_0_32_197
*2427 FILLER_0_32_209
*2428 FILLER_0_32_221
*2429 FILLER_0_32_233
*2430 FILLER_0_32_245
*2431 FILLER_0_32_251
*2432 FILLER_0_32_253
*2433 FILLER_0_32_265
*2434 FILLER_0_32_27
*2435 FILLER_0_32_277
*2436 FILLER_0_32_289
*2437 FILLER_0_32_29
*2438 FILLER_0_32_3
*2439 FILLER_0_32_301
*2440 FILLER_0_32_318
*2441 FILLER_0_32_330
*2442 FILLER_0_32_342
*2443 FILLER_0_32_354
*2444 FILLER_0_32_362
*2445 FILLER_0_32_365
*2446 FILLER_0_32_377
*2447 FILLER_0_32_389
*2448 FILLER_0_32_401
*2449 FILLER_0_32_41
*2450 FILLER_0_32_413
*2451 FILLER_0_32_419
*2452 FILLER_0_32_421
*2453 FILLER_0_32_433
*2454 FILLER_0_32_445
*2455 FILLER_0_32_457
*2456 FILLER_0_32_469
*2457 FILLER_0_32_475
*2458 FILLER_0_32_477
*2459 FILLER_0_32_489
*2460 FILLER_0_32_501
*2461 FILLER_0_32_513
*2462 FILLER_0_32_525
*2463 FILLER_0_32_53
*2464 FILLER_0_32_531
*2465 FILLER_0_32_533
*2466 FILLER_0_32_545
*2467 FILLER_0_32_557
*2468 FILLER_0_32_569
*2469 FILLER_0_32_581
*2470 FILLER_0_32_587
*2471 FILLER_0_32_589
*2472 FILLER_0_32_601
*2473 FILLER_0_32_613
*2474 FILLER_0_32_65
*2475 FILLER_0_32_77
*2476 FILLER_0_32_83
*2477 FILLER_0_32_85
*2478 FILLER_0_32_97
*2479 FILLER_0_33_105
*2480 FILLER_0_33_111
*2481 FILLER_0_33_113
*2482 FILLER_0_33_125
*2483 FILLER_0_33_137
*2484 FILLER_0_33_149
*2485 FILLER_0_33_15
*2486 FILLER_0_33_161
*2487 FILLER_0_33_167
*2488 FILLER_0_33_169
*2489 FILLER_0_33_181
*2490 FILLER_0_33_193
*2491 FILLER_0_33_205
*2492 FILLER_0_33_217
*2493 FILLER_0_33_223
*2494 FILLER_0_33_225
*2495 FILLER_0_33_237
*2496 FILLER_0_33_249
*2497 FILLER_0_33_261
*2498 FILLER_0_33_27
*2499 FILLER_0_33_273
*2500 FILLER_0_33_279
*2501 FILLER_0_33_281
*2502 FILLER_0_33_293
*2503 FILLER_0_33_3
*2504 FILLER_0_33_319
*2505 FILLER_0_33_331
*2506 FILLER_0_33_335
*2507 FILLER_0_33_337
*2508 FILLER_0_33_349
*2509 FILLER_0_33_361
*2510 FILLER_0_33_373
*2511 FILLER_0_33_385
*2512 FILLER_0_33_39
*2513 FILLER_0_33_391
*2514 FILLER_0_33_393
*2515 FILLER_0_33_405
*2516 FILLER_0_33_417
*2517 FILLER_0_33_429
*2518 FILLER_0_33_441
*2519 FILLER_0_33_447
*2520 FILLER_0_33_449
*2521 FILLER_0_33_461
*2522 FILLER_0_33_473
*2523 FILLER_0_33_485
*2524 FILLER_0_33_497
*2525 FILLER_0_33_503
*2526 FILLER_0_33_505
*2527 FILLER_0_33_51
*2528 FILLER_0_33_517
*2529 FILLER_0_33_529
*2530 FILLER_0_33_541
*2531 FILLER_0_33_55
*2532 FILLER_0_33_553
*2533 FILLER_0_33_559
*2534 FILLER_0_33_561
*2535 FILLER_0_33_57
*2536 FILLER_0_33_573
*2537 FILLER_0_33_585
*2538 FILLER_0_33_597
*2539 FILLER_0_33_609
*2540 FILLER_0_33_615
*2541 FILLER_0_33_617
*2542 FILLER_0_33_69
*2543 FILLER_0_33_81
*2544 FILLER_0_33_93
*2545 FILLER_0_34_109
*2546 FILLER_0_34_121
*2547 FILLER_0_34_133
*2548 FILLER_0_34_139
*2549 FILLER_0_34_141
*2550 FILLER_0_34_153
*2551 FILLER_0_34_165
*2552 FILLER_0_34_177
*2553 FILLER_0_34_189
*2554 FILLER_0_34_19
*2555 FILLER_0_34_195
*2556 FILLER_0_34_197
*2557 FILLER_0_34_209
*2558 FILLER_0_34_221
*2559 FILLER_0_34_233
*2560 FILLER_0_34_245
*2561 FILLER_0_34_251
*2562 FILLER_0_34_253
*2563 FILLER_0_34_265
*2564 FILLER_0_34_27
*2565 FILLER_0_34_29
*2566 FILLER_0_34_291
*2567 FILLER_0_34_306
*2568 FILLER_0_34_309
*2569 FILLER_0_34_321
*2570 FILLER_0_34_333
*2571 FILLER_0_34_345
*2572 FILLER_0_34_357
*2573 FILLER_0_34_363
*2574 FILLER_0_34_365
*2575 FILLER_0_34_377
*2576 FILLER_0_34_389
*2577 FILLER_0_34_401
*2578 FILLER_0_34_41
*2579 FILLER_0_34_413
*2580 FILLER_0_34_419
*2581 FILLER_0_34_421
*2582 FILLER_0_34_433
*2583 FILLER_0_34_445
*2584 FILLER_0_34_457
*2585 FILLER_0_34_469
*2586 FILLER_0_34_475
*2587 FILLER_0_34_477
*2588 FILLER_0_34_489
*2589 FILLER_0_34_501
*2590 FILLER_0_34_513
*2591 FILLER_0_34_525
*2592 FILLER_0_34_53
*2593 FILLER_0_34_531
*2594 FILLER_0_34_533
*2595 FILLER_0_34_545
*2596 FILLER_0_34_557
*2597 FILLER_0_34_569
*2598 FILLER_0_34_581
*2599 FILLER_0_34_587
*2600 FILLER_0_34_589
*2601 FILLER_0_34_601
*2602 FILLER_0_34_613
*2603 FILLER_0_34_65
*2604 FILLER_0_34_7
*2605 FILLER_0_34_77
*2606 FILLER_0_34_83
*2607 FILLER_0_34_85
*2608 FILLER_0_34_97
*2609 FILLER_0_35_105
*2610 FILLER_0_35_111
*2611 FILLER_0_35_113
*2612 FILLER_0_35_125
*2613 FILLER_0_35_137
*2614 FILLER_0_35_149
*2615 FILLER_0_35_15
*2616 FILLER_0_35_161
*2617 FILLER_0_35_167
*2618 FILLER_0_35_169
*2619 FILLER_0_35_181
*2620 FILLER_0_35_193
*2621 FILLER_0_35_205
*2622 FILLER_0_35_217
*2623 FILLER_0_35_223
*2624 FILLER_0_35_225
*2625 FILLER_0_35_237
*2626 FILLER_0_35_249
*2627 FILLER_0_35_261
*2628 FILLER_0_35_27
*2629 FILLER_0_35_273
*2630 FILLER_0_35_279
*2631 FILLER_0_35_281
*2632 FILLER_0_35_3
*2633 FILLER_0_35_325
*2634 FILLER_0_35_333
*2635 FILLER_0_35_337
*2636 FILLER_0_35_349
*2637 FILLER_0_35_361
*2638 FILLER_0_35_373
*2639 FILLER_0_35_385
*2640 FILLER_0_35_39
*2641 FILLER_0_35_391
*2642 FILLER_0_35_393
*2643 FILLER_0_35_405
*2644 FILLER_0_35_417
*2645 FILLER_0_35_429
*2646 FILLER_0_35_441
*2647 FILLER_0_35_447
*2648 FILLER_0_35_449
*2649 FILLER_0_35_461
*2650 FILLER_0_35_473
*2651 FILLER_0_35_485
*2652 FILLER_0_35_497
*2653 FILLER_0_35_503
*2654 FILLER_0_35_505
*2655 FILLER_0_35_51
*2656 FILLER_0_35_517
*2657 FILLER_0_35_529
*2658 FILLER_0_35_541
*2659 FILLER_0_35_55
*2660 FILLER_0_35_553
*2661 FILLER_0_35_559
*2662 FILLER_0_35_561
*2663 FILLER_0_35_57
*2664 FILLER_0_35_573
*2665 FILLER_0_35_585
*2666 FILLER_0_35_597
*2667 FILLER_0_35_605
*2668 FILLER_0_35_611
*2669 FILLER_0_35_615
*2670 FILLER_0_35_617
*2671 FILLER_0_35_621
*2672 FILLER_0_35_69
*2673 FILLER_0_35_81
*2674 FILLER_0_35_93
*2675 FILLER_0_36_109
*2676 FILLER_0_36_121
*2677 FILLER_0_36_133
*2678 FILLER_0_36_139
*2679 FILLER_0_36_141
*2680 FILLER_0_36_153
*2681 FILLER_0_36_165
*2682 FILLER_0_36_177
*2683 FILLER_0_36_18
*2684 FILLER_0_36_189
*2685 FILLER_0_36_195
*2686 FILLER_0_36_197
*2687 FILLER_0_36_209
*2688 FILLER_0_36_221
*2689 FILLER_0_36_233
*2690 FILLER_0_36_245
*2691 FILLER_0_36_251
*2692 FILLER_0_36_253
*2693 FILLER_0_36_26
*2694 FILLER_0_36_265
*2695 FILLER_0_36_277
*2696 FILLER_0_36_289
*2697 FILLER_0_36_29
*2698 FILLER_0_36_301
*2699 FILLER_0_36_307
*2700 FILLER_0_36_309
*2701 FILLER_0_36_321
*2702 FILLER_0_36_333
*2703 FILLER_0_36_345
*2704 FILLER_0_36_357
*2705 FILLER_0_36_363
*2706 FILLER_0_36_365
*2707 FILLER_0_36_377
*2708 FILLER_0_36_389
*2709 FILLER_0_36_401
*2710 FILLER_0_36_41
*2711 FILLER_0_36_413
*2712 FILLER_0_36_419
*2713 FILLER_0_36_421
*2714 FILLER_0_36_433
*2715 FILLER_0_36_445
*2716 FILLER_0_36_457
*2717 FILLER_0_36_469
*2718 FILLER_0_36_475
*2719 FILLER_0_36_477
*2720 FILLER_0_36_489
*2721 FILLER_0_36_501
*2722 FILLER_0_36_513
*2723 FILLER_0_36_525
*2724 FILLER_0_36_53
*2725 FILLER_0_36_531
*2726 FILLER_0_36_533
*2727 FILLER_0_36_545
*2728 FILLER_0_36_557
*2729 FILLER_0_36_569
*2730 FILLER_0_36_581
*2731 FILLER_0_36_587
*2732 FILLER_0_36_589
*2733 FILLER_0_36_6
*2734 FILLER_0_36_601
*2735 FILLER_0_36_624
*2736 FILLER_0_36_65
*2737 FILLER_0_36_77
*2738 FILLER_0_36_83
*2739 FILLER_0_36_85
*2740 FILLER_0_36_97
*2741 FILLER_0_37_105
*2742 FILLER_0_37_111
*2743 FILLER_0_37_113
*2744 FILLER_0_37_125
*2745 FILLER_0_37_137
*2746 FILLER_0_37_149
*2747 FILLER_0_37_15
*2748 FILLER_0_37_161
*2749 FILLER_0_37_167
*2750 FILLER_0_37_169
*2751 FILLER_0_37_181
*2752 FILLER_0_37_193
*2753 FILLER_0_37_205
*2754 FILLER_0_37_217
*2755 FILLER_0_37_223
*2756 FILLER_0_37_225
*2757 FILLER_0_37_237
*2758 FILLER_0_37_249
*2759 FILLER_0_37_261
*2760 FILLER_0_37_27
*2761 FILLER_0_37_273
*2762 FILLER_0_37_279
*2763 FILLER_0_37_281
*2764 FILLER_0_37_293
*2765 FILLER_0_37_3
*2766 FILLER_0_37_305
*2767 FILLER_0_37_317
*2768 FILLER_0_37_329
*2769 FILLER_0_37_335
*2770 FILLER_0_37_337
*2771 FILLER_0_37_349
*2772 FILLER_0_37_361
*2773 FILLER_0_37_373
*2774 FILLER_0_37_385
*2775 FILLER_0_37_39
*2776 FILLER_0_37_391
*2777 FILLER_0_37_393
*2778 FILLER_0_37_405
*2779 FILLER_0_37_417
*2780 FILLER_0_37_429
*2781 FILLER_0_37_441
*2782 FILLER_0_37_447
*2783 FILLER_0_37_449
*2784 FILLER_0_37_467
*2785 FILLER_0_37_479
*2786 FILLER_0_37_491
*2787 FILLER_0_37_503
*2788 FILLER_0_37_505
*2789 FILLER_0_37_51
*2790 FILLER_0_37_517
*2791 FILLER_0_37_529
*2792 FILLER_0_37_541
*2793 FILLER_0_37_55
*2794 FILLER_0_37_553
*2795 FILLER_0_37_559
*2796 FILLER_0_37_561
*2797 FILLER_0_37_57
*2798 FILLER_0_37_573
*2799 FILLER_0_37_585
*2800 FILLER_0_37_597
*2801 FILLER_0_37_605
*2802 FILLER_0_37_617
*2803 FILLER_0_37_69
*2804 FILLER_0_37_81
*2805 FILLER_0_37_93
*2806 FILLER_0_38_109
*2807 FILLER_0_38_121
*2808 FILLER_0_38_133
*2809 FILLER_0_38_139
*2810 FILLER_0_38_141
*2811 FILLER_0_38_15
*2812 FILLER_0_38_153
*2813 FILLER_0_38_165
*2814 FILLER_0_38_177
*2815 FILLER_0_38_189
*2816 FILLER_0_38_195
*2817 FILLER_0_38_197
*2818 FILLER_0_38_209
*2819 FILLER_0_38_221
*2820 FILLER_0_38_233
*2821 FILLER_0_38_245
*2822 FILLER_0_38_251
*2823 FILLER_0_38_253
*2824 FILLER_0_38_265
*2825 FILLER_0_38_27
*2826 FILLER_0_38_277
*2827 FILLER_0_38_289
*2828 FILLER_0_38_29
*2829 FILLER_0_38_3
*2830 FILLER_0_38_301
*2831 FILLER_0_38_307
*2832 FILLER_0_38_309
*2833 FILLER_0_38_321
*2834 FILLER_0_38_333
*2835 FILLER_0_38_345
*2836 FILLER_0_38_357
*2837 FILLER_0_38_363
*2838 FILLER_0_38_365
*2839 FILLER_0_38_377
*2840 FILLER_0_38_383
*2841 FILLER_0_38_404
*2842 FILLER_0_38_41
*2843 FILLER_0_38_412
*2844 FILLER_0_38_418
*2845 FILLER_0_38_430
*2846 FILLER_0_38_442
*2847 FILLER_0_38_454
*2848 FILLER_0_38_466
*2849 FILLER_0_38_474
*2850 FILLER_0_38_477
*2851 FILLER_0_38_489
*2852 FILLER_0_38_501
*2853 FILLER_0_38_513
*2854 FILLER_0_38_525
*2855 FILLER_0_38_53
*2856 FILLER_0_38_531
*2857 FILLER_0_38_533
*2858 FILLER_0_38_545
*2859 FILLER_0_38_557
*2860 FILLER_0_38_569
*2861 FILLER_0_38_581
*2862 FILLER_0_38_587
*2863 FILLER_0_38_589
*2864 FILLER_0_38_601
*2865 FILLER_0_38_613
*2866 FILLER_0_38_65
*2867 FILLER_0_38_77
*2868 FILLER_0_38_83
*2869 FILLER_0_38_85
*2870 FILLER_0_38_97
*2871 FILLER_0_39_105
*2872 FILLER_0_39_111
*2873 FILLER_0_39_113
*2874 FILLER_0_39_125
*2875 FILLER_0_39_137
*2876 FILLER_0_39_149
*2877 FILLER_0_39_161
*2878 FILLER_0_39_167
*2879 FILLER_0_39_169
*2880 FILLER_0_39_18
*2881 FILLER_0_39_181
*2882 FILLER_0_39_193
*2883 FILLER_0_39_205
*2884 FILLER_0_39_217
*2885 FILLER_0_39_223
*2886 FILLER_0_39_225
*2887 FILLER_0_39_237
*2888 FILLER_0_39_249
*2889 FILLER_0_39_261
*2890 FILLER_0_39_273
*2891 FILLER_0_39_279
*2892 FILLER_0_39_281
*2893 FILLER_0_39_293
*2894 FILLER_0_39_30
*2895 FILLER_0_39_305
*2896 FILLER_0_39_317
*2897 FILLER_0_39_329
*2898 FILLER_0_39_335
*2899 FILLER_0_39_337
*2900 FILLER_0_39_349
*2901 FILLER_0_39_361
*2902 FILLER_0_39_373
*2903 FILLER_0_39_385
*2904 FILLER_0_39_391
*2905 FILLER_0_39_393
*2906 FILLER_0_39_405
*2907 FILLER_0_39_42
*2908 FILLER_0_39_432
*2909 FILLER_0_39_444
*2910 FILLER_0_39_449
*2911 FILLER_0_39_461
*2912 FILLER_0_39_473
*2913 FILLER_0_39_485
*2914 FILLER_0_39_497
*2915 FILLER_0_39_503
*2916 FILLER_0_39_505
*2917 FILLER_0_39_517
*2918 FILLER_0_39_529
*2919 FILLER_0_39_54
*2920 FILLER_0_39_541
*2921 FILLER_0_39_553
*2922 FILLER_0_39_559
*2923 FILLER_0_39_561
*2924 FILLER_0_39_57
*2925 FILLER_0_39_573
*2926 FILLER_0_39_585
*2927 FILLER_0_39_597
*2928 FILLER_0_39_6
*2929 FILLER_0_39_609
*2930 FILLER_0_39_615
*2931 FILLER_0_39_617
*2932 FILLER_0_39_621
*2933 FILLER_0_39_69
*2934 FILLER_0_39_81
*2935 FILLER_0_39_93
*2936 FILLER_0_3_105
*2937 FILLER_0_3_111
*2938 FILLER_0_3_113
*2939 FILLER_0_3_125
*2940 FILLER_0_3_137
*2941 FILLER_0_3_149
*2942 FILLER_0_3_15
*2943 FILLER_0_3_161
*2944 FILLER_0_3_167
*2945 FILLER_0_3_169
*2946 FILLER_0_3_181
*2947 FILLER_0_3_193
*2948 FILLER_0_3_205
*2949 FILLER_0_3_217
*2950 FILLER_0_3_223
*2951 FILLER_0_3_225
*2952 FILLER_0_3_237
*2953 FILLER_0_3_249
*2954 FILLER_0_3_261
*2955 FILLER_0_3_27
*2956 FILLER_0_3_273
*2957 FILLER_0_3_279
*2958 FILLER_0_3_281
*2959 FILLER_0_3_289
*2960 FILLER_0_3_294
*2961 FILLER_0_3_3
*2962 FILLER_0_3_330
*2963 FILLER_0_3_337
*2964 FILLER_0_3_349
*2965 FILLER_0_3_361
*2966 FILLER_0_3_373
*2967 FILLER_0_3_385
*2968 FILLER_0_3_39
*2969 FILLER_0_3_391
*2970 FILLER_0_3_402
*2971 FILLER_0_3_429
*2972 FILLER_0_3_441
*2973 FILLER_0_3_447
*2974 FILLER_0_3_449
*2975 FILLER_0_3_461
*2976 FILLER_0_3_473
*2977 FILLER_0_3_485
*2978 FILLER_0_3_497
*2979 FILLER_0_3_503
*2980 FILLER_0_3_505
*2981 FILLER_0_3_51
*2982 FILLER_0_3_517
*2983 FILLER_0_3_529
*2984 FILLER_0_3_541
*2985 FILLER_0_3_55
*2986 FILLER_0_3_553
*2987 FILLER_0_3_559
*2988 FILLER_0_3_561
*2989 FILLER_0_3_57
*2990 FILLER_0_3_573
*2991 FILLER_0_3_585
*2992 FILLER_0_3_597
*2993 FILLER_0_3_609
*2994 FILLER_0_3_615
*2995 FILLER_0_3_617
*2996 FILLER_0_3_69
*2997 FILLER_0_3_81
*2998 FILLER_0_3_93
*2999 FILLER_0_40_109
*3000 FILLER_0_40_121
*3001 FILLER_0_40_133
*3002 FILLER_0_40_139
*3003 FILLER_0_40_141
*3004 FILLER_0_40_15
*3005 FILLER_0_40_153
*3006 FILLER_0_40_165
*3007 FILLER_0_40_177
*3008 FILLER_0_40_189
*3009 FILLER_0_40_195
*3010 FILLER_0_40_197
*3011 FILLER_0_40_209
*3012 FILLER_0_40_221
*3013 FILLER_0_40_233
*3014 FILLER_0_40_245
*3015 FILLER_0_40_251
*3016 FILLER_0_40_253
*3017 FILLER_0_40_265
*3018 FILLER_0_40_27
*3019 FILLER_0_40_277
*3020 FILLER_0_40_289
*3021 FILLER_0_40_29
*3022 FILLER_0_40_3
*3023 FILLER_0_40_301
*3024 FILLER_0_40_307
*3025 FILLER_0_40_309
*3026 FILLER_0_40_321
*3027 FILLER_0_40_333
*3028 FILLER_0_40_345
*3029 FILLER_0_40_357
*3030 FILLER_0_40_363
*3031 FILLER_0_40_365
*3032 FILLER_0_40_377
*3033 FILLER_0_40_389
*3034 FILLER_0_40_401
*3035 FILLER_0_40_41
*3036 FILLER_0_40_413
*3037 FILLER_0_40_419
*3038 FILLER_0_40_421
*3039 FILLER_0_40_433
*3040 FILLER_0_40_445
*3041 FILLER_0_40_457
*3042 FILLER_0_40_469
*3043 FILLER_0_40_475
*3044 FILLER_0_40_477
*3045 FILLER_0_40_489
*3046 FILLER_0_40_501
*3047 FILLER_0_40_513
*3048 FILLER_0_40_525
*3049 FILLER_0_40_53
*3050 FILLER_0_40_531
*3051 FILLER_0_40_533
*3052 FILLER_0_40_545
*3053 FILLER_0_40_557
*3054 FILLER_0_40_569
*3055 FILLER_0_40_581
*3056 FILLER_0_40_587
*3057 FILLER_0_40_589
*3058 FILLER_0_40_601
*3059 FILLER_0_40_613
*3060 FILLER_0_40_621
*3061 FILLER_0_40_65
*3062 FILLER_0_40_77
*3063 FILLER_0_40_83
*3064 FILLER_0_40_85
*3065 FILLER_0_40_97
*3066 FILLER_0_41_105
*3067 FILLER_0_41_111
*3068 FILLER_0_41_113
*3069 FILLER_0_41_125
*3070 FILLER_0_41_137
*3071 FILLER_0_41_149
*3072 FILLER_0_41_161
*3073 FILLER_0_41_167
*3074 FILLER_0_41_169
*3075 FILLER_0_41_181
*3076 FILLER_0_41_193
*3077 FILLER_0_41_205
*3078 FILLER_0_41_21
*3079 FILLER_0_41_217
*3080 FILLER_0_41_223
*3081 FILLER_0_41_225
*3082 FILLER_0_41_237
*3083 FILLER_0_41_249
*3084 FILLER_0_41_261
*3085 FILLER_0_41_273
*3086 FILLER_0_41_279
*3087 FILLER_0_41_281
*3088 FILLER_0_41_293
*3089 FILLER_0_41_305
*3090 FILLER_0_41_317
*3091 FILLER_0_41_329
*3092 FILLER_0_41_33
*3093 FILLER_0_41_335
*3094 FILLER_0_41_337
*3095 FILLER_0_41_349
*3096 FILLER_0_41_361
*3097 FILLER_0_41_373
*3098 FILLER_0_41_385
*3099 FILLER_0_41_391
*3100 FILLER_0_41_393
*3101 FILLER_0_41_405
*3102 FILLER_0_41_417
*3103 FILLER_0_41_429
*3104 FILLER_0_41_441
*3105 FILLER_0_41_447
*3106 FILLER_0_41_449
*3107 FILLER_0_41_45
*3108 FILLER_0_41_461
*3109 FILLER_0_41_474
*3110 FILLER_0_41_486
*3111 FILLER_0_41_498
*3112 FILLER_0_41_505
*3113 FILLER_0_41_517
*3114 FILLER_0_41_529
*3115 FILLER_0_41_53
*3116 FILLER_0_41_541
*3117 FILLER_0_41_553
*3118 FILLER_0_41_559
*3119 FILLER_0_41_561
*3120 FILLER_0_41_57
*3121 FILLER_0_41_573
*3122 FILLER_0_41_585
*3123 FILLER_0_41_597
*3124 FILLER_0_41_609
*3125 FILLER_0_41_615
*3126 FILLER_0_41_617
*3127 FILLER_0_41_69
*3128 FILLER_0_41_81
*3129 FILLER_0_41_9
*3130 FILLER_0_41_93
*3131 FILLER_0_42_109
*3132 FILLER_0_42_121
*3133 FILLER_0_42_133
*3134 FILLER_0_42_139
*3135 FILLER_0_42_141
*3136 FILLER_0_42_153
*3137 FILLER_0_42_165
*3138 FILLER_0_42_177
*3139 FILLER_0_42_18
*3140 FILLER_0_42_189
*3141 FILLER_0_42_195
*3142 FILLER_0_42_197
*3143 FILLER_0_42_209
*3144 FILLER_0_42_221
*3145 FILLER_0_42_233
*3146 FILLER_0_42_245
*3147 FILLER_0_42_251
*3148 FILLER_0_42_253
*3149 FILLER_0_42_26
*3150 FILLER_0_42_265
*3151 FILLER_0_42_277
*3152 FILLER_0_42_289
*3153 FILLER_0_42_29
*3154 FILLER_0_42_301
*3155 FILLER_0_42_307
*3156 FILLER_0_42_309
*3157 FILLER_0_42_321
*3158 FILLER_0_42_333
*3159 FILLER_0_42_345
*3160 FILLER_0_42_357
*3161 FILLER_0_42_363
*3162 FILLER_0_42_365
*3163 FILLER_0_42_377
*3164 FILLER_0_42_389
*3165 FILLER_0_42_401
*3166 FILLER_0_42_41
*3167 FILLER_0_42_413
*3168 FILLER_0_42_419
*3169 FILLER_0_42_421
*3170 FILLER_0_42_433
*3171 FILLER_0_42_445
*3172 FILLER_0_42_457
*3173 FILLER_0_42_469
*3174 FILLER_0_42_475
*3175 FILLER_0_42_477
*3176 FILLER_0_42_489
*3177 FILLER_0_42_501
*3178 FILLER_0_42_513
*3179 FILLER_0_42_525
*3180 FILLER_0_42_53
*3181 FILLER_0_42_531
*3182 FILLER_0_42_533
*3183 FILLER_0_42_545
*3184 FILLER_0_42_557
*3185 FILLER_0_42_569
*3186 FILLER_0_42_581
*3187 FILLER_0_42_587
*3188 FILLER_0_42_589
*3189 FILLER_0_42_6
*3190 FILLER_0_42_601
*3191 FILLER_0_42_613
*3192 FILLER_0_42_65
*3193 FILLER_0_42_77
*3194 FILLER_0_42_83
*3195 FILLER_0_42_85
*3196 FILLER_0_42_97
*3197 FILLER_0_43_105
*3198 FILLER_0_43_111
*3199 FILLER_0_43_113
*3200 FILLER_0_43_125
*3201 FILLER_0_43_137
*3202 FILLER_0_43_149
*3203 FILLER_0_43_15
*3204 FILLER_0_43_161
*3205 FILLER_0_43_167
*3206 FILLER_0_43_169
*3207 FILLER_0_43_181
*3208 FILLER_0_43_193
*3209 FILLER_0_43_205
*3210 FILLER_0_43_217
*3211 FILLER_0_43_223
*3212 FILLER_0_43_225
*3213 FILLER_0_43_237
*3214 FILLER_0_43_249
*3215 FILLER_0_43_261
*3216 FILLER_0_43_27
*3217 FILLER_0_43_273
*3218 FILLER_0_43_279
*3219 FILLER_0_43_281
*3220 FILLER_0_43_293
*3221 FILLER_0_43_3
*3222 FILLER_0_43_305
*3223 FILLER_0_43_317
*3224 FILLER_0_43_329
*3225 FILLER_0_43_335
*3226 FILLER_0_43_337
*3227 FILLER_0_43_349
*3228 FILLER_0_43_361
*3229 FILLER_0_43_373
*3230 FILLER_0_43_385
*3231 FILLER_0_43_39
*3232 FILLER_0_43_391
*3233 FILLER_0_43_393
*3234 FILLER_0_43_405
*3235 FILLER_0_43_417
*3236 FILLER_0_43_429
*3237 FILLER_0_43_441
*3238 FILLER_0_43_447
*3239 FILLER_0_43_449
*3240 FILLER_0_43_461
*3241 FILLER_0_43_473
*3242 FILLER_0_43_485
*3243 FILLER_0_43_497
*3244 FILLER_0_43_503
*3245 FILLER_0_43_505
*3246 FILLER_0_43_51
*3247 FILLER_0_43_517
*3248 FILLER_0_43_529
*3249 FILLER_0_43_541
*3250 FILLER_0_43_55
*3251 FILLER_0_43_553
*3252 FILLER_0_43_559
*3253 FILLER_0_43_561
*3254 FILLER_0_43_57
*3255 FILLER_0_43_573
*3256 FILLER_0_43_585
*3257 FILLER_0_43_597
*3258 FILLER_0_43_609
*3259 FILLER_0_43_615
*3260 FILLER_0_43_617
*3261 FILLER_0_43_69
*3262 FILLER_0_43_81
*3263 FILLER_0_43_93
*3264 FILLER_0_44_109
*3265 FILLER_0_44_121
*3266 FILLER_0_44_133
*3267 FILLER_0_44_139
*3268 FILLER_0_44_141
*3269 FILLER_0_44_15
*3270 FILLER_0_44_153
*3271 FILLER_0_44_165
*3272 FILLER_0_44_177
*3273 FILLER_0_44_189
*3274 FILLER_0_44_195
*3275 FILLER_0_44_197
*3276 FILLER_0_44_209
*3277 FILLER_0_44_221
*3278 FILLER_0_44_227
*3279 FILLER_0_44_239
*3280 FILLER_0_44_251
*3281 FILLER_0_44_253
*3282 FILLER_0_44_265
*3283 FILLER_0_44_27
*3284 FILLER_0_44_277
*3285 FILLER_0_44_289
*3286 FILLER_0_44_29
*3287 FILLER_0_44_3
*3288 FILLER_0_44_301
*3289 FILLER_0_44_307
*3290 FILLER_0_44_309
*3291 FILLER_0_44_321
*3292 FILLER_0_44_333
*3293 FILLER_0_44_345
*3294 FILLER_0_44_357
*3295 FILLER_0_44_363
*3296 FILLER_0_44_365
*3297 FILLER_0_44_377
*3298 FILLER_0_44_389
*3299 FILLER_0_44_401
*3300 FILLER_0_44_41
*3301 FILLER_0_44_413
*3302 FILLER_0_44_419
*3303 FILLER_0_44_421
*3304 FILLER_0_44_425
*3305 FILLER_0_44_431
*3306 FILLER_0_44_439
*3307 FILLER_0_44_450
*3308 FILLER_0_44_462
*3309 FILLER_0_44_474
*3310 FILLER_0_44_477
*3311 FILLER_0_44_489
*3312 FILLER_0_44_501
*3313 FILLER_0_44_513
*3314 FILLER_0_44_525
*3315 FILLER_0_44_53
*3316 FILLER_0_44_531
*3317 FILLER_0_44_533
*3318 FILLER_0_44_545
*3319 FILLER_0_44_557
*3320 FILLER_0_44_569
*3321 FILLER_0_44_581
*3322 FILLER_0_44_587
*3323 FILLER_0_44_589
*3324 FILLER_0_44_601
*3325 FILLER_0_44_61
*3326 FILLER_0_44_613
*3327 FILLER_0_44_68
*3328 FILLER_0_44_80
*3329 FILLER_0_44_85
*3330 FILLER_0_44_97
*3331 FILLER_0_45_105
*3332 FILLER_0_45_111
*3333 FILLER_0_45_113
*3334 FILLER_0_45_125
*3335 FILLER_0_45_137
*3336 FILLER_0_45_149
*3337 FILLER_0_45_161
*3338 FILLER_0_45_167
*3339 FILLER_0_45_169
*3340 FILLER_0_45_18
*3341 FILLER_0_45_181
*3342 FILLER_0_45_193
*3343 FILLER_0_45_205
*3344 FILLER_0_45_217
*3345 FILLER_0_45_223
*3346 FILLER_0_45_225
*3347 FILLER_0_45_233
*3348 FILLER_0_45_245
*3349 FILLER_0_45_257
*3350 FILLER_0_45_269
*3351 FILLER_0_45_277
*3352 FILLER_0_45_281
*3353 FILLER_0_45_293
*3354 FILLER_0_45_30
*3355 FILLER_0_45_301
*3356 FILLER_0_45_313
*3357 FILLER_0_45_325
*3358 FILLER_0_45_333
*3359 FILLER_0_45_337
*3360 FILLER_0_45_349
*3361 FILLER_0_45_361
*3362 FILLER_0_45_373
*3363 FILLER_0_45_385
*3364 FILLER_0_45_391
*3365 FILLER_0_45_393
*3366 FILLER_0_45_405
*3367 FILLER_0_45_42
*3368 FILLER_0_45_437
*3369 FILLER_0_45_445
*3370 FILLER_0_45_449
*3371 FILLER_0_45_461
*3372 FILLER_0_45_473
*3373 FILLER_0_45_485
*3374 FILLER_0_45_497
*3375 FILLER_0_45_503
*3376 FILLER_0_45_505
*3377 FILLER_0_45_517
*3378 FILLER_0_45_529
*3379 FILLER_0_45_54
*3380 FILLER_0_45_541
*3381 FILLER_0_45_553
*3382 FILLER_0_45_559
*3383 FILLER_0_45_561
*3384 FILLER_0_45_57
*3385 FILLER_0_45_573
*3386 FILLER_0_45_585
*3387 FILLER_0_45_597
*3388 FILLER_0_45_6
*3389 FILLER_0_45_609
*3390 FILLER_0_45_615
*3391 FILLER_0_45_617
*3392 FILLER_0_45_69
*3393 FILLER_0_45_81
*3394 FILLER_0_45_93
*3395 FILLER_0_46_109
*3396 FILLER_0_46_121
*3397 FILLER_0_46_133
*3398 FILLER_0_46_139
*3399 FILLER_0_46_141
*3400 FILLER_0_46_15
*3401 FILLER_0_46_153
*3402 FILLER_0_46_165
*3403 FILLER_0_46_177
*3404 FILLER_0_46_189
*3405 FILLER_0_46_195
*3406 FILLER_0_46_197
*3407 FILLER_0_46_209
*3408 FILLER_0_46_221
*3409 FILLER_0_46_233
*3410 FILLER_0_46_245
*3411 FILLER_0_46_251
*3412 FILLER_0_46_253
*3413 FILLER_0_46_265
*3414 FILLER_0_46_27
*3415 FILLER_0_46_277
*3416 FILLER_0_46_289
*3417 FILLER_0_46_29
*3418 FILLER_0_46_3
*3419 FILLER_0_46_302
*3420 FILLER_0_46_319
*3421 FILLER_0_46_327
*3422 FILLER_0_46_339
*3423 FILLER_0_46_351
*3424 FILLER_0_46_363
*3425 FILLER_0_46_365
*3426 FILLER_0_46_377
*3427 FILLER_0_46_389
*3428 FILLER_0_46_401
*3429 FILLER_0_46_409
*3430 FILLER_0_46_41
*3431 FILLER_0_46_432
*3432 FILLER_0_46_444
*3433 FILLER_0_46_456
*3434 FILLER_0_46_464
*3435 FILLER_0_46_477
*3436 FILLER_0_46_489
*3437 FILLER_0_46_501
*3438 FILLER_0_46_513
*3439 FILLER_0_46_525
*3440 FILLER_0_46_53
*3441 FILLER_0_46_531
*3442 FILLER_0_46_533
*3443 FILLER_0_46_545
*3444 FILLER_0_46_567
*3445 FILLER_0_46_57
*3446 FILLER_0_46_579
*3447 FILLER_0_46_587
*3448 FILLER_0_46_589
*3449 FILLER_0_46_601
*3450 FILLER_0_46_61
*3451 FILLER_0_46_613
*3452 FILLER_0_46_73
*3453 FILLER_0_46_81
*3454 FILLER_0_46_85
*3455 FILLER_0_46_97
*3456 FILLER_0_47_105
*3457 FILLER_0_47_111
*3458 FILLER_0_47_113
*3459 FILLER_0_47_125
*3460 FILLER_0_47_137
*3461 FILLER_0_47_149
*3462 FILLER_0_47_16
*3463 FILLER_0_47_161
*3464 FILLER_0_47_167
*3465 FILLER_0_47_169
*3466 FILLER_0_47_181
*3467 FILLER_0_47_193
*3468 FILLER_0_47_205
*3469 FILLER_0_47_217
*3470 FILLER_0_47_223
*3471 FILLER_0_47_225
*3472 FILLER_0_47_237
*3473 FILLER_0_47_249
*3474 FILLER_0_47_261
*3475 FILLER_0_47_273
*3476 FILLER_0_47_279
*3477 FILLER_0_47_28
*3478 FILLER_0_47_281
*3479 FILLER_0_47_289
*3480 FILLER_0_47_304
*3481 FILLER_0_47_334
*3482 FILLER_0_47_337
*3483 FILLER_0_47_349
*3484 FILLER_0_47_361
*3485 FILLER_0_47_373
*3486 FILLER_0_47_385
*3487 FILLER_0_47_391
*3488 FILLER_0_47_393
*3489 FILLER_0_47_40
*3490 FILLER_0_47_405
*3491 FILLER_0_47_434
*3492 FILLER_0_47_446
*3493 FILLER_0_47_449
*3494 FILLER_0_47_461
*3495 FILLER_0_47_473
*3496 FILLER_0_47_485
*3497 FILLER_0_47_497
*3498 FILLER_0_47_503
*3499 FILLER_0_47_505
*3500 FILLER_0_47_517
*3501 FILLER_0_47_52
*3502 FILLER_0_47_529
*3503 FILLER_0_47_541
*3504 FILLER_0_47_553
*3505 FILLER_0_47_559
*3506 FILLER_0_47_561
*3507 FILLER_0_47_57
*3508 FILLER_0_47_573
*3509 FILLER_0_47_585
*3510 FILLER_0_47_597
*3511 FILLER_0_47_609
*3512 FILLER_0_47_615
*3513 FILLER_0_47_617
*3514 FILLER_0_47_69
*3515 FILLER_0_47_81
*3516 FILLER_0_47_9
*3517 FILLER_0_47_93
*3518 FILLER_0_48_109
*3519 FILLER_0_48_121
*3520 FILLER_0_48_133
*3521 FILLER_0_48_139
*3522 FILLER_0_48_141
*3523 FILLER_0_48_15
*3524 FILLER_0_48_153
*3525 FILLER_0_48_165
*3526 FILLER_0_48_177
*3527 FILLER_0_48_189
*3528 FILLER_0_48_195
*3529 FILLER_0_48_197
*3530 FILLER_0_48_209
*3531 FILLER_0_48_221
*3532 FILLER_0_48_233
*3533 FILLER_0_48_245
*3534 FILLER_0_48_253
*3535 FILLER_0_48_265
*3536 FILLER_0_48_27
*3537 FILLER_0_48_277
*3538 FILLER_0_48_285
*3539 FILLER_0_48_29
*3540 FILLER_0_48_293
*3541 FILLER_0_48_297
*3542 FILLER_0_48_3
*3543 FILLER_0_48_346
*3544 FILLER_0_48_358
*3545 FILLER_0_48_365
*3546 FILLER_0_48_377
*3547 FILLER_0_48_389
*3548 FILLER_0_48_399
*3549 FILLER_0_48_41
*3550 FILLER_0_48_411
*3551 FILLER_0_48_418
*3552 FILLER_0_48_459
*3553 FILLER_0_48_471
*3554 FILLER_0_48_475
*3555 FILLER_0_48_477
*3556 FILLER_0_48_489
*3557 FILLER_0_48_501
*3558 FILLER_0_48_513
*3559 FILLER_0_48_525
*3560 FILLER_0_48_53
*3561 FILLER_0_48_531
*3562 FILLER_0_48_533
*3563 FILLER_0_48_557
*3564 FILLER_0_48_569
*3565 FILLER_0_48_581
*3566 FILLER_0_48_587
*3567 FILLER_0_48_589
*3568 FILLER_0_48_601
*3569 FILLER_0_48_613
*3570 FILLER_0_48_65
*3571 FILLER_0_48_77
*3572 FILLER_0_48_83
*3573 FILLER_0_48_85
*3574 FILLER_0_48_97
*3575 FILLER_0_49_10
*3576 FILLER_0_49_105
*3577 FILLER_0_49_111
*3578 FILLER_0_49_113
*3579 FILLER_0_49_125
*3580 FILLER_0_49_137
*3581 FILLER_0_49_149
*3582 FILLER_0_49_161
*3583 FILLER_0_49_167
*3584 FILLER_0_49_169
*3585 FILLER_0_49_181
*3586 FILLER_0_49_19
*3587 FILLER_0_49_193
*3588 FILLER_0_49_205
*3589 FILLER_0_49_217
*3590 FILLER_0_49_223
*3591 FILLER_0_49_225
*3592 FILLER_0_49_237
*3593 FILLER_0_49_249
*3594 FILLER_0_49_261
*3595 FILLER_0_49_273
*3596 FILLER_0_49_279
*3597 FILLER_0_49_31
*3598 FILLER_0_49_335
*3599 FILLER_0_49_337
*3600 FILLER_0_49_349
*3601 FILLER_0_49_361
*3602 FILLER_0_49_373
*3603 FILLER_0_49_385
*3604 FILLER_0_49_43
*3605 FILLER_0_49_436
*3606 FILLER_0_49_444
*3607 FILLER_0_49_454
*3608 FILLER_0_49_486
*3609 FILLER_0_49_490
*3610 FILLER_0_49_494
*3611 FILLER_0_49_502
*3612 FILLER_0_49_505
*3613 FILLER_0_49_517
*3614 FILLER_0_49_529
*3615 FILLER_0_49_541
*3616 FILLER_0_49_55
*3617 FILLER_0_49_553
*3618 FILLER_0_49_559
*3619 FILLER_0_49_561
*3620 FILLER_0_49_57
*3621 FILLER_0_49_573
*3622 FILLER_0_49_585
*3623 FILLER_0_49_597
*3624 FILLER_0_49_6
*3625 FILLER_0_49_609
*3626 FILLER_0_49_615
*3627 FILLER_0_49_617
*3628 FILLER_0_49_69
*3629 FILLER_0_49_81
*3630 FILLER_0_49_93
*3631 FILLER_0_4_109
*3632 FILLER_0_4_121
*3633 FILLER_0_4_133
*3634 FILLER_0_4_139
*3635 FILLER_0_4_141
*3636 FILLER_0_4_15
*3637 FILLER_0_4_153
*3638 FILLER_0_4_165
*3639 FILLER_0_4_177
*3640 FILLER_0_4_189
*3641 FILLER_0_4_195
*3642 FILLER_0_4_197
*3643 FILLER_0_4_209
*3644 FILLER_0_4_221
*3645 FILLER_0_4_233
*3646 FILLER_0_4_245
*3647 FILLER_0_4_251
*3648 FILLER_0_4_253
*3649 FILLER_0_4_265
*3650 FILLER_0_4_27
*3651 FILLER_0_4_277
*3652 FILLER_0_4_289
*3653 FILLER_0_4_29
*3654 FILLER_0_4_3
*3655 FILLER_0_4_301
*3656 FILLER_0_4_306
*3657 FILLER_0_4_309
*3658 FILLER_0_4_316
*3659 FILLER_0_4_328
*3660 FILLER_0_4_340
*3661 FILLER_0_4_352
*3662 FILLER_0_4_365
*3663 FILLER_0_4_377
*3664 FILLER_0_4_389
*3665 FILLER_0_4_401
*3666 FILLER_0_4_41
*3667 FILLER_0_4_413
*3668 FILLER_0_4_418
*3669 FILLER_0_4_421
*3670 FILLER_0_4_433
*3671 FILLER_0_4_445
*3672 FILLER_0_4_457
*3673 FILLER_0_4_469
*3674 FILLER_0_4_475
*3675 FILLER_0_4_477
*3676 FILLER_0_4_489
*3677 FILLER_0_4_501
*3678 FILLER_0_4_513
*3679 FILLER_0_4_525
*3680 FILLER_0_4_53
*3681 FILLER_0_4_531
*3682 FILLER_0_4_533
*3683 FILLER_0_4_545
*3684 FILLER_0_4_557
*3685 FILLER_0_4_569
*3686 FILLER_0_4_581
*3687 FILLER_0_4_587
*3688 FILLER_0_4_589
*3689 FILLER_0_4_601
*3690 FILLER_0_4_613
*3691 FILLER_0_4_65
*3692 FILLER_0_4_77
*3693 FILLER_0_4_83
*3694 FILLER_0_4_85
*3695 FILLER_0_4_97
*3696 FILLER_0_50_109
*3697 FILLER_0_50_121
*3698 FILLER_0_50_133
*3699 FILLER_0_50_139
*3700 FILLER_0_50_141
*3701 FILLER_0_50_153
*3702 FILLER_0_50_165
*3703 FILLER_0_50_177
*3704 FILLER_0_50_189
*3705 FILLER_0_50_195
*3706 FILLER_0_50_197
*3707 FILLER_0_50_209
*3708 FILLER_0_50_221
*3709 FILLER_0_50_23
*3710 FILLER_0_50_233
*3711 FILLER_0_50_245
*3712 FILLER_0_50_251
*3713 FILLER_0_50_253
*3714 FILLER_0_50_258
*3715 FILLER_0_50_27
*3716 FILLER_0_50_270
*3717 FILLER_0_50_282
*3718 FILLER_0_50_29
*3719 FILLER_0_50_3
*3720 FILLER_0_50_309
*3721 FILLER_0_50_340
*3722 FILLER_0_50_352
*3723 FILLER_0_50_365
*3724 FILLER_0_50_377
*3725 FILLER_0_50_41
*3726 FILLER_0_50_413
*3727 FILLER_0_50_419
*3728 FILLER_0_50_430
*3729 FILLER_0_50_442
*3730 FILLER_0_50_448
*3731 FILLER_0_50_486
*3732 FILLER_0_50_506
*3733 FILLER_0_50_518
*3734 FILLER_0_50_53
*3735 FILLER_0_50_530
*3736 FILLER_0_50_533
*3737 FILLER_0_50_545
*3738 FILLER_0_50_557
*3739 FILLER_0_50_569
*3740 FILLER_0_50_581
*3741 FILLER_0_50_587
*3742 FILLER_0_50_589
*3743 FILLER_0_50_601
*3744 FILLER_0_50_65
*3745 FILLER_0_50_7
*3746 FILLER_0_50_77
*3747 FILLER_0_50_83
*3748 FILLER_0_50_85
*3749 FILLER_0_50_97
*3750 FILLER_0_51_105
*3751 FILLER_0_51_111
*3752 FILLER_0_51_113
*3753 FILLER_0_51_125
*3754 FILLER_0_51_137
*3755 FILLER_0_51_149
*3756 FILLER_0_51_161
*3757 FILLER_0_51_167
*3758 FILLER_0_51_190
*3759 FILLER_0_51_202
*3760 FILLER_0_51_214
*3761 FILLER_0_51_222
*3762 FILLER_0_51_225
*3763 FILLER_0_51_237
*3764 FILLER_0_51_245
*3765 FILLER_0_51_28
*3766 FILLER_0_51_281
*3767 FILLER_0_51_287
*3768 FILLER_0_51_3
*3769 FILLER_0_51_323
*3770 FILLER_0_51_337
*3771 FILLER_0_51_349
*3772 FILLER_0_51_361
*3773 FILLER_0_51_391
*3774 FILLER_0_51_40
*3775 FILLER_0_51_408
*3776 FILLER_0_51_432
*3777 FILLER_0_51_444
*3778 FILLER_0_51_458
*3779 FILLER_0_51_462
*3780 FILLER_0_51_492
*3781 FILLER_0_51_505
*3782 FILLER_0_51_517
*3783 FILLER_0_51_52
*3784 FILLER_0_51_529
*3785 FILLER_0_51_541
*3786 FILLER_0_51_553
*3787 FILLER_0_51_559
*3788 FILLER_0_51_561
*3789 FILLER_0_51_566
*3790 FILLER_0_51_57
*3791 FILLER_0_51_578
*3792 FILLER_0_51_590
*3793 FILLER_0_51_602
*3794 FILLER_0_51_608
*3795 FILLER_0_51_623
*3796 FILLER_0_51_69
*3797 FILLER_0_51_81
*3798 FILLER_0_51_93
*3799 FILLER_0_52_109
*3800 FILLER_0_52_121
*3801 FILLER_0_52_133
*3802 FILLER_0_52_139
*3803 FILLER_0_52_141
*3804 FILLER_0_52_153
*3805 FILLER_0_52_165
*3806 FILLER_0_52_185
*3807 FILLER_0_52_193
*3808 FILLER_0_52_197
*3809 FILLER_0_52_209
*3810 FILLER_0_52_221
*3811 FILLER_0_52_233
*3812 FILLER_0_52_245
*3813 FILLER_0_52_253
*3814 FILLER_0_52_278
*3815 FILLER_0_52_3
*3816 FILLER_0_52_32
*3817 FILLER_0_52_338
*3818 FILLER_0_52_350
*3819 FILLER_0_52_362
*3820 FILLER_0_52_388
*3821 FILLER_0_52_413
*3822 FILLER_0_52_418
*3823 FILLER_0_52_421
*3824 FILLER_0_52_428
*3825 FILLER_0_52_44
*3826 FILLER_0_52_440
*3827 FILLER_0_52_452
*3828 FILLER_0_52_460
*3829 FILLER_0_52_477
*3830 FILLER_0_52_489
*3831 FILLER_0_52_501
*3832 FILLER_0_52_513
*3833 FILLER_0_52_525
*3834 FILLER_0_52_531
*3835 FILLER_0_52_533
*3836 FILLER_0_52_545
*3837 FILLER_0_52_557
*3838 FILLER_0_52_56
*3839 FILLER_0_52_569
*3840 FILLER_0_52_581
*3841 FILLER_0_52_587
*3842 FILLER_0_52_589
*3843 FILLER_0_52_601
*3844 FILLER_0_52_68
*3845 FILLER_0_52_80
*3846 FILLER_0_52_85
*3847 FILLER_0_52_97
*3848 FILLER_0_53_10
*3849 FILLER_0_53_105
*3850 FILLER_0_53_111
*3851 FILLER_0_53_113
*3852 FILLER_0_53_125
*3853 FILLER_0_53_137
*3854 FILLER_0_53_149
*3855 FILLER_0_53_161
*3856 FILLER_0_53_167
*3857 FILLER_0_53_169
*3858 FILLER_0_53_181
*3859 FILLER_0_53_193
*3860 FILLER_0_53_205
*3861 FILLER_0_53_217
*3862 FILLER_0_53_223
*3863 FILLER_0_53_225
*3864 FILLER_0_53_23
*3865 FILLER_0_53_237
*3866 FILLER_0_53_249
*3867 FILLER_0_53_255
*3868 FILLER_0_53_268
*3869 FILLER_0_53_281
*3870 FILLER_0_53_346
*3871 FILLER_0_53_35
*3872 FILLER_0_53_358
*3873 FILLER_0_53_364
*3874 FILLER_0_53_374
*3875 FILLER_0_53_413
*3876 FILLER_0_53_425
*3877 FILLER_0_53_437
*3878 FILLER_0_53_445
*3879 FILLER_0_53_449
*3880 FILLER_0_53_461
*3881 FILLER_0_53_47
*3882 FILLER_0_53_473
*3883 FILLER_0_53_485
*3884 FILLER_0_53_497
*3885 FILLER_0_53_503
*3886 FILLER_0_53_505
*3887 FILLER_0_53_517
*3888 FILLER_0_53_529
*3889 FILLER_0_53_540
*3890 FILLER_0_53_55
*3891 FILLER_0_53_552
*3892 FILLER_0_53_561
*3893 FILLER_0_53_57
*3894 FILLER_0_53_573
*3895 FILLER_0_53_585
*3896 FILLER_0_53_597
*3897 FILLER_0_53_6
*3898 FILLER_0_53_609
*3899 FILLER_0_53_615
*3900 FILLER_0_53_617
*3901 FILLER_0_53_69
*3902 FILLER_0_53_81
*3903 FILLER_0_53_93
*3904 FILLER_0_54_109
*3905 FILLER_0_54_121
*3906 FILLER_0_54_133
*3907 FILLER_0_54_139
*3908 FILLER_0_54_141
*3909 FILLER_0_54_153
*3910 FILLER_0_54_170
*3911 FILLER_0_54_18
*3912 FILLER_0_54_182
*3913 FILLER_0_54_194
*3914 FILLER_0_54_197
*3915 FILLER_0_54_209
*3916 FILLER_0_54_221
*3917 FILLER_0_54_233
*3918 FILLER_0_54_245
*3919 FILLER_0_54_251
*3920 FILLER_0_54_253
*3921 FILLER_0_54_26
*3922 FILLER_0_54_265
*3923 FILLER_0_54_280
*3924 FILLER_0_54_284
*3925 FILLER_0_54_29
*3926 FILLER_0_54_332
*3927 FILLER_0_54_344
*3928 FILLER_0_54_356
*3929 FILLER_0_54_365
*3930 FILLER_0_54_377
*3931 FILLER_0_54_389
*3932 FILLER_0_54_399
*3933 FILLER_0_54_41
*3934 FILLER_0_54_411
*3935 FILLER_0_54_419
*3936 FILLER_0_54_421
*3937 FILLER_0_54_433
*3938 FILLER_0_54_445
*3939 FILLER_0_54_457
*3940 FILLER_0_54_466
*3941 FILLER_0_54_474
*3942 FILLER_0_54_477
*3943 FILLER_0_54_489
*3944 FILLER_0_54_501
*3945 FILLER_0_54_513
*3946 FILLER_0_54_525
*3947 FILLER_0_54_53
*3948 FILLER_0_54_531
*3949 FILLER_0_54_533
*3950 FILLER_0_54_554
*3951 FILLER_0_54_566
*3952 FILLER_0_54_578
*3953 FILLER_0_54_586
*3954 FILLER_0_54_589
*3955 FILLER_0_54_6
*3956 FILLER_0_54_601
*3957 FILLER_0_54_613
*3958 FILLER_0_54_65
*3959 FILLER_0_54_77
*3960 FILLER_0_54_83
*3961 FILLER_0_54_85
*3962 FILLER_0_54_97
*3963 FILLER_0_55_105
*3964 FILLER_0_55_111
*3965 FILLER_0_55_113
*3966 FILLER_0_55_125
*3967 FILLER_0_55_137
*3968 FILLER_0_55_149
*3969 FILLER_0_55_15
*3970 FILLER_0_55_161
*3971 FILLER_0_55_167
*3972 FILLER_0_55_169
*3973 FILLER_0_55_177
*3974 FILLER_0_55_182
*3975 FILLER_0_55_194
*3976 FILLER_0_55_206
*3977 FILLER_0_55_218
*3978 FILLER_0_55_225
*3979 FILLER_0_55_237
*3980 FILLER_0_55_249
*3981 FILLER_0_55_261
*3982 FILLER_0_55_27
*3983 FILLER_0_55_273
*3984 FILLER_0_55_279
*3985 FILLER_0_55_281
*3986 FILLER_0_55_289
*3987 FILLER_0_55_295
*3988 FILLER_0_55_3
*3989 FILLER_0_55_331
*3990 FILLER_0_55_335
*3991 FILLER_0_55_337
*3992 FILLER_0_55_349
*3993 FILLER_0_55_361
*3994 FILLER_0_55_373
*3995 FILLER_0_55_385
*3996 FILLER_0_55_39
*3997 FILLER_0_55_391
*3998 FILLER_0_55_393
*3999 FILLER_0_55_405
*4000 FILLER_0_55_417
*4001 FILLER_0_55_429
*4002 FILLER_0_55_441
*4003 FILLER_0_55_447
*4004 FILLER_0_55_449
*4005 FILLER_0_55_461
*4006 FILLER_0_55_473
*4007 FILLER_0_55_485
*4008 FILLER_0_55_497
*4009 FILLER_0_55_503
*4010 FILLER_0_55_505
*4011 FILLER_0_55_51
*4012 FILLER_0_55_517
*4013 FILLER_0_55_529
*4014 FILLER_0_55_537
*4015 FILLER_0_55_548
*4016 FILLER_0_55_55
*4017 FILLER_0_55_561
*4018 FILLER_0_55_57
*4019 FILLER_0_55_573
*4020 FILLER_0_55_585
*4021 FILLER_0_55_597
*4022 FILLER_0_55_609
*4023 FILLER_0_55_615
*4024 FILLER_0_55_617
*4025 FILLER_0_55_69
*4026 FILLER_0_55_81
*4027 FILLER_0_55_93
*4028 FILLER_0_56_109
*4029 FILLER_0_56_121
*4030 FILLER_0_56_133
*4031 FILLER_0_56_139
*4032 FILLER_0_56_141
*4033 FILLER_0_56_153
*4034 FILLER_0_56_165
*4035 FILLER_0_56_177
*4036 FILLER_0_56_189
*4037 FILLER_0_56_195
*4038 FILLER_0_56_197
*4039 FILLER_0_56_209
*4040 FILLER_0_56_21
*4041 FILLER_0_56_221
*4042 FILLER_0_56_233
*4043 FILLER_0_56_245
*4044 FILLER_0_56_251
*4045 FILLER_0_56_253
*4046 FILLER_0_56_265
*4047 FILLER_0_56_27
*4048 FILLER_0_56_277
*4049 FILLER_0_56_289
*4050 FILLER_0_56_29
*4051 FILLER_0_56_297
*4052 FILLER_0_56_302
*4053 FILLER_0_56_318
*4054 FILLER_0_56_330
*4055 FILLER_0_56_342
*4056 FILLER_0_56_354
*4057 FILLER_0_56_362
*4058 FILLER_0_56_365
*4059 FILLER_0_56_377
*4060 FILLER_0_56_389
*4061 FILLER_0_56_401
*4062 FILLER_0_56_41
*4063 FILLER_0_56_413
*4064 FILLER_0_56_419
*4065 FILLER_0_56_421
*4066 FILLER_0_56_433
*4067 FILLER_0_56_445
*4068 FILLER_0_56_457
*4069 FILLER_0_56_469
*4070 FILLER_0_56_475
*4071 FILLER_0_56_477
*4072 FILLER_0_56_489
*4073 FILLER_0_56_501
*4074 FILLER_0_56_513
*4075 FILLER_0_56_525
*4076 FILLER_0_56_53
*4077 FILLER_0_56_531
*4078 FILLER_0_56_533
*4079 FILLER_0_56_545
*4080 FILLER_0_56_557
*4081 FILLER_0_56_569
*4082 FILLER_0_56_581
*4083 FILLER_0_56_587
*4084 FILLER_0_56_589
*4085 FILLER_0_56_601
*4086 FILLER_0_56_613
*4087 FILLER_0_56_621
*4088 FILLER_0_56_65
*4089 FILLER_0_56_77
*4090 FILLER_0_56_83
*4091 FILLER_0_56_85
*4092 FILLER_0_56_9
*4093 FILLER_0_56_97
*4094 FILLER_0_57_105
*4095 FILLER_0_57_111
*4096 FILLER_0_57_113
*4097 FILLER_0_57_125
*4098 FILLER_0_57_137
*4099 FILLER_0_57_149
*4100 FILLER_0_57_15
*4101 FILLER_0_57_161
*4102 FILLER_0_57_167
*4103 FILLER_0_57_169
*4104 FILLER_0_57_181
*4105 FILLER_0_57_193
*4106 FILLER_0_57_205
*4107 FILLER_0_57_217
*4108 FILLER_0_57_223
*4109 FILLER_0_57_225
*4110 FILLER_0_57_237
*4111 FILLER_0_57_249
*4112 FILLER_0_57_261
*4113 FILLER_0_57_269
*4114 FILLER_0_57_27
*4115 FILLER_0_57_274
*4116 FILLER_0_57_281
*4117 FILLER_0_57_293
*4118 FILLER_0_57_299
*4119 FILLER_0_57_3
*4120 FILLER_0_57_311
*4121 FILLER_0_57_323
*4122 FILLER_0_57_335
*4123 FILLER_0_57_337
*4124 FILLER_0_57_349
*4125 FILLER_0_57_361
*4126 FILLER_0_57_373
*4127 FILLER_0_57_385
*4128 FILLER_0_57_39
*4129 FILLER_0_57_391
*4130 FILLER_0_57_393
*4131 FILLER_0_57_405
*4132 FILLER_0_57_417
*4133 FILLER_0_57_429
*4134 FILLER_0_57_441
*4135 FILLER_0_57_447
*4136 FILLER_0_57_449
*4137 FILLER_0_57_461
*4138 FILLER_0_57_473
*4139 FILLER_0_57_485
*4140 FILLER_0_57_497
*4141 FILLER_0_57_503
*4142 FILLER_0_57_505
*4143 FILLER_0_57_51
*4144 FILLER_0_57_517
*4145 FILLER_0_57_529
*4146 FILLER_0_57_541
*4147 FILLER_0_57_55
*4148 FILLER_0_57_553
*4149 FILLER_0_57_559
*4150 FILLER_0_57_561
*4151 FILLER_0_57_57
*4152 FILLER_0_57_573
*4153 FILLER_0_57_585
*4154 FILLER_0_57_597
*4155 FILLER_0_57_609
*4156 FILLER_0_57_615
*4157 FILLER_0_57_617
*4158 FILLER_0_57_69
*4159 FILLER_0_57_81
*4160 FILLER_0_57_93
*4161 FILLER_0_58_109
*4162 FILLER_0_58_121
*4163 FILLER_0_58_133
*4164 FILLER_0_58_139
*4165 FILLER_0_58_141
*4166 FILLER_0_58_15
*4167 FILLER_0_58_153
*4168 FILLER_0_58_165
*4169 FILLER_0_58_177
*4170 FILLER_0_58_189
*4171 FILLER_0_58_195
*4172 FILLER_0_58_197
*4173 FILLER_0_58_209
*4174 FILLER_0_58_221
*4175 FILLER_0_58_233
*4176 FILLER_0_58_245
*4177 FILLER_0_58_251
*4178 FILLER_0_58_253
*4179 FILLER_0_58_265
*4180 FILLER_0_58_27
*4181 FILLER_0_58_273
*4182 FILLER_0_58_281
*4183 FILLER_0_58_29
*4184 FILLER_0_58_3
*4185 FILLER_0_58_318
*4186 FILLER_0_58_330
*4187 FILLER_0_58_342
*4188 FILLER_0_58_354
*4189 FILLER_0_58_362
*4190 FILLER_0_58_365
*4191 FILLER_0_58_377
*4192 FILLER_0_58_389
*4193 FILLER_0_58_401
*4194 FILLER_0_58_41
*4195 FILLER_0_58_413
*4196 FILLER_0_58_419
*4197 FILLER_0_58_421
*4198 FILLER_0_58_433
*4199 FILLER_0_58_445
*4200 FILLER_0_58_457
*4201 FILLER_0_58_469
*4202 FILLER_0_58_475
*4203 FILLER_0_58_477
*4204 FILLER_0_58_489
*4205 FILLER_0_58_501
*4206 FILLER_0_58_513
*4207 FILLER_0_58_525
*4208 FILLER_0_58_53
*4209 FILLER_0_58_531
*4210 FILLER_0_58_533
*4211 FILLER_0_58_545
*4212 FILLER_0_58_557
*4213 FILLER_0_58_569
*4214 FILLER_0_58_581
*4215 FILLER_0_58_587
*4216 FILLER_0_58_589
*4217 FILLER_0_58_601
*4218 FILLER_0_58_613
*4219 FILLER_0_58_65
*4220 FILLER_0_58_77
*4221 FILLER_0_58_83
*4222 FILLER_0_58_85
*4223 FILLER_0_58_97
*4224 FILLER_0_59_105
*4225 FILLER_0_59_111
*4226 FILLER_0_59_113
*4227 FILLER_0_59_125
*4228 FILLER_0_59_137
*4229 FILLER_0_59_149
*4230 FILLER_0_59_161
*4231 FILLER_0_59_167
*4232 FILLER_0_59_169
*4233 FILLER_0_59_181
*4234 FILLER_0_59_193
*4235 FILLER_0_59_205
*4236 FILLER_0_59_21
*4237 FILLER_0_59_217
*4238 FILLER_0_59_223
*4239 FILLER_0_59_225
*4240 FILLER_0_59_237
*4241 FILLER_0_59_249
*4242 FILLER_0_59_261
*4243 FILLER_0_59_273
*4244 FILLER_0_59_279
*4245 FILLER_0_59_281
*4246 FILLER_0_59_293
*4247 FILLER_0_59_305
*4248 FILLER_0_59_317
*4249 FILLER_0_59_329
*4250 FILLER_0_59_33
*4251 FILLER_0_59_335
*4252 FILLER_0_59_337
*4253 FILLER_0_59_349
*4254 FILLER_0_59_361
*4255 FILLER_0_59_373
*4256 FILLER_0_59_385
*4257 FILLER_0_59_391
*4258 FILLER_0_59_393
*4259 FILLER_0_59_405
*4260 FILLER_0_59_417
*4261 FILLER_0_59_429
*4262 FILLER_0_59_441
*4263 FILLER_0_59_447
*4264 FILLER_0_59_449
*4265 FILLER_0_59_45
*4266 FILLER_0_59_461
*4267 FILLER_0_59_473
*4268 FILLER_0_59_485
*4269 FILLER_0_59_497
*4270 FILLER_0_59_503
*4271 FILLER_0_59_505
*4272 FILLER_0_59_517
*4273 FILLER_0_59_529
*4274 FILLER_0_59_53
*4275 FILLER_0_59_541
*4276 FILLER_0_59_553
*4277 FILLER_0_59_559
*4278 FILLER_0_59_561
*4279 FILLER_0_59_57
*4280 FILLER_0_59_573
*4281 FILLER_0_59_585
*4282 FILLER_0_59_597
*4283 FILLER_0_59_609
*4284 FILLER_0_59_615
*4285 FILLER_0_59_617
*4286 FILLER_0_59_621
*4287 FILLER_0_59_69
*4288 FILLER_0_59_81
*4289 FILLER_0_59_9
*4290 FILLER_0_59_93
*4291 FILLER_0_5_105
*4292 FILLER_0_5_111
*4293 FILLER_0_5_113
*4294 FILLER_0_5_125
*4295 FILLER_0_5_137
*4296 FILLER_0_5_149
*4297 FILLER_0_5_161
*4298 FILLER_0_5_167
*4299 FILLER_0_5_169
*4300 FILLER_0_5_175
*4301 FILLER_0_5_179
*4302 FILLER_0_5_19
*4303 FILLER_0_5_191
*4304 FILLER_0_5_203
*4305 FILLER_0_5_215
*4306 FILLER_0_5_223
*4307 FILLER_0_5_225
*4308 FILLER_0_5_237
*4309 FILLER_0_5_249
*4310 FILLER_0_5_261
*4311 FILLER_0_5_273
*4312 FILLER_0_5_279
*4313 FILLER_0_5_281
*4314 FILLER_0_5_287
*4315 FILLER_0_5_297
*4316 FILLER_0_5_307
*4317 FILLER_0_5_31
*4318 FILLER_0_5_319
*4319 FILLER_0_5_331
*4320 FILLER_0_5_335
*4321 FILLER_0_5_337
*4322 FILLER_0_5_349
*4323 FILLER_0_5_361
*4324 FILLER_0_5_373
*4325 FILLER_0_5_385
*4326 FILLER_0_5_391
*4327 FILLER_0_5_393
*4328 FILLER_0_5_405
*4329 FILLER_0_5_417
*4330 FILLER_0_5_429
*4331 FILLER_0_5_43
*4332 FILLER_0_5_441
*4333 FILLER_0_5_447
*4334 FILLER_0_5_449
*4335 FILLER_0_5_461
*4336 FILLER_0_5_473
*4337 FILLER_0_5_485
*4338 FILLER_0_5_497
*4339 FILLER_0_5_503
*4340 FILLER_0_5_505
*4341 FILLER_0_5_517
*4342 FILLER_0_5_529
*4343 FILLER_0_5_541
*4344 FILLER_0_5_55
*4345 FILLER_0_5_553
*4346 FILLER_0_5_559
*4347 FILLER_0_5_561
*4348 FILLER_0_5_57
*4349 FILLER_0_5_573
*4350 FILLER_0_5_585
*4351 FILLER_0_5_597
*4352 FILLER_0_5_609
*4353 FILLER_0_5_615
*4354 FILLER_0_5_617
*4355 FILLER_0_5_69
*4356 FILLER_0_5_7
*4357 FILLER_0_5_81
*4358 FILLER_0_5_93
*4359 FILLER_0_60_109
*4360 FILLER_0_60_121
*4361 FILLER_0_60_133
*4362 FILLER_0_60_139
*4363 FILLER_0_60_141
*4364 FILLER_0_60_15
*4365 FILLER_0_60_153
*4366 FILLER_0_60_165
*4367 FILLER_0_60_177
*4368 FILLER_0_60_189
*4369 FILLER_0_60_195
*4370 FILLER_0_60_197
*4371 FILLER_0_60_209
*4372 FILLER_0_60_221
*4373 FILLER_0_60_233
*4374 FILLER_0_60_245
*4375 FILLER_0_60_251
*4376 FILLER_0_60_253
*4377 FILLER_0_60_265
*4378 FILLER_0_60_27
*4379 FILLER_0_60_277
*4380 FILLER_0_60_289
*4381 FILLER_0_60_29
*4382 FILLER_0_60_3
*4383 FILLER_0_60_301
*4384 FILLER_0_60_307
*4385 FILLER_0_60_309
*4386 FILLER_0_60_321
*4387 FILLER_0_60_333
*4388 FILLER_0_60_345
*4389 FILLER_0_60_357
*4390 FILLER_0_60_363
*4391 FILLER_0_60_365
*4392 FILLER_0_60_377
*4393 FILLER_0_60_389
*4394 FILLER_0_60_401
*4395 FILLER_0_60_41
*4396 FILLER_0_60_413
*4397 FILLER_0_60_419
*4398 FILLER_0_60_421
*4399 FILLER_0_60_433
*4400 FILLER_0_60_445
*4401 FILLER_0_60_457
*4402 FILLER_0_60_469
*4403 FILLER_0_60_475
*4404 FILLER_0_60_477
*4405 FILLER_0_60_489
*4406 FILLER_0_60_501
*4407 FILLER_0_60_513
*4408 FILLER_0_60_525
*4409 FILLER_0_60_53
*4410 FILLER_0_60_531
*4411 FILLER_0_60_533
*4412 FILLER_0_60_545
*4413 FILLER_0_60_557
*4414 FILLER_0_60_569
*4415 FILLER_0_60_581
*4416 FILLER_0_60_587
*4417 FILLER_0_60_589
*4418 FILLER_0_60_601
*4419 FILLER_0_60_613
*4420 FILLER_0_60_65
*4421 FILLER_0_60_77
*4422 FILLER_0_60_83
*4423 FILLER_0_60_85
*4424 FILLER_0_60_97
*4425 FILLER_0_61_105
*4426 FILLER_0_61_111
*4427 FILLER_0_61_113
*4428 FILLER_0_61_125
*4429 FILLER_0_61_137
*4430 FILLER_0_61_149
*4431 FILLER_0_61_161
*4432 FILLER_0_61_167
*4433 FILLER_0_61_169
*4434 FILLER_0_61_181
*4435 FILLER_0_61_193
*4436 FILLER_0_61_205
*4437 FILLER_0_61_21
*4438 FILLER_0_61_217
*4439 FILLER_0_61_223
*4440 FILLER_0_61_225
*4441 FILLER_0_61_237
*4442 FILLER_0_61_249
*4443 FILLER_0_61_261
*4444 FILLER_0_61_273
*4445 FILLER_0_61_279
*4446 FILLER_0_61_281
*4447 FILLER_0_61_293
*4448 FILLER_0_61_305
*4449 FILLER_0_61_317
*4450 FILLER_0_61_329
*4451 FILLER_0_61_33
*4452 FILLER_0_61_335
*4453 FILLER_0_61_337
*4454 FILLER_0_61_349
*4455 FILLER_0_61_361
*4456 FILLER_0_61_373
*4457 FILLER_0_61_385
*4458 FILLER_0_61_391
*4459 FILLER_0_61_393
*4460 FILLER_0_61_405
*4461 FILLER_0_61_417
*4462 FILLER_0_61_429
*4463 FILLER_0_61_441
*4464 FILLER_0_61_447
*4465 FILLER_0_61_449
*4466 FILLER_0_61_45
*4467 FILLER_0_61_461
*4468 FILLER_0_61_473
*4469 FILLER_0_61_485
*4470 FILLER_0_61_497
*4471 FILLER_0_61_503
*4472 FILLER_0_61_505
*4473 FILLER_0_61_517
*4474 FILLER_0_61_529
*4475 FILLER_0_61_53
*4476 FILLER_0_61_541
*4477 FILLER_0_61_553
*4478 FILLER_0_61_559
*4479 FILLER_0_61_561
*4480 FILLER_0_61_57
*4481 FILLER_0_61_573
*4482 FILLER_0_61_585
*4483 FILLER_0_61_597
*4484 FILLER_0_61_609
*4485 FILLER_0_61_615
*4486 FILLER_0_61_617
*4487 FILLER_0_61_69
*4488 FILLER_0_61_81
*4489 FILLER_0_61_9
*4490 FILLER_0_61_93
*4491 FILLER_0_62_109
*4492 FILLER_0_62_121
*4493 FILLER_0_62_133
*4494 FILLER_0_62_139
*4495 FILLER_0_62_141
*4496 FILLER_0_62_15
*4497 FILLER_0_62_153
*4498 FILLER_0_62_165
*4499 FILLER_0_62_177
*4500 FILLER_0_62_189
*4501 FILLER_0_62_195
*4502 FILLER_0_62_197
*4503 FILLER_0_62_209
*4504 FILLER_0_62_221
*4505 FILLER_0_62_233
*4506 FILLER_0_62_245
*4507 FILLER_0_62_251
*4508 FILLER_0_62_253
*4509 FILLER_0_62_265
*4510 FILLER_0_62_27
*4511 FILLER_0_62_277
*4512 FILLER_0_62_289
*4513 FILLER_0_62_29
*4514 FILLER_0_62_3
*4515 FILLER_0_62_301
*4516 FILLER_0_62_307
*4517 FILLER_0_62_309
*4518 FILLER_0_62_321
*4519 FILLER_0_62_333
*4520 FILLER_0_62_345
*4521 FILLER_0_62_357
*4522 FILLER_0_62_363
*4523 FILLER_0_62_365
*4524 FILLER_0_62_377
*4525 FILLER_0_62_389
*4526 FILLER_0_62_401
*4527 FILLER_0_62_41
*4528 FILLER_0_62_413
*4529 FILLER_0_62_419
*4530 FILLER_0_62_421
*4531 FILLER_0_62_433
*4532 FILLER_0_62_445
*4533 FILLER_0_62_457
*4534 FILLER_0_62_469
*4535 FILLER_0_62_475
*4536 FILLER_0_62_477
*4537 FILLER_0_62_489
*4538 FILLER_0_62_501
*4539 FILLER_0_62_513
*4540 FILLER_0_62_525
*4541 FILLER_0_62_53
*4542 FILLER_0_62_531
*4543 FILLER_0_62_533
*4544 FILLER_0_62_545
*4545 FILLER_0_62_557
*4546 FILLER_0_62_569
*4547 FILLER_0_62_581
*4548 FILLER_0_62_587
*4549 FILLER_0_62_589
*4550 FILLER_0_62_601
*4551 FILLER_0_62_613
*4552 FILLER_0_62_621
*4553 FILLER_0_62_65
*4554 FILLER_0_62_77
*4555 FILLER_0_62_83
*4556 FILLER_0_62_85
*4557 FILLER_0_62_97
*4558 FILLER_0_63_105
*4559 FILLER_0_63_111
*4560 FILLER_0_63_113
*4561 FILLER_0_63_125
*4562 FILLER_0_63_137
*4563 FILLER_0_63_149
*4564 FILLER_0_63_15
*4565 FILLER_0_63_161
*4566 FILLER_0_63_167
*4567 FILLER_0_63_169
*4568 FILLER_0_63_181
*4569 FILLER_0_63_185
*4570 FILLER_0_63_206
*4571 FILLER_0_63_218
*4572 FILLER_0_63_225
*4573 FILLER_0_63_237
*4574 FILLER_0_63_249
*4575 FILLER_0_63_261
*4576 FILLER_0_63_27
*4577 FILLER_0_63_273
*4578 FILLER_0_63_279
*4579 FILLER_0_63_281
*4580 FILLER_0_63_293
*4581 FILLER_0_63_3
*4582 FILLER_0_63_305
*4583 FILLER_0_63_317
*4584 FILLER_0_63_329
*4585 FILLER_0_63_335
*4586 FILLER_0_63_337
*4587 FILLER_0_63_349
*4588 FILLER_0_63_361
*4589 FILLER_0_63_373
*4590 FILLER_0_63_385
*4591 FILLER_0_63_39
*4592 FILLER_0_63_391
*4593 FILLER_0_63_393
*4594 FILLER_0_63_405
*4595 FILLER_0_63_417
*4596 FILLER_0_63_429
*4597 FILLER_0_63_441
*4598 FILLER_0_63_447
*4599 FILLER_0_63_449
*4600 FILLER_0_63_461
*4601 FILLER_0_63_473
*4602 FILLER_0_63_485
*4603 FILLER_0_63_497
*4604 FILLER_0_63_503
*4605 FILLER_0_63_505
*4606 FILLER_0_63_51
*4607 FILLER_0_63_517
*4608 FILLER_0_63_529
*4609 FILLER_0_63_541
*4610 FILLER_0_63_55
*4611 FILLER_0_63_553
*4612 FILLER_0_63_559
*4613 FILLER_0_63_561
*4614 FILLER_0_63_57
*4615 FILLER_0_63_573
*4616 FILLER_0_63_585
*4617 FILLER_0_63_597
*4618 FILLER_0_63_609
*4619 FILLER_0_63_615
*4620 FILLER_0_63_617
*4621 FILLER_0_63_69
*4622 FILLER_0_63_81
*4623 FILLER_0_63_93
*4624 FILLER_0_64_109
*4625 FILLER_0_64_121
*4626 FILLER_0_64_133
*4627 FILLER_0_64_139
*4628 FILLER_0_64_141
*4629 FILLER_0_64_153
*4630 FILLER_0_64_165
*4631 FILLER_0_64_177
*4632 FILLER_0_64_189
*4633 FILLER_0_64_19
*4634 FILLER_0_64_195
*4635 FILLER_0_64_197
*4636 FILLER_0_64_209
*4637 FILLER_0_64_221
*4638 FILLER_0_64_233
*4639 FILLER_0_64_245
*4640 FILLER_0_64_251
*4641 FILLER_0_64_253
*4642 FILLER_0_64_265
*4643 FILLER_0_64_27
*4644 FILLER_0_64_277
*4645 FILLER_0_64_289
*4646 FILLER_0_64_29
*4647 FILLER_0_64_301
*4648 FILLER_0_64_307
*4649 FILLER_0_64_309
*4650 FILLER_0_64_313
*4651 FILLER_0_64_319
*4652 FILLER_0_64_328
*4653 FILLER_0_64_340
*4654 FILLER_0_64_352
*4655 FILLER_0_64_365
*4656 FILLER_0_64_377
*4657 FILLER_0_64_389
*4658 FILLER_0_64_401
*4659 FILLER_0_64_41
*4660 FILLER_0_64_413
*4661 FILLER_0_64_419
*4662 FILLER_0_64_421
*4663 FILLER_0_64_433
*4664 FILLER_0_64_445
*4665 FILLER_0_64_457
*4666 FILLER_0_64_469
*4667 FILLER_0_64_475
*4668 FILLER_0_64_477
*4669 FILLER_0_64_489
*4670 FILLER_0_64_501
*4671 FILLER_0_64_513
*4672 FILLER_0_64_525
*4673 FILLER_0_64_53
*4674 FILLER_0_64_531
*4675 FILLER_0_64_533
*4676 FILLER_0_64_545
*4677 FILLER_0_64_557
*4678 FILLER_0_64_569
*4679 FILLER_0_64_581
*4680 FILLER_0_64_587
*4681 FILLER_0_64_589
*4682 FILLER_0_64_601
*4683 FILLER_0_64_613
*4684 FILLER_0_64_65
*4685 FILLER_0_64_7
*4686 FILLER_0_64_77
*4687 FILLER_0_64_83
*4688 FILLER_0_64_85
*4689 FILLER_0_64_97
*4690 FILLER_0_65_105
*4691 FILLER_0_65_111
*4692 FILLER_0_65_113
*4693 FILLER_0_65_125
*4694 FILLER_0_65_137
*4695 FILLER_0_65_149
*4696 FILLER_0_65_161
*4697 FILLER_0_65_167
*4698 FILLER_0_65_169
*4699 FILLER_0_65_181
*4700 FILLER_0_65_193
*4701 FILLER_0_65_205
*4702 FILLER_0_65_21
*4703 FILLER_0_65_217
*4704 FILLER_0_65_223
*4705 FILLER_0_65_225
*4706 FILLER_0_65_237
*4707 FILLER_0_65_249
*4708 FILLER_0_65_261
*4709 FILLER_0_65_273
*4710 FILLER_0_65_279
*4711 FILLER_0_65_281
*4712 FILLER_0_65_293
*4713 FILLER_0_65_305
*4714 FILLER_0_65_317
*4715 FILLER_0_65_329
*4716 FILLER_0_65_33
*4717 FILLER_0_65_335
*4718 FILLER_0_65_337
*4719 FILLER_0_65_349
*4720 FILLER_0_65_361
*4721 FILLER_0_65_373
*4722 FILLER_0_65_385
*4723 FILLER_0_65_391
*4724 FILLER_0_65_393
*4725 FILLER_0_65_405
*4726 FILLER_0_65_417
*4727 FILLER_0_65_429
*4728 FILLER_0_65_441
*4729 FILLER_0_65_447
*4730 FILLER_0_65_449
*4731 FILLER_0_65_45
*4732 FILLER_0_65_461
*4733 FILLER_0_65_473
*4734 FILLER_0_65_485
*4735 FILLER_0_65_497
*4736 FILLER_0_65_503
*4737 FILLER_0_65_505
*4738 FILLER_0_65_517
*4739 FILLER_0_65_529
*4740 FILLER_0_65_53
*4741 FILLER_0_65_541
*4742 FILLER_0_65_553
*4743 FILLER_0_65_559
*4744 FILLER_0_65_561
*4745 FILLER_0_65_57
*4746 FILLER_0_65_573
*4747 FILLER_0_65_585
*4748 FILLER_0_65_597
*4749 FILLER_0_65_605
*4750 FILLER_0_65_69
*4751 FILLER_0_65_81
*4752 FILLER_0_65_9
*4753 FILLER_0_65_93
*4754 FILLER_0_66_109
*4755 FILLER_0_66_121
*4756 FILLER_0_66_133
*4757 FILLER_0_66_139
*4758 FILLER_0_66_141
*4759 FILLER_0_66_15
*4760 FILLER_0_66_153
*4761 FILLER_0_66_165
*4762 FILLER_0_66_177
*4763 FILLER_0_66_189
*4764 FILLER_0_66_195
*4765 FILLER_0_66_197
*4766 FILLER_0_66_209
*4767 FILLER_0_66_221
*4768 FILLER_0_66_233
*4769 FILLER_0_66_245
*4770 FILLER_0_66_251
*4771 FILLER_0_66_253
*4772 FILLER_0_66_265
*4773 FILLER_0_66_27
*4774 FILLER_0_66_277
*4775 FILLER_0_66_289
*4776 FILLER_0_66_29
*4777 FILLER_0_66_3
*4778 FILLER_0_66_300
*4779 FILLER_0_66_309
*4780 FILLER_0_66_321
*4781 FILLER_0_66_333
*4782 FILLER_0_66_345
*4783 FILLER_0_66_357
*4784 FILLER_0_66_363
*4785 FILLER_0_66_365
*4786 FILLER_0_66_377
*4787 FILLER_0_66_389
*4788 FILLER_0_66_401
*4789 FILLER_0_66_41
*4790 FILLER_0_66_413
*4791 FILLER_0_66_419
*4792 FILLER_0_66_421
*4793 FILLER_0_66_433
*4794 FILLER_0_66_445
*4795 FILLER_0_66_457
*4796 FILLER_0_66_469
*4797 FILLER_0_66_475
*4798 FILLER_0_66_477
*4799 FILLER_0_66_489
*4800 FILLER_0_66_501
*4801 FILLER_0_66_513
*4802 FILLER_0_66_525
*4803 FILLER_0_66_53
*4804 FILLER_0_66_531
*4805 FILLER_0_66_533
*4806 FILLER_0_66_545
*4807 FILLER_0_66_557
*4808 FILLER_0_66_569
*4809 FILLER_0_66_581
*4810 FILLER_0_66_587
*4811 FILLER_0_66_589
*4812 FILLER_0_66_624
*4813 FILLER_0_66_65
*4814 FILLER_0_66_77
*4815 FILLER_0_66_83
*4816 FILLER_0_66_85
*4817 FILLER_0_66_97
*4818 FILLER_0_67_105
*4819 FILLER_0_67_111
*4820 FILLER_0_67_133
*4821 FILLER_0_67_145
*4822 FILLER_0_67_157
*4823 FILLER_0_67_165
*4824 FILLER_0_67_169
*4825 FILLER_0_67_181
*4826 FILLER_0_67_193
*4827 FILLER_0_67_205
*4828 FILLER_0_67_21
*4829 FILLER_0_67_217
*4830 FILLER_0_67_223
*4831 FILLER_0_67_225
*4832 FILLER_0_67_237
*4833 FILLER_0_67_249
*4834 FILLER_0_67_261
*4835 FILLER_0_67_273
*4836 FILLER_0_67_279
*4837 FILLER_0_67_281
*4838 FILLER_0_67_289
*4839 FILLER_0_67_320
*4840 FILLER_0_67_33
*4841 FILLER_0_67_332
*4842 FILLER_0_67_337
*4843 FILLER_0_67_349
*4844 FILLER_0_67_361
*4845 FILLER_0_67_373
*4846 FILLER_0_67_385
*4847 FILLER_0_67_391
*4848 FILLER_0_67_393
*4849 FILLER_0_67_405
*4850 FILLER_0_67_417
*4851 FILLER_0_67_429
*4852 FILLER_0_67_441
*4853 FILLER_0_67_447
*4854 FILLER_0_67_449
*4855 FILLER_0_67_45
*4856 FILLER_0_67_461
*4857 FILLER_0_67_473
*4858 FILLER_0_67_485
*4859 FILLER_0_67_497
*4860 FILLER_0_67_503
*4861 FILLER_0_67_505
*4862 FILLER_0_67_517
*4863 FILLER_0_67_529
*4864 FILLER_0_67_53
*4865 FILLER_0_67_541
*4866 FILLER_0_67_553
*4867 FILLER_0_67_559
*4868 FILLER_0_67_561
*4869 FILLER_0_67_57
*4870 FILLER_0_67_573
*4871 FILLER_0_67_585
*4872 FILLER_0_67_593
*4873 FILLER_0_67_614
*4874 FILLER_0_67_617
*4875 FILLER_0_67_69
*4876 FILLER_0_67_81
*4877 FILLER_0_67_9
*4878 FILLER_0_67_93
*4879 FILLER_0_68_130
*4880 FILLER_0_68_138
*4881 FILLER_0_68_141
*4882 FILLER_0_68_15
*4883 FILLER_0_68_153
*4884 FILLER_0_68_165
*4885 FILLER_0_68_177
*4886 FILLER_0_68_189
*4887 FILLER_0_68_195
*4888 FILLER_0_68_197
*4889 FILLER_0_68_209
*4890 FILLER_0_68_221
*4891 FILLER_0_68_233
*4892 FILLER_0_68_245
*4893 FILLER_0_68_251
*4894 FILLER_0_68_253
*4895 FILLER_0_68_265
*4896 FILLER_0_68_27
*4897 FILLER_0_68_277
*4898 FILLER_0_68_289
*4899 FILLER_0_68_29
*4900 FILLER_0_68_3
*4901 FILLER_0_68_301
*4902 FILLER_0_68_307
*4903 FILLER_0_68_309
*4904 FILLER_0_68_321
*4905 FILLER_0_68_333
*4906 FILLER_0_68_345
*4907 FILLER_0_68_357
*4908 FILLER_0_68_363
*4909 FILLER_0_68_365
*4910 FILLER_0_68_377
*4911 FILLER_0_68_389
*4912 FILLER_0_68_401
*4913 FILLER_0_68_41
*4914 FILLER_0_68_413
*4915 FILLER_0_68_419
*4916 FILLER_0_68_421
*4917 FILLER_0_68_433
*4918 FILLER_0_68_445
*4919 FILLER_0_68_457
*4920 FILLER_0_68_469
*4921 FILLER_0_68_475
*4922 FILLER_0_68_477
*4923 FILLER_0_68_489
*4924 FILLER_0_68_501
*4925 FILLER_0_68_513
*4926 FILLER_0_68_525
*4927 FILLER_0_68_53
*4928 FILLER_0_68_531
*4929 FILLER_0_68_533
*4930 FILLER_0_68_545
*4931 FILLER_0_68_557
*4932 FILLER_0_68_569
*4933 FILLER_0_68_581
*4934 FILLER_0_68_587
*4935 FILLER_0_68_589
*4936 FILLER_0_68_595
*4937 FILLER_0_68_608
*4938 FILLER_0_68_617
*4939 FILLER_0_68_65
*4940 FILLER_0_68_77
*4941 FILLER_0_68_83
*4942 FILLER_0_68_85
*4943 FILLER_0_68_97
*4944 FILLER_0_69_105
*4945 FILLER_0_69_111
*4946 FILLER_0_69_113
*4947 FILLER_0_69_117
*4948 FILLER_0_69_129
*4949 FILLER_0_69_141
*4950 FILLER_0_69_15
*4951 FILLER_0_69_153
*4952 FILLER_0_69_165
*4953 FILLER_0_69_169
*4954 FILLER_0_69_181
*4955 FILLER_0_69_193
*4956 FILLER_0_69_205
*4957 FILLER_0_69_217
*4958 FILLER_0_69_223
*4959 FILLER_0_69_225
*4960 FILLER_0_69_237
*4961 FILLER_0_69_249
*4962 FILLER_0_69_261
*4963 FILLER_0_69_27
*4964 FILLER_0_69_273
*4965 FILLER_0_69_279
*4966 FILLER_0_69_281
*4967 FILLER_0_69_293
*4968 FILLER_0_69_3
*4969 FILLER_0_69_305
*4970 FILLER_0_69_317
*4971 FILLER_0_69_329
*4972 FILLER_0_69_335
*4973 FILLER_0_69_337
*4974 FILLER_0_69_349
*4975 FILLER_0_69_361
*4976 FILLER_0_69_373
*4977 FILLER_0_69_385
*4978 FILLER_0_69_39
*4979 FILLER_0_69_391
*4980 FILLER_0_69_393
*4981 FILLER_0_69_405
*4982 FILLER_0_69_417
*4983 FILLER_0_69_429
*4984 FILLER_0_69_441
*4985 FILLER_0_69_447
*4986 FILLER_0_69_449
*4987 FILLER_0_69_461
*4988 FILLER_0_69_473
*4989 FILLER_0_69_485
*4990 FILLER_0_69_497
*4991 FILLER_0_69_503
*4992 FILLER_0_69_505
*4993 FILLER_0_69_51
*4994 FILLER_0_69_517
*4995 FILLER_0_69_529
*4996 FILLER_0_69_541
*4997 FILLER_0_69_55
*4998 FILLER_0_69_553
*4999 FILLER_0_69_559
*5000 FILLER_0_69_561
*5001 FILLER_0_69_57
*5002 FILLER_0_69_573
*5003 FILLER_0_69_585
*5004 FILLER_0_69_597
*5005 FILLER_0_69_609
*5006 FILLER_0_69_615
*5007 FILLER_0_69_617
*5008 FILLER_0_69_69
*5009 FILLER_0_69_81
*5010 FILLER_0_69_93
*5011 FILLER_0_6_109
*5012 FILLER_0_6_121
*5013 FILLER_0_6_133
*5014 FILLER_0_6_139
*5015 FILLER_0_6_141
*5016 FILLER_0_6_15
*5017 FILLER_0_6_153
*5018 FILLER_0_6_165
*5019 FILLER_0_6_171
*5020 FILLER_0_6_183
*5021 FILLER_0_6_195
*5022 FILLER_0_6_197
*5023 FILLER_0_6_209
*5024 FILLER_0_6_221
*5025 FILLER_0_6_233
*5026 FILLER_0_6_245
*5027 FILLER_0_6_251
*5028 FILLER_0_6_253
*5029 FILLER_0_6_265
*5030 FILLER_0_6_27
*5031 FILLER_0_6_277
*5032 FILLER_0_6_29
*5033 FILLER_0_6_3
*5034 FILLER_0_6_306
*5035 FILLER_0_6_309
*5036 FILLER_0_6_321
*5037 FILLER_0_6_333
*5038 FILLER_0_6_345
*5039 FILLER_0_6_357
*5040 FILLER_0_6_363
*5041 FILLER_0_6_365
*5042 FILLER_0_6_377
*5043 FILLER_0_6_389
*5044 FILLER_0_6_401
*5045 FILLER_0_6_41
*5046 FILLER_0_6_413
*5047 FILLER_0_6_419
*5048 FILLER_0_6_430
*5049 FILLER_0_6_442
*5050 FILLER_0_6_454
*5051 FILLER_0_6_466
*5052 FILLER_0_6_474
*5053 FILLER_0_6_477
*5054 FILLER_0_6_489
*5055 FILLER_0_6_501
*5056 FILLER_0_6_513
*5057 FILLER_0_6_525
*5058 FILLER_0_6_53
*5059 FILLER_0_6_531
*5060 FILLER_0_6_533
*5061 FILLER_0_6_545
*5062 FILLER_0_6_557
*5063 FILLER_0_6_569
*5064 FILLER_0_6_581
*5065 FILLER_0_6_587
*5066 FILLER_0_6_589
*5067 FILLER_0_6_601
*5068 FILLER_0_6_613
*5069 FILLER_0_6_621
*5070 FILLER_0_6_65
*5071 FILLER_0_6_77
*5072 FILLER_0_6_83
*5073 FILLER_0_6_85
*5074 FILLER_0_6_97
*5075 FILLER_0_70_109
*5076 FILLER_0_70_121
*5077 FILLER_0_70_133
*5078 FILLER_0_70_139
*5079 FILLER_0_70_141
*5080 FILLER_0_70_153
*5081 FILLER_0_70_165
*5082 FILLER_0_70_177
*5083 FILLER_0_70_18
*5084 FILLER_0_70_189
*5085 FILLER_0_70_195
*5086 FILLER_0_70_197
*5087 FILLER_0_70_209
*5088 FILLER_0_70_221
*5089 FILLER_0_70_233
*5090 FILLER_0_70_245
*5091 FILLER_0_70_251
*5092 FILLER_0_70_253
*5093 FILLER_0_70_26
*5094 FILLER_0_70_265
*5095 FILLER_0_70_277
*5096 FILLER_0_70_289
*5097 FILLER_0_70_29
*5098 FILLER_0_70_301
*5099 FILLER_0_70_307
*5100 FILLER_0_70_309
*5101 FILLER_0_70_321
*5102 FILLER_0_70_333
*5103 FILLER_0_70_345
*5104 FILLER_0_70_357
*5105 FILLER_0_70_363
*5106 FILLER_0_70_365
*5107 FILLER_0_70_377
*5108 FILLER_0_70_389
*5109 FILLER_0_70_401
*5110 FILLER_0_70_41
*5111 FILLER_0_70_413
*5112 FILLER_0_70_419
*5113 FILLER_0_70_421
*5114 FILLER_0_70_433
*5115 FILLER_0_70_445
*5116 FILLER_0_70_457
*5117 FILLER_0_70_469
*5118 FILLER_0_70_475
*5119 FILLER_0_70_477
*5120 FILLER_0_70_489
*5121 FILLER_0_70_501
*5122 FILLER_0_70_513
*5123 FILLER_0_70_525
*5124 FILLER_0_70_53
*5125 FILLER_0_70_531
*5126 FILLER_0_70_533
*5127 FILLER_0_70_545
*5128 FILLER_0_70_557
*5129 FILLER_0_70_569
*5130 FILLER_0_70_581
*5131 FILLER_0_70_587
*5132 FILLER_0_70_589
*5133 FILLER_0_70_6
*5134 FILLER_0_70_601
*5135 FILLER_0_70_613
*5136 FILLER_0_70_65
*5137 FILLER_0_70_77
*5138 FILLER_0_70_83
*5139 FILLER_0_70_85
*5140 FILLER_0_70_97
*5141 FILLER_0_71_105
*5142 FILLER_0_71_111
*5143 FILLER_0_71_113
*5144 FILLER_0_71_125
*5145 FILLER_0_71_137
*5146 FILLER_0_71_149
*5147 FILLER_0_71_15
*5148 FILLER_0_71_161
*5149 FILLER_0_71_167
*5150 FILLER_0_71_169
*5151 FILLER_0_71_181
*5152 FILLER_0_71_193
*5153 FILLER_0_71_205
*5154 FILLER_0_71_217
*5155 FILLER_0_71_223
*5156 FILLER_0_71_225
*5157 FILLER_0_71_237
*5158 FILLER_0_71_249
*5159 FILLER_0_71_261
*5160 FILLER_0_71_27
*5161 FILLER_0_71_273
*5162 FILLER_0_71_279
*5163 FILLER_0_71_281
*5164 FILLER_0_71_293
*5165 FILLER_0_71_3
*5166 FILLER_0_71_305
*5167 FILLER_0_71_317
*5168 FILLER_0_71_329
*5169 FILLER_0_71_335
*5170 FILLER_0_71_337
*5171 FILLER_0_71_349
*5172 FILLER_0_71_371
*5173 FILLER_0_71_383
*5174 FILLER_0_71_39
*5175 FILLER_0_71_391
*5176 FILLER_0_71_393
*5177 FILLER_0_71_405
*5178 FILLER_0_71_417
*5179 FILLER_0_71_429
*5180 FILLER_0_71_441
*5181 FILLER_0_71_447
*5182 FILLER_0_71_449
*5183 FILLER_0_71_461
*5184 FILLER_0_71_473
*5185 FILLER_0_71_485
*5186 FILLER_0_71_497
*5187 FILLER_0_71_503
*5188 FILLER_0_71_505
*5189 FILLER_0_71_51
*5190 FILLER_0_71_517
*5191 FILLER_0_71_529
*5192 FILLER_0_71_541
*5193 FILLER_0_71_55
*5194 FILLER_0_71_553
*5195 FILLER_0_71_559
*5196 FILLER_0_71_561
*5197 FILLER_0_71_57
*5198 FILLER_0_71_573
*5199 FILLER_0_71_585
*5200 FILLER_0_71_597
*5201 FILLER_0_71_609
*5202 FILLER_0_71_615
*5203 FILLER_0_71_617
*5204 FILLER_0_71_69
*5205 FILLER_0_71_81
*5206 FILLER_0_71_93
*5207 FILLER_0_72_109
*5208 FILLER_0_72_121
*5209 FILLER_0_72_133
*5210 FILLER_0_72_139
*5211 FILLER_0_72_141
*5212 FILLER_0_72_153
*5213 FILLER_0_72_165
*5214 FILLER_0_72_177
*5215 FILLER_0_72_18
*5216 FILLER_0_72_189
*5217 FILLER_0_72_195
*5218 FILLER_0_72_197
*5219 FILLER_0_72_209
*5220 FILLER_0_72_221
*5221 FILLER_0_72_233
*5222 FILLER_0_72_245
*5223 FILLER_0_72_251
*5224 FILLER_0_72_253
*5225 FILLER_0_72_26
*5226 FILLER_0_72_265
*5227 FILLER_0_72_277
*5228 FILLER_0_72_289
*5229 FILLER_0_72_29
*5230 FILLER_0_72_301
*5231 FILLER_0_72_307
*5232 FILLER_0_72_309
*5233 FILLER_0_72_321
*5234 FILLER_0_72_333
*5235 FILLER_0_72_345
*5236 FILLER_0_72_356
*5237 FILLER_0_72_365
*5238 FILLER_0_72_377
*5239 FILLER_0_72_389
*5240 FILLER_0_72_401
*5241 FILLER_0_72_41
*5242 FILLER_0_72_413
*5243 FILLER_0_72_419
*5244 FILLER_0_72_421
*5245 FILLER_0_72_433
*5246 FILLER_0_72_445
*5247 FILLER_0_72_457
*5248 FILLER_0_72_469
*5249 FILLER_0_72_475
*5250 FILLER_0_72_486
*5251 FILLER_0_72_498
*5252 FILLER_0_72_510
*5253 FILLER_0_72_522
*5254 FILLER_0_72_53
*5255 FILLER_0_72_530
*5256 FILLER_0_72_533
*5257 FILLER_0_72_545
*5258 FILLER_0_72_557
*5259 FILLER_0_72_569
*5260 FILLER_0_72_581
*5261 FILLER_0_72_587
*5262 FILLER_0_72_589
*5263 FILLER_0_72_6
*5264 FILLER_0_72_601
*5265 FILLER_0_72_613
*5266 FILLER_0_72_65
*5267 FILLER_0_72_77
*5268 FILLER_0_72_83
*5269 FILLER_0_72_85
*5270 FILLER_0_72_97
*5271 FILLER_0_73_105
*5272 FILLER_0_73_111
*5273 FILLER_0_73_113
*5274 FILLER_0_73_125
*5275 FILLER_0_73_137
*5276 FILLER_0_73_149
*5277 FILLER_0_73_161
*5278 FILLER_0_73_167
*5279 FILLER_0_73_169
*5280 FILLER_0_73_181
*5281 FILLER_0_73_193
*5282 FILLER_0_73_205
*5283 FILLER_0_73_217
*5284 FILLER_0_73_223
*5285 FILLER_0_73_225
*5286 FILLER_0_73_237
*5287 FILLER_0_73_249
*5288 FILLER_0_73_25
*5289 FILLER_0_73_261
*5290 FILLER_0_73_273
*5291 FILLER_0_73_279
*5292 FILLER_0_73_281
*5293 FILLER_0_73_293
*5294 FILLER_0_73_3
*5295 FILLER_0_73_305
*5296 FILLER_0_73_317
*5297 FILLER_0_73_329
*5298 FILLER_0_73_335
*5299 FILLER_0_73_337
*5300 FILLER_0_73_349
*5301 FILLER_0_73_361
*5302 FILLER_0_73_37
*5303 FILLER_0_73_373
*5304 FILLER_0_73_385
*5305 FILLER_0_73_391
*5306 FILLER_0_73_393
*5307 FILLER_0_73_405
*5308 FILLER_0_73_417
*5309 FILLER_0_73_429
*5310 FILLER_0_73_441
*5311 FILLER_0_73_447
*5312 FILLER_0_73_449
*5313 FILLER_0_73_461
*5314 FILLER_0_73_467
*5315 FILLER_0_73_49
*5316 FILLER_0_73_491
*5317 FILLER_0_73_503
*5318 FILLER_0_73_505
*5319 FILLER_0_73_517
*5320 FILLER_0_73_529
*5321 FILLER_0_73_541
*5322 FILLER_0_73_55
*5323 FILLER_0_73_553
*5324 FILLER_0_73_559
*5325 FILLER_0_73_561
*5326 FILLER_0_73_57
*5327 FILLER_0_73_573
*5328 FILLER_0_73_585
*5329 FILLER_0_73_597
*5330 FILLER_0_73_609
*5331 FILLER_0_73_615
*5332 FILLER_0_73_617
*5333 FILLER_0_73_69
*5334 FILLER_0_73_81
*5335 FILLER_0_73_93
*5336 FILLER_0_74_109
*5337 FILLER_0_74_11
*5338 FILLER_0_74_121
*5339 FILLER_0_74_133
*5340 FILLER_0_74_139
*5341 FILLER_0_74_141
*5342 FILLER_0_74_15
*5343 FILLER_0_74_153
*5344 FILLER_0_74_165
*5345 FILLER_0_74_177
*5346 FILLER_0_74_189
*5347 FILLER_0_74_195
*5348 FILLER_0_74_197
*5349 FILLER_0_74_209
*5350 FILLER_0_74_221
*5351 FILLER_0_74_233
*5352 FILLER_0_74_245
*5353 FILLER_0_74_251
*5354 FILLER_0_74_253
*5355 FILLER_0_74_265
*5356 FILLER_0_74_27
*5357 FILLER_0_74_277
*5358 FILLER_0_74_289
*5359 FILLER_0_74_29
*5360 FILLER_0_74_3
*5361 FILLER_0_74_301
*5362 FILLER_0_74_307
*5363 FILLER_0_74_309
*5364 FILLER_0_74_321
*5365 FILLER_0_74_333
*5366 FILLER_0_74_345
*5367 FILLER_0_74_357
*5368 FILLER_0_74_363
*5369 FILLER_0_74_365
*5370 FILLER_0_74_377
*5371 FILLER_0_74_389
*5372 FILLER_0_74_401
*5373 FILLER_0_74_41
*5374 FILLER_0_74_413
*5375 FILLER_0_74_419
*5376 FILLER_0_74_421
*5377 FILLER_0_74_433
*5378 FILLER_0_74_445
*5379 FILLER_0_74_457
*5380 FILLER_0_74_469
*5381 FILLER_0_74_475
*5382 FILLER_0_74_477
*5383 FILLER_0_74_489
*5384 FILLER_0_74_501
*5385 FILLER_0_74_513
*5386 FILLER_0_74_525
*5387 FILLER_0_74_53
*5388 FILLER_0_74_531
*5389 FILLER_0_74_533
*5390 FILLER_0_74_545
*5391 FILLER_0_74_557
*5392 FILLER_0_74_569
*5393 FILLER_0_74_581
*5394 FILLER_0_74_587
*5395 FILLER_0_74_589
*5396 FILLER_0_74_601
*5397 FILLER_0_74_613
*5398 FILLER_0_74_65
*5399 FILLER_0_74_77
*5400 FILLER_0_74_83
*5401 FILLER_0_74_85
*5402 FILLER_0_74_97
*5403 FILLER_0_75_105
*5404 FILLER_0_75_111
*5405 FILLER_0_75_113
*5406 FILLER_0_75_125
*5407 FILLER_0_75_137
*5408 FILLER_0_75_149
*5409 FILLER_0_75_161
*5410 FILLER_0_75_167
*5411 FILLER_0_75_169
*5412 FILLER_0_75_18
*5413 FILLER_0_75_181
*5414 FILLER_0_75_193
*5415 FILLER_0_75_205
*5416 FILLER_0_75_217
*5417 FILLER_0_75_223
*5418 FILLER_0_75_225
*5419 FILLER_0_75_237
*5420 FILLER_0_75_249
*5421 FILLER_0_75_261
*5422 FILLER_0_75_273
*5423 FILLER_0_75_279
*5424 FILLER_0_75_281
*5425 FILLER_0_75_293
*5426 FILLER_0_75_30
*5427 FILLER_0_75_305
*5428 FILLER_0_75_317
*5429 FILLER_0_75_329
*5430 FILLER_0_75_335
*5431 FILLER_0_75_337
*5432 FILLER_0_75_349
*5433 FILLER_0_75_361
*5434 FILLER_0_75_373
*5435 FILLER_0_75_385
*5436 FILLER_0_75_391
*5437 FILLER_0_75_393
*5438 FILLER_0_75_405
*5439 FILLER_0_75_417
*5440 FILLER_0_75_42
*5441 FILLER_0_75_429
*5442 FILLER_0_75_441
*5443 FILLER_0_75_447
*5444 FILLER_0_75_454
*5445 FILLER_0_75_466
*5446 FILLER_0_75_478
*5447 FILLER_0_75_490
*5448 FILLER_0_75_502
*5449 FILLER_0_75_505
*5450 FILLER_0_75_517
*5451 FILLER_0_75_529
*5452 FILLER_0_75_54
*5453 FILLER_0_75_541
*5454 FILLER_0_75_553
*5455 FILLER_0_75_559
*5456 FILLER_0_75_561
*5457 FILLER_0_75_57
*5458 FILLER_0_75_573
*5459 FILLER_0_75_585
*5460 FILLER_0_75_597
*5461 FILLER_0_75_6
*5462 FILLER_0_75_609
*5463 FILLER_0_75_615
*5464 FILLER_0_75_617
*5465 FILLER_0_75_69
*5466 FILLER_0_75_81
*5467 FILLER_0_75_93
*5468 FILLER_0_76_109
*5469 FILLER_0_76_121
*5470 FILLER_0_76_133
*5471 FILLER_0_76_139
*5472 FILLER_0_76_141
*5473 FILLER_0_76_153
*5474 FILLER_0_76_165
*5475 FILLER_0_76_177
*5476 FILLER_0_76_189
*5477 FILLER_0_76_195
*5478 FILLER_0_76_197
*5479 FILLER_0_76_209
*5480 FILLER_0_76_21
*5481 FILLER_0_76_221
*5482 FILLER_0_76_233
*5483 FILLER_0_76_245
*5484 FILLER_0_76_251
*5485 FILLER_0_76_253
*5486 FILLER_0_76_265
*5487 FILLER_0_76_27
*5488 FILLER_0_76_277
*5489 FILLER_0_76_289
*5490 FILLER_0_76_29
*5491 FILLER_0_76_301
*5492 FILLER_0_76_307
*5493 FILLER_0_76_309
*5494 FILLER_0_76_321
*5495 FILLER_0_76_333
*5496 FILLER_0_76_345
*5497 FILLER_0_76_357
*5498 FILLER_0_76_363
*5499 FILLER_0_76_365
*5500 FILLER_0_76_377
*5501 FILLER_0_76_389
*5502 FILLER_0_76_401
*5503 FILLER_0_76_41
*5504 FILLER_0_76_413
*5505 FILLER_0_76_419
*5506 FILLER_0_76_421
*5507 FILLER_0_76_433
*5508 FILLER_0_76_445
*5509 FILLER_0_76_457
*5510 FILLER_0_76_462
*5511 FILLER_0_76_474
*5512 FILLER_0_76_477
*5513 FILLER_0_76_489
*5514 FILLER_0_76_501
*5515 FILLER_0_76_513
*5516 FILLER_0_76_525
*5517 FILLER_0_76_53
*5518 FILLER_0_76_531
*5519 FILLER_0_76_533
*5520 FILLER_0_76_545
*5521 FILLER_0_76_557
*5522 FILLER_0_76_569
*5523 FILLER_0_76_581
*5524 FILLER_0_76_587
*5525 FILLER_0_76_589
*5526 FILLER_0_76_601
*5527 FILLER_0_76_613
*5528 FILLER_0_76_65
*5529 FILLER_0_76_77
*5530 FILLER_0_76_83
*5531 FILLER_0_76_85
*5532 FILLER_0_76_9
*5533 FILLER_0_76_97
*5534 FILLER_0_77_105
*5535 FILLER_0_77_111
*5536 FILLER_0_77_113
*5537 FILLER_0_77_125
*5538 FILLER_0_77_137
*5539 FILLER_0_77_149
*5540 FILLER_0_77_161
*5541 FILLER_0_77_167
*5542 FILLER_0_77_169
*5543 FILLER_0_77_18
*5544 FILLER_0_77_181
*5545 FILLER_0_77_193
*5546 FILLER_0_77_205
*5547 FILLER_0_77_217
*5548 FILLER_0_77_223
*5549 FILLER_0_77_225
*5550 FILLER_0_77_237
*5551 FILLER_0_77_249
*5552 FILLER_0_77_261
*5553 FILLER_0_77_273
*5554 FILLER_0_77_279
*5555 FILLER_0_77_281
*5556 FILLER_0_77_293
*5557 FILLER_0_77_3
*5558 FILLER_0_77_30
*5559 FILLER_0_77_305
*5560 FILLER_0_77_317
*5561 FILLER_0_77_329
*5562 FILLER_0_77_335
*5563 FILLER_0_77_337
*5564 FILLER_0_77_349
*5565 FILLER_0_77_361
*5566 FILLER_0_77_373
*5567 FILLER_0_77_385
*5568 FILLER_0_77_391
*5569 FILLER_0_77_393
*5570 FILLER_0_77_405
*5571 FILLER_0_77_417
*5572 FILLER_0_77_42
*5573 FILLER_0_77_429
*5574 FILLER_0_77_441
*5575 FILLER_0_77_447
*5576 FILLER_0_77_469
*5577 FILLER_0_77_481
*5578 FILLER_0_77_493
*5579 FILLER_0_77_501
*5580 FILLER_0_77_505
*5581 FILLER_0_77_517
*5582 FILLER_0_77_529
*5583 FILLER_0_77_54
*5584 FILLER_0_77_541
*5585 FILLER_0_77_553
*5586 FILLER_0_77_559
*5587 FILLER_0_77_561
*5588 FILLER_0_77_57
*5589 FILLER_0_77_573
*5590 FILLER_0_77_585
*5591 FILLER_0_77_597
*5592 FILLER_0_77_609
*5593 FILLER_0_77_615
*5594 FILLER_0_77_617
*5595 FILLER_0_77_69
*5596 FILLER_0_77_81
*5597 FILLER_0_77_93
*5598 FILLER_0_78_109
*5599 FILLER_0_78_121
*5600 FILLER_0_78_133
*5601 FILLER_0_78_139
*5602 FILLER_0_78_141
*5603 FILLER_0_78_153
*5604 FILLER_0_78_165
*5605 FILLER_0_78_177
*5606 FILLER_0_78_189
*5607 FILLER_0_78_195
*5608 FILLER_0_78_197
*5609 FILLER_0_78_209
*5610 FILLER_0_78_221
*5611 FILLER_0_78_233
*5612 FILLER_0_78_245
*5613 FILLER_0_78_25
*5614 FILLER_0_78_251
*5615 FILLER_0_78_253
*5616 FILLER_0_78_265
*5617 FILLER_0_78_277
*5618 FILLER_0_78_289
*5619 FILLER_0_78_29
*5620 FILLER_0_78_3
*5621 FILLER_0_78_301
*5622 FILLER_0_78_307
*5623 FILLER_0_78_309
*5624 FILLER_0_78_321
*5625 FILLER_0_78_333
*5626 FILLER_0_78_345
*5627 FILLER_0_78_357
*5628 FILLER_0_78_363
*5629 FILLER_0_78_365
*5630 FILLER_0_78_377
*5631 FILLER_0_78_389
*5632 FILLER_0_78_401
*5633 FILLER_0_78_41
*5634 FILLER_0_78_413
*5635 FILLER_0_78_419
*5636 FILLER_0_78_421
*5637 FILLER_0_78_433
*5638 FILLER_0_78_445
*5639 FILLER_0_78_457
*5640 FILLER_0_78_469
*5641 FILLER_0_78_475
*5642 FILLER_0_78_477
*5643 FILLER_0_78_489
*5644 FILLER_0_78_501
*5645 FILLER_0_78_513
*5646 FILLER_0_78_525
*5647 FILLER_0_78_53
*5648 FILLER_0_78_531
*5649 FILLER_0_78_533
*5650 FILLER_0_78_545
*5651 FILLER_0_78_557
*5652 FILLER_0_78_569
*5653 FILLER_0_78_581
*5654 FILLER_0_78_587
*5655 FILLER_0_78_589
*5656 FILLER_0_78_601
*5657 FILLER_0_78_613
*5658 FILLER_0_78_65
*5659 FILLER_0_78_77
*5660 FILLER_0_78_83
*5661 FILLER_0_78_85
*5662 FILLER_0_78_97
*5663 FILLER_0_79_105
*5664 FILLER_0_79_111
*5665 FILLER_0_79_113
*5666 FILLER_0_79_125
*5667 FILLER_0_79_137
*5668 FILLER_0_79_149
*5669 FILLER_0_79_15
*5670 FILLER_0_79_161
*5671 FILLER_0_79_167
*5672 FILLER_0_79_169
*5673 FILLER_0_79_181
*5674 FILLER_0_79_193
*5675 FILLER_0_79_205
*5676 FILLER_0_79_217
*5677 FILLER_0_79_223
*5678 FILLER_0_79_225
*5679 FILLER_0_79_237
*5680 FILLER_0_79_249
*5681 FILLER_0_79_261
*5682 FILLER_0_79_27
*5683 FILLER_0_79_273
*5684 FILLER_0_79_279
*5685 FILLER_0_79_281
*5686 FILLER_0_79_293
*5687 FILLER_0_79_305
*5688 FILLER_0_79_317
*5689 FILLER_0_79_329
*5690 FILLER_0_79_335
*5691 FILLER_0_79_337
*5692 FILLER_0_79_349
*5693 FILLER_0_79_361
*5694 FILLER_0_79_373
*5695 FILLER_0_79_385
*5696 FILLER_0_79_39
*5697 FILLER_0_79_391
*5698 FILLER_0_79_393
*5699 FILLER_0_79_405
*5700 FILLER_0_79_417
*5701 FILLER_0_79_429
*5702 FILLER_0_79_441
*5703 FILLER_0_79_447
*5704 FILLER_0_79_449
*5705 FILLER_0_79_461
*5706 FILLER_0_79_473
*5707 FILLER_0_79_485
*5708 FILLER_0_79_497
*5709 FILLER_0_79_503
*5710 FILLER_0_79_505
*5711 FILLER_0_79_51
*5712 FILLER_0_79_517
*5713 FILLER_0_79_529
*5714 FILLER_0_79_541
*5715 FILLER_0_79_55
*5716 FILLER_0_79_553
*5717 FILLER_0_79_559
*5718 FILLER_0_79_561
*5719 FILLER_0_79_57
*5720 FILLER_0_79_573
*5721 FILLER_0_79_585
*5722 FILLER_0_79_597
*5723 FILLER_0_79_609
*5724 FILLER_0_79_615
*5725 FILLER_0_79_617
*5726 FILLER_0_79_69
*5727 FILLER_0_79_81
*5728 FILLER_0_79_9
*5729 FILLER_0_79_93
*5730 FILLER_0_7_105
*5731 FILLER_0_7_111
*5732 FILLER_0_7_113
*5733 FILLER_0_7_125
*5734 FILLER_0_7_137
*5735 FILLER_0_7_149
*5736 FILLER_0_7_161
*5737 FILLER_0_7_167
*5738 FILLER_0_7_169
*5739 FILLER_0_7_18
*5740 FILLER_0_7_181
*5741 FILLER_0_7_193
*5742 FILLER_0_7_205
*5743 FILLER_0_7_217
*5744 FILLER_0_7_223
*5745 FILLER_0_7_225
*5746 FILLER_0_7_237
*5747 FILLER_0_7_249
*5748 FILLER_0_7_261
*5749 FILLER_0_7_273
*5750 FILLER_0_7_279
*5751 FILLER_0_7_281
*5752 FILLER_0_7_293
*5753 FILLER_0_7_30
*5754 FILLER_0_7_305
*5755 FILLER_0_7_317
*5756 FILLER_0_7_329
*5757 FILLER_0_7_335
*5758 FILLER_0_7_337
*5759 FILLER_0_7_349
*5760 FILLER_0_7_361
*5761 FILLER_0_7_373
*5762 FILLER_0_7_385
*5763 FILLER_0_7_391
*5764 FILLER_0_7_393
*5765 FILLER_0_7_405
*5766 FILLER_0_7_409
*5767 FILLER_0_7_42
*5768 FILLER_0_7_433
*5769 FILLER_0_7_445
*5770 FILLER_0_7_449
*5771 FILLER_0_7_461
*5772 FILLER_0_7_473
*5773 FILLER_0_7_485
*5774 FILLER_0_7_497
*5775 FILLER_0_7_503
*5776 FILLER_0_7_505
*5777 FILLER_0_7_517
*5778 FILLER_0_7_529
*5779 FILLER_0_7_54
*5780 FILLER_0_7_541
*5781 FILLER_0_7_553
*5782 FILLER_0_7_559
*5783 FILLER_0_7_561
*5784 FILLER_0_7_57
*5785 FILLER_0_7_573
*5786 FILLER_0_7_585
*5787 FILLER_0_7_597
*5788 FILLER_0_7_6
*5789 FILLER_0_7_609
*5790 FILLER_0_7_615
*5791 FILLER_0_7_617
*5792 FILLER_0_7_69
*5793 FILLER_0_7_81
*5794 FILLER_0_7_93
*5795 FILLER_0_80_109
*5796 FILLER_0_80_121
*5797 FILLER_0_80_133
*5798 FILLER_0_80_139
*5799 FILLER_0_80_141
*5800 FILLER_0_80_15
*5801 FILLER_0_80_153
*5802 FILLER_0_80_165
*5803 FILLER_0_80_177
*5804 FILLER_0_80_189
*5805 FILLER_0_80_195
*5806 FILLER_0_80_197
*5807 FILLER_0_80_209
*5808 FILLER_0_80_221
*5809 FILLER_0_80_233
*5810 FILLER_0_80_245
*5811 FILLER_0_80_251
*5812 FILLER_0_80_253
*5813 FILLER_0_80_265
*5814 FILLER_0_80_27
*5815 FILLER_0_80_277
*5816 FILLER_0_80_289
*5817 FILLER_0_80_29
*5818 FILLER_0_80_3
*5819 FILLER_0_80_301
*5820 FILLER_0_80_305
*5821 FILLER_0_80_309
*5822 FILLER_0_80_321
*5823 FILLER_0_80_333
*5824 FILLER_0_80_345
*5825 FILLER_0_80_357
*5826 FILLER_0_80_363
*5827 FILLER_0_80_365
*5828 FILLER_0_80_377
*5829 FILLER_0_80_389
*5830 FILLER_0_80_401
*5831 FILLER_0_80_41
*5832 FILLER_0_80_413
*5833 FILLER_0_80_419
*5834 FILLER_0_80_421
*5835 FILLER_0_80_433
*5836 FILLER_0_80_445
*5837 FILLER_0_80_457
*5838 FILLER_0_80_469
*5839 FILLER_0_80_475
*5840 FILLER_0_80_477
*5841 FILLER_0_80_489
*5842 FILLER_0_80_501
*5843 FILLER_0_80_513
*5844 FILLER_0_80_525
*5845 FILLER_0_80_53
*5846 FILLER_0_80_531
*5847 FILLER_0_80_533
*5848 FILLER_0_80_545
*5849 FILLER_0_80_557
*5850 FILLER_0_80_569
*5851 FILLER_0_80_581
*5852 FILLER_0_80_587
*5853 FILLER_0_80_589
*5854 FILLER_0_80_601
*5855 FILLER_0_80_613
*5856 FILLER_0_80_65
*5857 FILLER_0_80_77
*5858 FILLER_0_80_83
*5859 FILLER_0_80_85
*5860 FILLER_0_80_97
*5861 FILLER_0_81_105
*5862 FILLER_0_81_111
*5863 FILLER_0_81_113
*5864 FILLER_0_81_125
*5865 FILLER_0_81_137
*5866 FILLER_0_81_149
*5867 FILLER_0_81_161
*5868 FILLER_0_81_167
*5869 FILLER_0_81_169
*5870 FILLER_0_81_181
*5871 FILLER_0_81_193
*5872 FILLER_0_81_205
*5873 FILLER_0_81_21
*5874 FILLER_0_81_217
*5875 FILLER_0_81_223
*5876 FILLER_0_81_225
*5877 FILLER_0_81_237
*5878 FILLER_0_81_249
*5879 FILLER_0_81_261
*5880 FILLER_0_81_273
*5881 FILLER_0_81_279
*5882 FILLER_0_81_281
*5883 FILLER_0_81_293
*5884 FILLER_0_81_305
*5885 FILLER_0_81_312
*5886 FILLER_0_81_324
*5887 FILLER_0_81_33
*5888 FILLER_0_81_337
*5889 FILLER_0_81_349
*5890 FILLER_0_81_361
*5891 FILLER_0_81_373
*5892 FILLER_0_81_385
*5893 FILLER_0_81_391
*5894 FILLER_0_81_393
*5895 FILLER_0_81_405
*5896 FILLER_0_81_417
*5897 FILLER_0_81_429
*5898 FILLER_0_81_441
*5899 FILLER_0_81_447
*5900 FILLER_0_81_449
*5901 FILLER_0_81_45
*5902 FILLER_0_81_461
*5903 FILLER_0_81_473
*5904 FILLER_0_81_485
*5905 FILLER_0_81_497
*5906 FILLER_0_81_503
*5907 FILLER_0_81_505
*5908 FILLER_0_81_517
*5909 FILLER_0_81_529
*5910 FILLER_0_81_53
*5911 FILLER_0_81_541
*5912 FILLER_0_81_553
*5913 FILLER_0_81_559
*5914 FILLER_0_81_561
*5915 FILLER_0_81_57
*5916 FILLER_0_81_573
*5917 FILLER_0_81_585
*5918 FILLER_0_81_597
*5919 FILLER_0_81_609
*5920 FILLER_0_81_615
*5921 FILLER_0_81_617
*5922 FILLER_0_81_621
*5923 FILLER_0_81_69
*5924 FILLER_0_81_81
*5925 FILLER_0_81_9
*5926 FILLER_0_81_93
*5927 FILLER_0_82_109
*5928 FILLER_0_82_121
*5929 FILLER_0_82_133
*5930 FILLER_0_82_139
*5931 FILLER_0_82_141
*5932 FILLER_0_82_15
*5933 FILLER_0_82_153
*5934 FILLER_0_82_165
*5935 FILLER_0_82_177
*5936 FILLER_0_82_189
*5937 FILLER_0_82_195
*5938 FILLER_0_82_197
*5939 FILLER_0_82_209
*5940 FILLER_0_82_221
*5941 FILLER_0_82_233
*5942 FILLER_0_82_245
*5943 FILLER_0_82_251
*5944 FILLER_0_82_253
*5945 FILLER_0_82_265
*5946 FILLER_0_82_27
*5947 FILLER_0_82_277
*5948 FILLER_0_82_289
*5949 FILLER_0_82_29
*5950 FILLER_0_82_3
*5951 FILLER_0_82_301
*5952 FILLER_0_82_307
*5953 FILLER_0_82_309
*5954 FILLER_0_82_321
*5955 FILLER_0_82_333
*5956 FILLER_0_82_345
*5957 FILLER_0_82_357
*5958 FILLER_0_82_363
*5959 FILLER_0_82_365
*5960 FILLER_0_82_377
*5961 FILLER_0_82_383
*5962 FILLER_0_82_404
*5963 FILLER_0_82_41
*5964 FILLER_0_82_416
*5965 FILLER_0_82_421
*5966 FILLER_0_82_433
*5967 FILLER_0_82_445
*5968 FILLER_0_82_457
*5969 FILLER_0_82_469
*5970 FILLER_0_82_475
*5971 FILLER_0_82_477
*5972 FILLER_0_82_489
*5973 FILLER_0_82_501
*5974 FILLER_0_82_513
*5975 FILLER_0_82_525
*5976 FILLER_0_82_53
*5977 FILLER_0_82_531
*5978 FILLER_0_82_533
*5979 FILLER_0_82_545
*5980 FILLER_0_82_557
*5981 FILLER_0_82_569
*5982 FILLER_0_82_581
*5983 FILLER_0_82_587
*5984 FILLER_0_82_589
*5985 FILLER_0_82_601
*5986 FILLER_0_82_613
*5987 FILLER_0_82_65
*5988 FILLER_0_82_77
*5989 FILLER_0_82_83
*5990 FILLER_0_82_85
*5991 FILLER_0_82_97
*5992 FILLER_0_83_105
*5993 FILLER_0_83_111
*5994 FILLER_0_83_113
*5995 FILLER_0_83_125
*5996 FILLER_0_83_137
*5997 FILLER_0_83_149
*5998 FILLER_0_83_15
*5999 FILLER_0_83_161
*6000 FILLER_0_83_167
*6001 FILLER_0_83_169
*6002 FILLER_0_83_181
*6003 FILLER_0_83_193
*6004 FILLER_0_83_205
*6005 FILLER_0_83_217
*6006 FILLER_0_83_223
*6007 FILLER_0_83_225
*6008 FILLER_0_83_237
*6009 FILLER_0_83_249
*6010 FILLER_0_83_261
*6011 FILLER_0_83_27
*6012 FILLER_0_83_273
*6013 FILLER_0_83_279
*6014 FILLER_0_83_281
*6015 FILLER_0_83_293
*6016 FILLER_0_83_3
*6017 FILLER_0_83_305
*6018 FILLER_0_83_317
*6019 FILLER_0_83_329
*6020 FILLER_0_83_335
*6021 FILLER_0_83_337
*6022 FILLER_0_83_349
*6023 FILLER_0_83_361
*6024 FILLER_0_83_373
*6025 FILLER_0_83_385
*6026 FILLER_0_83_39
*6027 FILLER_0_83_391
*6028 FILLER_0_83_393
*6029 FILLER_0_83_405
*6030 FILLER_0_83_417
*6031 FILLER_0_83_429
*6032 FILLER_0_83_441
*6033 FILLER_0_83_447
*6034 FILLER_0_83_449
*6035 FILLER_0_83_461
*6036 FILLER_0_83_473
*6037 FILLER_0_83_485
*6038 FILLER_0_83_497
*6039 FILLER_0_83_503
*6040 FILLER_0_83_505
*6041 FILLER_0_83_51
*6042 FILLER_0_83_517
*6043 FILLER_0_83_529
*6044 FILLER_0_83_541
*6045 FILLER_0_83_55
*6046 FILLER_0_83_553
*6047 FILLER_0_83_559
*6048 FILLER_0_83_561
*6049 FILLER_0_83_57
*6050 FILLER_0_83_573
*6051 FILLER_0_83_585
*6052 FILLER_0_83_597
*6053 FILLER_0_83_609
*6054 FILLER_0_83_615
*6055 FILLER_0_83_617
*6056 FILLER_0_83_69
*6057 FILLER_0_83_81
*6058 FILLER_0_83_93
*6059 FILLER_0_84_109
*6060 FILLER_0_84_121
*6061 FILLER_0_84_133
*6062 FILLER_0_84_139
*6063 FILLER_0_84_141
*6064 FILLER_0_84_153
*6065 FILLER_0_84_165
*6066 FILLER_0_84_177
*6067 FILLER_0_84_189
*6068 FILLER_0_84_195
*6069 FILLER_0_84_197
*6070 FILLER_0_84_209
*6071 FILLER_0_84_21
*6072 FILLER_0_84_221
*6073 FILLER_0_84_233
*6074 FILLER_0_84_245
*6075 FILLER_0_84_251
*6076 FILLER_0_84_253
*6077 FILLER_0_84_265
*6078 FILLER_0_84_27
*6079 FILLER_0_84_277
*6080 FILLER_0_84_289
*6081 FILLER_0_84_29
*6082 FILLER_0_84_301
*6083 FILLER_0_84_307
*6084 FILLER_0_84_309
*6085 FILLER_0_84_321
*6086 FILLER_0_84_333
*6087 FILLER_0_84_345
*6088 FILLER_0_84_357
*6089 FILLER_0_84_363
*6090 FILLER_0_84_365
*6091 FILLER_0_84_377
*6092 FILLER_0_84_389
*6093 FILLER_0_84_401
*6094 FILLER_0_84_41
*6095 FILLER_0_84_413
*6096 FILLER_0_84_419
*6097 FILLER_0_84_421
*6098 FILLER_0_84_433
*6099 FILLER_0_84_445
*6100 FILLER_0_84_457
*6101 FILLER_0_84_469
*6102 FILLER_0_84_475
*6103 FILLER_0_84_477
*6104 FILLER_0_84_489
*6105 FILLER_0_84_501
*6106 FILLER_0_84_513
*6107 FILLER_0_84_525
*6108 FILLER_0_84_53
*6109 FILLER_0_84_531
*6110 FILLER_0_84_533
*6111 FILLER_0_84_545
*6112 FILLER_0_84_557
*6113 FILLER_0_84_569
*6114 FILLER_0_84_581
*6115 FILLER_0_84_587
*6116 FILLER_0_84_589
*6117 FILLER_0_84_601
*6118 FILLER_0_84_613
*6119 FILLER_0_84_619
*6120 FILLER_0_84_65
*6121 FILLER_0_84_77
*6122 FILLER_0_84_83
*6123 FILLER_0_84_85
*6124 FILLER_0_84_9
*6125 FILLER_0_84_97
*6126 FILLER_0_85_105
*6127 FILLER_0_85_111
*6128 FILLER_0_85_113
*6129 FILLER_0_85_125
*6130 FILLER_0_85_137
*6131 FILLER_0_85_149
*6132 FILLER_0_85_15
*6133 FILLER_0_85_161
*6134 FILLER_0_85_167
*6135 FILLER_0_85_169
*6136 FILLER_0_85_181
*6137 FILLER_0_85_193
*6138 FILLER_0_85_205
*6139 FILLER_0_85_217
*6140 FILLER_0_85_223
*6141 FILLER_0_85_225
*6142 FILLER_0_85_237
*6143 FILLER_0_85_249
*6144 FILLER_0_85_261
*6145 FILLER_0_85_27
*6146 FILLER_0_85_273
*6147 FILLER_0_85_279
*6148 FILLER_0_85_281
*6149 FILLER_0_85_293
*6150 FILLER_0_85_3
*6151 FILLER_0_85_305
*6152 FILLER_0_85_317
*6153 FILLER_0_85_329
*6154 FILLER_0_85_335
*6155 FILLER_0_85_337
*6156 FILLER_0_85_349
*6157 FILLER_0_85_361
*6158 FILLER_0_85_373
*6159 FILLER_0_85_385
*6160 FILLER_0_85_39
*6161 FILLER_0_85_391
*6162 FILLER_0_85_393
*6163 FILLER_0_85_405
*6164 FILLER_0_85_417
*6165 FILLER_0_85_429
*6166 FILLER_0_85_441
*6167 FILLER_0_85_447
*6168 FILLER_0_85_449
*6169 FILLER_0_85_461
*6170 FILLER_0_85_473
*6171 FILLER_0_85_485
*6172 FILLER_0_85_497
*6173 FILLER_0_85_503
*6174 FILLER_0_85_505
*6175 FILLER_0_85_51
*6176 FILLER_0_85_517
*6177 FILLER_0_85_529
*6178 FILLER_0_85_541
*6179 FILLER_0_85_55
*6180 FILLER_0_85_553
*6181 FILLER_0_85_559
*6182 FILLER_0_85_561
*6183 FILLER_0_85_57
*6184 FILLER_0_85_573
*6185 FILLER_0_85_585
*6186 FILLER_0_85_597
*6187 FILLER_0_85_609
*6188 FILLER_0_85_615
*6189 FILLER_0_85_617
*6190 FILLER_0_85_69
*6191 FILLER_0_85_81
*6192 FILLER_0_85_93
*6193 FILLER_0_86_109
*6194 FILLER_0_86_121
*6195 FILLER_0_86_133
*6196 FILLER_0_86_139
*6197 FILLER_0_86_141
*6198 FILLER_0_86_153
*6199 FILLER_0_86_165
*6200 FILLER_0_86_177
*6201 FILLER_0_86_189
*6202 FILLER_0_86_195
*6203 FILLER_0_86_197
*6204 FILLER_0_86_209
*6205 FILLER_0_86_21
*6206 FILLER_0_86_221
*6207 FILLER_0_86_233
*6208 FILLER_0_86_245
*6209 FILLER_0_86_251
*6210 FILLER_0_86_253
*6211 FILLER_0_86_265
*6212 FILLER_0_86_27
*6213 FILLER_0_86_277
*6214 FILLER_0_86_289
*6215 FILLER_0_86_29
*6216 FILLER_0_86_301
*6217 FILLER_0_86_307
*6218 FILLER_0_86_309
*6219 FILLER_0_86_321
*6220 FILLER_0_86_333
*6221 FILLER_0_86_345
*6222 FILLER_0_86_357
*6223 FILLER_0_86_363
*6224 FILLER_0_86_365
*6225 FILLER_0_86_377
*6226 FILLER_0_86_389
*6227 FILLER_0_86_401
*6228 FILLER_0_86_41
*6229 FILLER_0_86_413
*6230 FILLER_0_86_419
*6231 FILLER_0_86_421
*6232 FILLER_0_86_433
*6233 FILLER_0_86_445
*6234 FILLER_0_86_457
*6235 FILLER_0_86_469
*6236 FILLER_0_86_475
*6237 FILLER_0_86_477
*6238 FILLER_0_86_489
*6239 FILLER_0_86_501
*6240 FILLER_0_86_513
*6241 FILLER_0_86_525
*6242 FILLER_0_86_53
*6243 FILLER_0_86_531
*6244 FILLER_0_86_533
*6245 FILLER_0_86_545
*6246 FILLER_0_86_557
*6247 FILLER_0_86_569
*6248 FILLER_0_86_581
*6249 FILLER_0_86_587
*6250 FILLER_0_86_589
*6251 FILLER_0_86_601
*6252 FILLER_0_86_613
*6253 FILLER_0_86_65
*6254 FILLER_0_86_77
*6255 FILLER_0_86_83
*6256 FILLER_0_86_85
*6257 FILLER_0_86_9
*6258 FILLER_0_86_97
*6259 FILLER_0_87_105
*6260 FILLER_0_87_111
*6261 FILLER_0_87_113
*6262 FILLER_0_87_125
*6263 FILLER_0_87_137
*6264 FILLER_0_87_149
*6265 FILLER_0_87_161
*6266 FILLER_0_87_167
*6267 FILLER_0_87_169
*6268 FILLER_0_87_181
*6269 FILLER_0_87_193
*6270 FILLER_0_87_205
*6271 FILLER_0_87_21
*6272 FILLER_0_87_217
*6273 FILLER_0_87_223
*6274 FILLER_0_87_225
*6275 FILLER_0_87_237
*6276 FILLER_0_87_249
*6277 FILLER_0_87_261
*6278 FILLER_0_87_273
*6279 FILLER_0_87_279
*6280 FILLER_0_87_281
*6281 FILLER_0_87_293
*6282 FILLER_0_87_305
*6283 FILLER_0_87_317
*6284 FILLER_0_87_329
*6285 FILLER_0_87_33
*6286 FILLER_0_87_335
*6287 FILLER_0_87_337
*6288 FILLER_0_87_349
*6289 FILLER_0_87_361
*6290 FILLER_0_87_373
*6291 FILLER_0_87_385
*6292 FILLER_0_87_391
*6293 FILLER_0_87_393
*6294 FILLER_0_87_405
*6295 FILLER_0_87_417
*6296 FILLER_0_87_429
*6297 FILLER_0_87_441
*6298 FILLER_0_87_447
*6299 FILLER_0_87_449
*6300 FILLER_0_87_45
*6301 FILLER_0_87_461
*6302 FILLER_0_87_473
*6303 FILLER_0_87_485
*6304 FILLER_0_87_497
*6305 FILLER_0_87_503
*6306 FILLER_0_87_505
*6307 FILLER_0_87_517
*6308 FILLER_0_87_529
*6309 FILLER_0_87_53
*6310 FILLER_0_87_541
*6311 FILLER_0_87_553
*6312 FILLER_0_87_559
*6313 FILLER_0_87_561
*6314 FILLER_0_87_57
*6315 FILLER_0_87_573
*6316 FILLER_0_87_585
*6317 FILLER_0_87_597
*6318 FILLER_0_87_609
*6319 FILLER_0_87_615
*6320 FILLER_0_87_617
*6321 FILLER_0_87_69
*6322 FILLER_0_87_81
*6323 FILLER_0_87_9
*6324 FILLER_0_87_93
*6325 FILLER_0_88_109
*6326 FILLER_0_88_121
*6327 FILLER_0_88_133
*6328 FILLER_0_88_139
*6329 FILLER_0_88_141
*6330 FILLER_0_88_15
*6331 FILLER_0_88_153
*6332 FILLER_0_88_165
*6333 FILLER_0_88_177
*6334 FILLER_0_88_189
*6335 FILLER_0_88_195
*6336 FILLER_0_88_197
*6337 FILLER_0_88_209
*6338 FILLER_0_88_221
*6339 FILLER_0_88_233
*6340 FILLER_0_88_245
*6341 FILLER_0_88_251
*6342 FILLER_0_88_253
*6343 FILLER_0_88_265
*6344 FILLER_0_88_27
*6345 FILLER_0_88_277
*6346 FILLER_0_88_289
*6347 FILLER_0_88_29
*6348 FILLER_0_88_3
*6349 FILLER_0_88_301
*6350 FILLER_0_88_307
*6351 FILLER_0_88_309
*6352 FILLER_0_88_321
*6353 FILLER_0_88_333
*6354 FILLER_0_88_345
*6355 FILLER_0_88_357
*6356 FILLER_0_88_363
*6357 FILLER_0_88_365
*6358 FILLER_0_88_377
*6359 FILLER_0_88_389
*6360 FILLER_0_88_401
*6361 FILLER_0_88_41
*6362 FILLER_0_88_413
*6363 FILLER_0_88_419
*6364 FILLER_0_88_421
*6365 FILLER_0_88_433
*6366 FILLER_0_88_445
*6367 FILLER_0_88_457
*6368 FILLER_0_88_469
*6369 FILLER_0_88_475
*6370 FILLER_0_88_477
*6371 FILLER_0_88_489
*6372 FILLER_0_88_501
*6373 FILLER_0_88_513
*6374 FILLER_0_88_525
*6375 FILLER_0_88_53
*6376 FILLER_0_88_531
*6377 FILLER_0_88_533
*6378 FILLER_0_88_545
*6379 FILLER_0_88_557
*6380 FILLER_0_88_569
*6381 FILLER_0_88_581
*6382 FILLER_0_88_587
*6383 FILLER_0_88_589
*6384 FILLER_0_88_601
*6385 FILLER_0_88_613
*6386 FILLER_0_88_65
*6387 FILLER_0_88_77
*6388 FILLER_0_88_83
*6389 FILLER_0_88_85
*6390 FILLER_0_88_97
*6391 FILLER_0_89_105
*6392 FILLER_0_89_111
*6393 FILLER_0_89_113
*6394 FILLER_0_89_125
*6395 FILLER_0_89_137
*6396 FILLER_0_89_149
*6397 FILLER_0_89_15
*6398 FILLER_0_89_161
*6399 FILLER_0_89_167
*6400 FILLER_0_89_169
*6401 FILLER_0_89_181
*6402 FILLER_0_89_193
*6403 FILLER_0_89_205
*6404 FILLER_0_89_217
*6405 FILLER_0_89_223
*6406 FILLER_0_89_225
*6407 FILLER_0_89_237
*6408 FILLER_0_89_249
*6409 FILLER_0_89_261
*6410 FILLER_0_89_27
*6411 FILLER_0_89_273
*6412 FILLER_0_89_279
*6413 FILLER_0_89_281
*6414 FILLER_0_89_293
*6415 FILLER_0_89_3
*6416 FILLER_0_89_305
*6417 FILLER_0_89_317
*6418 FILLER_0_89_329
*6419 FILLER_0_89_335
*6420 FILLER_0_89_337
*6421 FILLER_0_89_349
*6422 FILLER_0_89_361
*6423 FILLER_0_89_373
*6424 FILLER_0_89_385
*6425 FILLER_0_89_39
*6426 FILLER_0_89_391
*6427 FILLER_0_89_393
*6428 FILLER_0_89_405
*6429 FILLER_0_89_417
*6430 FILLER_0_89_429
*6431 FILLER_0_89_441
*6432 FILLER_0_89_447
*6433 FILLER_0_89_449
*6434 FILLER_0_89_461
*6435 FILLER_0_89_473
*6436 FILLER_0_89_485
*6437 FILLER_0_89_497
*6438 FILLER_0_89_503
*6439 FILLER_0_89_505
*6440 FILLER_0_89_51
*6441 FILLER_0_89_517
*6442 FILLER_0_89_529
*6443 FILLER_0_89_541
*6444 FILLER_0_89_55
*6445 FILLER_0_89_553
*6446 FILLER_0_89_559
*6447 FILLER_0_89_561
*6448 FILLER_0_89_57
*6449 FILLER_0_89_573
*6450 FILLER_0_89_585
*6451 FILLER_0_89_597
*6452 FILLER_0_89_609
*6453 FILLER_0_89_615
*6454 FILLER_0_89_617
*6455 FILLER_0_89_69
*6456 FILLER_0_89_81
*6457 FILLER_0_89_93
*6458 FILLER_0_8_109
*6459 FILLER_0_8_121
*6460 FILLER_0_8_133
*6461 FILLER_0_8_139
*6462 FILLER_0_8_141
*6463 FILLER_0_8_15
*6464 FILLER_0_8_153
*6465 FILLER_0_8_165
*6466 FILLER_0_8_177
*6467 FILLER_0_8_189
*6468 FILLER_0_8_195
*6469 FILLER_0_8_197
*6470 FILLER_0_8_209
*6471 FILLER_0_8_221
*6472 FILLER_0_8_233
*6473 FILLER_0_8_245
*6474 FILLER_0_8_251
*6475 FILLER_0_8_253
*6476 FILLER_0_8_265
*6477 FILLER_0_8_27
*6478 FILLER_0_8_277
*6479 FILLER_0_8_289
*6480 FILLER_0_8_29
*6481 FILLER_0_8_3
*6482 FILLER_0_8_301
*6483 FILLER_0_8_307
*6484 FILLER_0_8_309
*6485 FILLER_0_8_321
*6486 FILLER_0_8_333
*6487 FILLER_0_8_345
*6488 FILLER_0_8_357
*6489 FILLER_0_8_363
*6490 FILLER_0_8_365
*6491 FILLER_0_8_377
*6492 FILLER_0_8_389
*6493 FILLER_0_8_401
*6494 FILLER_0_8_41
*6495 FILLER_0_8_413
*6496 FILLER_0_8_419
*6497 FILLER_0_8_421
*6498 FILLER_0_8_433
*6499 FILLER_0_8_445
*6500 FILLER_0_8_457
*6501 FILLER_0_8_469
*6502 FILLER_0_8_475
*6503 FILLER_0_8_477
*6504 FILLER_0_8_489
*6505 FILLER_0_8_501
*6506 FILLER_0_8_513
*6507 FILLER_0_8_525
*6508 FILLER_0_8_53
*6509 FILLER_0_8_531
*6510 FILLER_0_8_533
*6511 FILLER_0_8_545
*6512 FILLER_0_8_557
*6513 FILLER_0_8_569
*6514 FILLER_0_8_581
*6515 FILLER_0_8_587
*6516 FILLER_0_8_589
*6517 FILLER_0_8_601
*6518 FILLER_0_8_613
*6519 FILLER_0_8_65
*6520 FILLER_0_8_77
*6521 FILLER_0_8_83
*6522 FILLER_0_8_85
*6523 FILLER_0_8_97
*6524 FILLER_0_90_109
*6525 FILLER_0_90_121
*6526 FILLER_0_90_133
*6527 FILLER_0_90_139
*6528 FILLER_0_90_141
*6529 FILLER_0_90_153
*6530 FILLER_0_90_165
*6531 FILLER_0_90_177
*6532 FILLER_0_90_189
*6533 FILLER_0_90_195
*6534 FILLER_0_90_197
*6535 FILLER_0_90_209
*6536 FILLER_0_90_21
*6537 FILLER_0_90_221
*6538 FILLER_0_90_233
*6539 FILLER_0_90_245
*6540 FILLER_0_90_251
*6541 FILLER_0_90_253
*6542 FILLER_0_90_265
*6543 FILLER_0_90_27
*6544 FILLER_0_90_277
*6545 FILLER_0_90_289
*6546 FILLER_0_90_29
*6547 FILLER_0_90_301
*6548 FILLER_0_90_307
*6549 FILLER_0_90_309
*6550 FILLER_0_90_321
*6551 FILLER_0_90_333
*6552 FILLER_0_90_345
*6553 FILLER_0_90_357
*6554 FILLER_0_90_363
*6555 FILLER_0_90_365
*6556 FILLER_0_90_377
*6557 FILLER_0_90_389
*6558 FILLER_0_90_401
*6559 FILLER_0_90_41
*6560 FILLER_0_90_413
*6561 FILLER_0_90_419
*6562 FILLER_0_90_421
*6563 FILLER_0_90_433
*6564 FILLER_0_90_445
*6565 FILLER_0_90_457
*6566 FILLER_0_90_469
*6567 FILLER_0_90_475
*6568 FILLER_0_90_477
*6569 FILLER_0_90_489
*6570 FILLER_0_90_501
*6571 FILLER_0_90_513
*6572 FILLER_0_90_525
*6573 FILLER_0_90_53
*6574 FILLER_0_90_531
*6575 FILLER_0_90_533
*6576 FILLER_0_90_545
*6577 FILLER_0_90_557
*6578 FILLER_0_90_569
*6579 FILLER_0_90_581
*6580 FILLER_0_90_587
*6581 FILLER_0_90_589
*6582 FILLER_0_90_601
*6583 FILLER_0_90_613
*6584 FILLER_0_90_65
*6585 FILLER_0_90_77
*6586 FILLER_0_90_83
*6587 FILLER_0_90_85
*6588 FILLER_0_90_9
*6589 FILLER_0_90_97
*6590 FILLER_0_91_105
*6591 FILLER_0_91_111
*6592 FILLER_0_91_113
*6593 FILLER_0_91_125
*6594 FILLER_0_91_137
*6595 FILLER_0_91_149
*6596 FILLER_0_91_15
*6597 FILLER_0_91_161
*6598 FILLER_0_91_167
*6599 FILLER_0_91_169
*6600 FILLER_0_91_181
*6601 FILLER_0_91_193
*6602 FILLER_0_91_205
*6603 FILLER_0_91_217
*6604 FILLER_0_91_223
*6605 FILLER_0_91_225
*6606 FILLER_0_91_237
*6607 FILLER_0_91_249
*6608 FILLER_0_91_261
*6609 FILLER_0_91_27
*6610 FILLER_0_91_273
*6611 FILLER_0_91_279
*6612 FILLER_0_91_281
*6613 FILLER_0_91_293
*6614 FILLER_0_91_3
*6615 FILLER_0_91_305
*6616 FILLER_0_91_317
*6617 FILLER_0_91_329
*6618 FILLER_0_91_335
*6619 FILLER_0_91_337
*6620 FILLER_0_91_349
*6621 FILLER_0_91_361
*6622 FILLER_0_91_373
*6623 FILLER_0_91_385
*6624 FILLER_0_91_39
*6625 FILLER_0_91_391
*6626 FILLER_0_91_393
*6627 FILLER_0_91_405
*6628 FILLER_0_91_417
*6629 FILLER_0_91_429
*6630 FILLER_0_91_441
*6631 FILLER_0_91_447
*6632 FILLER_0_91_449
*6633 FILLER_0_91_461
*6634 FILLER_0_91_473
*6635 FILLER_0_91_485
*6636 FILLER_0_91_497
*6637 FILLER_0_91_503
*6638 FILLER_0_91_505
*6639 FILLER_0_91_51
*6640 FILLER_0_91_517
*6641 FILLER_0_91_529
*6642 FILLER_0_91_541
*6643 FILLER_0_91_55
*6644 FILLER_0_91_553
*6645 FILLER_0_91_559
*6646 FILLER_0_91_561
*6647 FILLER_0_91_57
*6648 FILLER_0_91_573
*6649 FILLER_0_91_585
*6650 FILLER_0_91_597
*6651 FILLER_0_91_609
*6652 FILLER_0_91_615
*6653 FILLER_0_91_617
*6654 FILLER_0_91_69
*6655 FILLER_0_91_81
*6656 FILLER_0_91_93
*6657 FILLER_0_92_109
*6658 FILLER_0_92_121
*6659 FILLER_0_92_133
*6660 FILLER_0_92_139
*6661 FILLER_0_92_141
*6662 FILLER_0_92_153
*6663 FILLER_0_92_165
*6664 FILLER_0_92_177
*6665 FILLER_0_92_189
*6666 FILLER_0_92_195
*6667 FILLER_0_92_197
*6668 FILLER_0_92_209
*6669 FILLER_0_92_21
*6670 FILLER_0_92_221
*6671 FILLER_0_92_233
*6672 FILLER_0_92_245
*6673 FILLER_0_92_251
*6674 FILLER_0_92_253
*6675 FILLER_0_92_265
*6676 FILLER_0_92_27
*6677 FILLER_0_92_277
*6678 FILLER_0_92_289
*6679 FILLER_0_92_29
*6680 FILLER_0_92_301
*6681 FILLER_0_92_307
*6682 FILLER_0_92_309
*6683 FILLER_0_92_321
*6684 FILLER_0_92_333
*6685 FILLER_0_92_345
*6686 FILLER_0_92_357
*6687 FILLER_0_92_363
*6688 FILLER_0_92_365
*6689 FILLER_0_92_377
*6690 FILLER_0_92_389
*6691 FILLER_0_92_401
*6692 FILLER_0_92_41
*6693 FILLER_0_92_413
*6694 FILLER_0_92_419
*6695 FILLER_0_92_421
*6696 FILLER_0_92_433
*6697 FILLER_0_92_445
*6698 FILLER_0_92_457
*6699 FILLER_0_92_469
*6700 FILLER_0_92_475
*6701 FILLER_0_92_477
*6702 FILLER_0_92_489
*6703 FILLER_0_92_501
*6704 FILLER_0_92_513
*6705 FILLER_0_92_525
*6706 FILLER_0_92_53
*6707 FILLER_0_92_531
*6708 FILLER_0_92_533
*6709 FILLER_0_92_545
*6710 FILLER_0_92_557
*6711 FILLER_0_92_569
*6712 FILLER_0_92_581
*6713 FILLER_0_92_587
*6714 FILLER_0_92_589
*6715 FILLER_0_92_601
*6716 FILLER_0_92_613
*6717 FILLER_0_92_65
*6718 FILLER_0_92_77
*6719 FILLER_0_92_83
*6720 FILLER_0_92_85
*6721 FILLER_0_92_9
*6722 FILLER_0_92_97
*6723 FILLER_0_93_105
*6724 FILLER_0_93_111
*6725 FILLER_0_93_113
*6726 FILLER_0_93_125
*6727 FILLER_0_93_137
*6728 FILLER_0_93_149
*6729 FILLER_0_93_15
*6730 FILLER_0_93_161
*6731 FILLER_0_93_167
*6732 FILLER_0_93_169
*6733 FILLER_0_93_181
*6734 FILLER_0_93_193
*6735 FILLER_0_93_205
*6736 FILLER_0_93_217
*6737 FILLER_0_93_223
*6738 FILLER_0_93_225
*6739 FILLER_0_93_237
*6740 FILLER_0_93_249
*6741 FILLER_0_93_261
*6742 FILLER_0_93_27
*6743 FILLER_0_93_273
*6744 FILLER_0_93_279
*6745 FILLER_0_93_281
*6746 FILLER_0_93_293
*6747 FILLER_0_93_3
*6748 FILLER_0_93_305
*6749 FILLER_0_93_317
*6750 FILLER_0_93_329
*6751 FILLER_0_93_335
*6752 FILLER_0_93_337
*6753 FILLER_0_93_349
*6754 FILLER_0_93_361
*6755 FILLER_0_93_373
*6756 FILLER_0_93_385
*6757 FILLER_0_93_39
*6758 FILLER_0_93_391
*6759 FILLER_0_93_393
*6760 FILLER_0_93_405
*6761 FILLER_0_93_417
*6762 FILLER_0_93_429
*6763 FILLER_0_93_441
*6764 FILLER_0_93_447
*6765 FILLER_0_93_449
*6766 FILLER_0_93_461
*6767 FILLER_0_93_473
*6768 FILLER_0_93_485
*6769 FILLER_0_93_497
*6770 FILLER_0_93_503
*6771 FILLER_0_93_505
*6772 FILLER_0_93_51
*6773 FILLER_0_93_517
*6774 FILLER_0_93_529
*6775 FILLER_0_93_541
*6776 FILLER_0_93_55
*6777 FILLER_0_93_553
*6778 FILLER_0_93_559
*6779 FILLER_0_93_561
*6780 FILLER_0_93_57
*6781 FILLER_0_93_573
*6782 FILLER_0_93_585
*6783 FILLER_0_93_597
*6784 FILLER_0_93_609
*6785 FILLER_0_93_615
*6786 FILLER_0_93_617
*6787 FILLER_0_93_69
*6788 FILLER_0_93_81
*6789 FILLER_0_93_93
*6790 FILLER_0_94_109
*6791 FILLER_0_94_121
*6792 FILLER_0_94_133
*6793 FILLER_0_94_139
*6794 FILLER_0_94_141
*6795 FILLER_0_94_15
*6796 FILLER_0_94_153
*6797 FILLER_0_94_165
*6798 FILLER_0_94_177
*6799 FILLER_0_94_189
*6800 FILLER_0_94_195
*6801 FILLER_0_94_197
*6802 FILLER_0_94_209
*6803 FILLER_0_94_221
*6804 FILLER_0_94_233
*6805 FILLER_0_94_245
*6806 FILLER_0_94_251
*6807 FILLER_0_94_253
*6808 FILLER_0_94_265
*6809 FILLER_0_94_27
*6810 FILLER_0_94_277
*6811 FILLER_0_94_289
*6812 FILLER_0_94_29
*6813 FILLER_0_94_3
*6814 FILLER_0_94_301
*6815 FILLER_0_94_307
*6816 FILLER_0_94_309
*6817 FILLER_0_94_321
*6818 FILLER_0_94_333
*6819 FILLER_0_94_345
*6820 FILLER_0_94_357
*6821 FILLER_0_94_363
*6822 FILLER_0_94_365
*6823 FILLER_0_94_377
*6824 FILLER_0_94_389
*6825 FILLER_0_94_401
*6826 FILLER_0_94_41
*6827 FILLER_0_94_413
*6828 FILLER_0_94_419
*6829 FILLER_0_94_421
*6830 FILLER_0_94_433
*6831 FILLER_0_94_445
*6832 FILLER_0_94_457
*6833 FILLER_0_94_469
*6834 FILLER_0_94_475
*6835 FILLER_0_94_477
*6836 FILLER_0_94_489
*6837 FILLER_0_94_501
*6838 FILLER_0_94_513
*6839 FILLER_0_94_525
*6840 FILLER_0_94_53
*6841 FILLER_0_94_531
*6842 FILLER_0_94_533
*6843 FILLER_0_94_545
*6844 FILLER_0_94_557
*6845 FILLER_0_94_569
*6846 FILLER_0_94_581
*6847 FILLER_0_94_587
*6848 FILLER_0_94_589
*6849 FILLER_0_94_601
*6850 FILLER_0_94_613
*6851 FILLER_0_94_65
*6852 FILLER_0_94_77
*6853 FILLER_0_94_83
*6854 FILLER_0_94_85
*6855 FILLER_0_94_97
*6856 FILLER_0_95_105
*6857 FILLER_0_95_111
*6858 FILLER_0_95_113
*6859 FILLER_0_95_125
*6860 FILLER_0_95_137
*6861 FILLER_0_95_149
*6862 FILLER_0_95_161
*6863 FILLER_0_95_167
*6864 FILLER_0_95_169
*6865 FILLER_0_95_18
*6866 FILLER_0_95_181
*6867 FILLER_0_95_193
*6868 FILLER_0_95_205
*6869 FILLER_0_95_217
*6870 FILLER_0_95_223
*6871 FILLER_0_95_225
*6872 FILLER_0_95_237
*6873 FILLER_0_95_249
*6874 FILLER_0_95_261
*6875 FILLER_0_95_273
*6876 FILLER_0_95_279
*6877 FILLER_0_95_281
*6878 FILLER_0_95_293
*6879 FILLER_0_95_30
*6880 FILLER_0_95_305
*6881 FILLER_0_95_317
*6882 FILLER_0_95_329
*6883 FILLER_0_95_335
*6884 FILLER_0_95_337
*6885 FILLER_0_95_349
*6886 FILLER_0_95_361
*6887 FILLER_0_95_373
*6888 FILLER_0_95_385
*6889 FILLER_0_95_391
*6890 FILLER_0_95_393
*6891 FILLER_0_95_405
*6892 FILLER_0_95_417
*6893 FILLER_0_95_42
*6894 FILLER_0_95_429
*6895 FILLER_0_95_441
*6896 FILLER_0_95_447
*6897 FILLER_0_95_449
*6898 FILLER_0_95_461
*6899 FILLER_0_95_473
*6900 FILLER_0_95_485
*6901 FILLER_0_95_497
*6902 FILLER_0_95_503
*6903 FILLER_0_95_505
*6904 FILLER_0_95_517
*6905 FILLER_0_95_529
*6906 FILLER_0_95_54
*6907 FILLER_0_95_541
*6908 FILLER_0_95_553
*6909 FILLER_0_95_559
*6910 FILLER_0_95_561
*6911 FILLER_0_95_57
*6912 FILLER_0_95_573
*6913 FILLER_0_95_585
*6914 FILLER_0_95_597
*6915 FILLER_0_95_6
*6916 FILLER_0_95_609
*6917 FILLER_0_95_615
*6918 FILLER_0_95_617
*6919 FILLER_0_95_69
*6920 FILLER_0_95_81
*6921 FILLER_0_95_93
*6922 FILLER_0_96_109
*6923 FILLER_0_96_115
*6924 FILLER_0_96_125
*6925 FILLER_0_96_137
*6926 FILLER_0_96_141
*6927 FILLER_0_96_15
*6928 FILLER_0_96_153
*6929 FILLER_0_96_165
*6930 FILLER_0_96_177
*6931 FILLER_0_96_189
*6932 FILLER_0_96_195
*6933 FILLER_0_96_197
*6934 FILLER_0_96_209
*6935 FILLER_0_96_221
*6936 FILLER_0_96_233
*6937 FILLER_0_96_245
*6938 FILLER_0_96_251
*6939 FILLER_0_96_253
*6940 FILLER_0_96_265
*6941 FILLER_0_96_27
*6942 FILLER_0_96_277
*6943 FILLER_0_96_289
*6944 FILLER_0_96_29
*6945 FILLER_0_96_3
*6946 FILLER_0_96_301
*6947 FILLER_0_96_307
*6948 FILLER_0_96_309
*6949 FILLER_0_96_321
*6950 FILLER_0_96_333
*6951 FILLER_0_96_345
*6952 FILLER_0_96_357
*6953 FILLER_0_96_363
*6954 FILLER_0_96_365
*6955 FILLER_0_96_391
*6956 FILLER_0_96_403
*6957 FILLER_0_96_41
*6958 FILLER_0_96_415
*6959 FILLER_0_96_419
*6960 FILLER_0_96_421
*6961 FILLER_0_96_433
*6962 FILLER_0_96_445
*6963 FILLER_0_96_457
*6964 FILLER_0_96_469
*6965 FILLER_0_96_475
*6966 FILLER_0_96_477
*6967 FILLER_0_96_489
*6968 FILLER_0_96_501
*6969 FILLER_0_96_513
*6970 FILLER_0_96_525
*6971 FILLER_0_96_53
*6972 FILLER_0_96_531
*6973 FILLER_0_96_533
*6974 FILLER_0_96_545
*6975 FILLER_0_96_557
*6976 FILLER_0_96_569
*6977 FILLER_0_96_581
*6978 FILLER_0_96_587
*6979 FILLER_0_96_589
*6980 FILLER_0_96_601
*6981 FILLER_0_96_613
*6982 FILLER_0_96_65
*6983 FILLER_0_96_77
*6984 FILLER_0_96_83
*6985 FILLER_0_96_85
*6986 FILLER_0_96_97
*6987 FILLER_0_97_105
*6988 FILLER_0_97_141
*6989 FILLER_0_97_153
*6990 FILLER_0_97_165
*6991 FILLER_0_97_169
*6992 FILLER_0_97_181
*6993 FILLER_0_97_193
*6994 FILLER_0_97_205
*6995 FILLER_0_97_21
*6996 FILLER_0_97_217
*6997 FILLER_0_97_223
*6998 FILLER_0_97_225
*6999 FILLER_0_97_237
*7000 FILLER_0_97_249
*7001 FILLER_0_97_261
*7002 FILLER_0_97_273
*7003 FILLER_0_97_279
*7004 FILLER_0_97_281
*7005 FILLER_0_97_293
*7006 FILLER_0_97_305
*7007 FILLER_0_97_317
*7008 FILLER_0_97_329
*7009 FILLER_0_97_33
*7010 FILLER_0_97_335
*7011 FILLER_0_97_337
*7012 FILLER_0_97_349
*7013 FILLER_0_97_361
*7014 FILLER_0_97_367
*7015 FILLER_0_97_388
*7016 FILLER_0_97_393
*7017 FILLER_0_97_405
*7018 FILLER_0_97_417
*7019 FILLER_0_97_429
*7020 FILLER_0_97_441
*7021 FILLER_0_97_447
*7022 FILLER_0_97_449
*7023 FILLER_0_97_45
*7024 FILLER_0_97_461
*7025 FILLER_0_97_473
*7026 FILLER_0_97_485
*7027 FILLER_0_97_497
*7028 FILLER_0_97_503
*7029 FILLER_0_97_505
*7030 FILLER_0_97_517
*7031 FILLER_0_97_529
*7032 FILLER_0_97_53
*7033 FILLER_0_97_541
*7034 FILLER_0_97_553
*7035 FILLER_0_97_559
*7036 FILLER_0_97_561
*7037 FILLER_0_97_57
*7038 FILLER_0_97_573
*7039 FILLER_0_97_585
*7040 FILLER_0_97_597
*7041 FILLER_0_97_609
*7042 FILLER_0_97_615
*7043 FILLER_0_97_617
*7044 FILLER_0_97_69
*7045 FILLER_0_97_81
*7046 FILLER_0_97_9
*7047 FILLER_0_97_93
*7048 FILLER_0_98_109
*7049 FILLER_0_98_121
*7050 FILLER_0_98_133
*7051 FILLER_0_98_139
*7052 FILLER_0_98_141
*7053 FILLER_0_98_15
*7054 FILLER_0_98_153
*7055 FILLER_0_98_165
*7056 FILLER_0_98_177
*7057 FILLER_0_98_189
*7058 FILLER_0_98_195
*7059 FILLER_0_98_197
*7060 FILLER_0_98_209
*7061 FILLER_0_98_221
*7062 FILLER_0_98_233
*7063 FILLER_0_98_245
*7064 FILLER_0_98_251
*7065 FILLER_0_98_253
*7066 FILLER_0_98_265
*7067 FILLER_0_98_27
*7068 FILLER_0_98_29
*7069 FILLER_0_98_293
*7070 FILLER_0_98_3
*7071 FILLER_0_98_301
*7072 FILLER_0_98_307
*7073 FILLER_0_98_312
*7074 FILLER_0_98_331
*7075 FILLER_0_98_343
*7076 FILLER_0_98_355
*7077 FILLER_0_98_363
*7078 FILLER_0_98_365
*7079 FILLER_0_98_377
*7080 FILLER_0_98_403
*7081 FILLER_0_98_41
*7082 FILLER_0_98_415
*7083 FILLER_0_98_419
*7084 FILLER_0_98_421
*7085 FILLER_0_98_433
*7086 FILLER_0_98_437
*7087 FILLER_0_98_458
*7088 FILLER_0_98_470
*7089 FILLER_0_98_477
*7090 FILLER_0_98_489
*7091 FILLER_0_98_513
*7092 FILLER_0_98_525
*7093 FILLER_0_98_53
*7094 FILLER_0_98_531
*7095 FILLER_0_98_533
*7096 FILLER_0_98_545
*7097 FILLER_0_98_557
*7098 FILLER_0_98_569
*7099 FILLER_0_98_581
*7100 FILLER_0_98_587
*7101 FILLER_0_98_589
*7102 FILLER_0_98_601
*7103 FILLER_0_98_613
*7104 FILLER_0_98_65
*7105 FILLER_0_98_77
*7106 FILLER_0_98_83
*7107 FILLER_0_98_85
*7108 FILLER_0_98_97
*7109 FILLER_0_99_105
*7110 FILLER_0_99_149
*7111 FILLER_0_99_161
*7112 FILLER_0_99_167
*7113 FILLER_0_99_169
*7114 FILLER_0_99_181
*7115 FILLER_0_99_193
*7116 FILLER_0_99_205
*7117 FILLER_0_99_21
*7118 FILLER_0_99_217
*7119 FILLER_0_99_223
*7120 FILLER_0_99_225
*7121 FILLER_0_99_237
*7122 FILLER_0_99_249
*7123 FILLER_0_99_261
*7124 FILLER_0_99_273
*7125 FILLER_0_99_278
*7126 FILLER_0_99_290
*7127 FILLER_0_99_33
*7128 FILLER_0_99_333
*7129 FILLER_0_99_337
*7130 FILLER_0_99_349
*7131 FILLER_0_99_361
*7132 FILLER_0_99_373
*7133 FILLER_0_99_388
*7134 FILLER_0_99_410
*7135 FILLER_0_99_422
*7136 FILLER_0_99_434
*7137 FILLER_0_99_442
*7138 FILLER_0_99_447
*7139 FILLER_0_99_45
*7140 FILLER_0_99_466
*7141 FILLER_0_99_478
*7142 FILLER_0_99_490
*7143 FILLER_0_99_503
*7144 FILLER_0_99_505
*7145 FILLER_0_99_517
*7146 FILLER_0_99_529
*7147 FILLER_0_99_53
*7148 FILLER_0_99_541
*7149 FILLER_0_99_553
*7150 FILLER_0_99_559
*7151 FILLER_0_99_561
*7152 FILLER_0_99_57
*7153 FILLER_0_99_573
*7154 FILLER_0_99_578
*7155 FILLER_0_99_590
*7156 FILLER_0_99_602
*7157 FILLER_0_99_614
*7158 FILLER_0_99_617
*7159 FILLER_0_99_621
*7160 FILLER_0_99_69
*7161 FILLER_0_99_81
*7162 FILLER_0_99_9
*7163 FILLER_0_99_93
*7164 FILLER_0_9_105
*7165 FILLER_0_9_111
*7166 FILLER_0_9_113
*7167 FILLER_0_9_125
*7168 FILLER_0_9_137
*7169 FILLER_0_9_149
*7170 FILLER_0_9_161
*7171 FILLER_0_9_167
*7172 FILLER_0_9_169
*7173 FILLER_0_9_18
*7174 FILLER_0_9_181
*7175 FILLER_0_9_193
*7176 FILLER_0_9_205
*7177 FILLER_0_9_217
*7178 FILLER_0_9_223
*7179 FILLER_0_9_225
*7180 FILLER_0_9_237
*7181 FILLER_0_9_249
*7182 FILLER_0_9_261
*7183 FILLER_0_9_273
*7184 FILLER_0_9_279
*7185 FILLER_0_9_281
*7186 FILLER_0_9_293
*7187 FILLER_0_9_30
*7188 FILLER_0_9_305
*7189 FILLER_0_9_317
*7190 FILLER_0_9_329
*7191 FILLER_0_9_335
*7192 FILLER_0_9_337
*7193 FILLER_0_9_349
*7194 FILLER_0_9_361
*7195 FILLER_0_9_373
*7196 FILLER_0_9_385
*7197 FILLER_0_9_391
*7198 FILLER_0_9_393
*7199 FILLER_0_9_405
*7200 FILLER_0_9_417
*7201 FILLER_0_9_42
*7202 FILLER_0_9_429
*7203 FILLER_0_9_441
*7204 FILLER_0_9_447
*7205 FILLER_0_9_449
*7206 FILLER_0_9_461
*7207 FILLER_0_9_473
*7208 FILLER_0_9_485
*7209 FILLER_0_9_497
*7210 FILLER_0_9_503
*7211 FILLER_0_9_505
*7212 FILLER_0_9_517
*7213 FILLER_0_9_529
*7214 FILLER_0_9_54
*7215 FILLER_0_9_541
*7216 FILLER_0_9_553
*7217 FILLER_0_9_559
*7218 FILLER_0_9_561
*7219 FILLER_0_9_57
*7220 FILLER_0_9_573
*7221 FILLER_0_9_585
*7222 FILLER_0_9_597
*7223 FILLER_0_9_6
*7224 FILLER_0_9_609
*7225 FILLER_0_9_615
*7226 FILLER_0_9_617
*7227 FILLER_0_9_69
*7228 FILLER_0_9_81
*7229 FILLER_0_9_93
*7230 PHY_0
*7231 PHY_1
*7232 PHY_10
*7233 PHY_100
*7234 PHY_101
*7235 PHY_102
*7236 PHY_103
*7237 PHY_104
*7238 PHY_105
*7239 PHY_106
*7240 PHY_107
*7241 PHY_108
*7242 PHY_109
*7243 PHY_11
*7244 PHY_110
*7245 PHY_111
*7246 PHY_112
*7247 PHY_113
*7248 PHY_114
*7249 PHY_115
*7250 PHY_116
*7251 PHY_117
*7252 PHY_118
*7253 PHY_119
*7254 PHY_12
*7255 PHY_120
*7256 PHY_121
*7257 PHY_122
*7258 PHY_123
*7259 PHY_124
*7260 PHY_125
*7261 PHY_126
*7262 PHY_127
*7263 PHY_128
*7264 PHY_129
*7265 PHY_13
*7266 PHY_130
*7267 PHY_131
*7268 PHY_132
*7269 PHY_133
*7270 PHY_134
*7271 PHY_135
*7272 PHY_136
*7273 PHY_137
*7274 PHY_138
*7275 PHY_139
*7276 PHY_14
*7277 PHY_140
*7278 PHY_141
*7279 PHY_142
*7280 PHY_143
*7281 PHY_144
*7282 PHY_145
*7283 PHY_146
*7284 PHY_147
*7285 PHY_148
*7286 PHY_149
*7287 PHY_15
*7288 PHY_150
*7289 PHY_151
*7290 PHY_152
*7291 PHY_153
*7292 PHY_154
*7293 PHY_155
*7294 PHY_156
*7295 PHY_157
*7296 PHY_158
*7297 PHY_159
*7298 PHY_16
*7299 PHY_160
*7300 PHY_161
*7301 PHY_162
*7302 PHY_163
*7303 PHY_164
*7304 PHY_165
*7305 PHY_166
*7306 PHY_167
*7307 PHY_168
*7308 PHY_169
*7309 PHY_17
*7310 PHY_170
*7311 PHY_171
*7312 PHY_172
*7313 PHY_173
*7314 PHY_174
*7315 PHY_175
*7316 PHY_176
*7317 PHY_177
*7318 PHY_178
*7319 PHY_179
*7320 PHY_18
*7321 PHY_180
*7322 PHY_181
*7323 PHY_182
*7324 PHY_183
*7325 PHY_184
*7326 PHY_185
*7327 PHY_186
*7328 PHY_187
*7329 PHY_188
*7330 PHY_189
*7331 PHY_19
*7332 PHY_190
*7333 PHY_191
*7334 PHY_192
*7335 PHY_193
*7336 PHY_194
*7337 PHY_195
*7338 PHY_196
*7339 PHY_197
*7340 PHY_198
*7341 PHY_199
*7342 PHY_2
*7343 PHY_20
*7344 PHY_200
*7345 PHY_201
*7346 PHY_202
*7347 PHY_203
*7348 PHY_21
*7349 PHY_22
*7350 PHY_23
*7351 PHY_24
*7352 PHY_25
*7353 PHY_26
*7354 PHY_27
*7355 PHY_28
*7356 PHY_29
*7357 PHY_3
*7358 PHY_30
*7359 PHY_31
*7360 PHY_32
*7361 PHY_33
*7362 PHY_34
*7363 PHY_35
*7364 PHY_36
*7365 PHY_37
*7366 PHY_38
*7367 PHY_39
*7368 PHY_4
*7369 PHY_40
*7370 PHY_41
*7371 PHY_42
*7372 PHY_43
*7373 PHY_44
*7374 PHY_45
*7375 PHY_46
*7376 PHY_47
*7377 PHY_48
*7378 PHY_49
*7379 PHY_5
*7380 PHY_50
*7381 PHY_51
*7382 PHY_52
*7383 PHY_53
*7384 PHY_54
*7385 PHY_55
*7386 PHY_56
*7387 PHY_57
*7388 PHY_58
*7389 PHY_59
*7390 PHY_6
*7391 PHY_60
*7392 PHY_61
*7393 PHY_62
*7394 PHY_63
*7395 PHY_64
*7396 PHY_65
*7397 PHY_66
*7398 PHY_67
*7399 PHY_68
*7400 PHY_69
*7401 PHY_7
*7402 PHY_70
*7403 PHY_71
*7404 PHY_72
*7405 PHY_73
*7406 PHY_74
*7407 PHY_75
*7408 PHY_76
*7409 PHY_77
*7410 PHY_78
*7411 PHY_79
*7412 PHY_8
*7413 PHY_80
*7414 PHY_81
*7415 PHY_82
*7416 PHY_83
*7417 PHY_84
*7418 PHY_85
*7419 PHY_86
*7420 PHY_87
*7421 PHY_88
*7422 PHY_89
*7423 PHY_9
*7424 PHY_90
*7425 PHY_91
*7426 PHY_92
*7427 PHY_93
*7428 PHY_94
*7429 PHY_95
*7430 PHY_96
*7431 PHY_97
*7432 PHY_98
*7433 PHY_99
*7434 TAP_1000
*7435 TAP_1001
*7436 TAP_1002
*7437 TAP_1003
*7438 TAP_1004
*7439 TAP_1005
*7440 TAP_1006
*7441 TAP_1007
*7442 TAP_1008
*7443 TAP_1009
*7444 TAP_1010
*7445 TAP_1011
*7446 TAP_1012
*7447 TAP_1013
*7448 TAP_1014
*7449 TAP_1015
*7450 TAP_1016
*7451 TAP_1017
*7452 TAP_1018
*7453 TAP_1019
*7454 TAP_1020
*7455 TAP_1021
*7456 TAP_1022
*7457 TAP_1023
*7458 TAP_1024
*7459 TAP_1025
*7460 TAP_1026
*7461 TAP_1027
*7462 TAP_1028
*7463 TAP_1029
*7464 TAP_1030
*7465 TAP_1031
*7466 TAP_1032
*7467 TAP_1033
*7468 TAP_1034
*7469 TAP_1035
*7470 TAP_1036
*7471 TAP_1037
*7472 TAP_1038
*7473 TAP_1039
*7474 TAP_1040
*7475 TAP_1041
*7476 TAP_1042
*7477 TAP_1043
*7478 TAP_1044
*7479 TAP_1045
*7480 TAP_1046
*7481 TAP_1047
*7482 TAP_1048
*7483 TAP_1049
*7484 TAP_1050
*7485 TAP_1051
*7486 TAP_1052
*7487 TAP_1053
*7488 TAP_1054
*7489 TAP_1055
*7490 TAP_1056
*7491 TAP_1057
*7492 TAP_1058
*7493 TAP_1059
*7494 TAP_1060
*7495 TAP_1061
*7496 TAP_1062
*7497 TAP_1063
*7498 TAP_1064
*7499 TAP_1065
*7500 TAP_1066
*7501 TAP_1067
*7502 TAP_1068
*7503 TAP_1069
*7504 TAP_1070
*7505 TAP_1071
*7506 TAP_1072
*7507 TAP_1073
*7508 TAP_1074
*7509 TAP_1075
*7510 TAP_1076
*7511 TAP_1077
*7512 TAP_1078
*7513 TAP_1079
*7514 TAP_1080
*7515 TAP_1081
*7516 TAP_1082
*7517 TAP_1083
*7518 TAP_1084
*7519 TAP_1085
*7520 TAP_1086
*7521 TAP_1087
*7522 TAP_1088
*7523 TAP_1089
*7524 TAP_1090
*7525 TAP_1091
*7526 TAP_1092
*7527 TAP_1093
*7528 TAP_1094
*7529 TAP_1095
*7530 TAP_1096
*7531 TAP_1097
*7532 TAP_1098
*7533 TAP_1099
*7534 TAP_1100
*7535 TAP_1101
*7536 TAP_1102
*7537 TAP_1103
*7538 TAP_1104
*7539 TAP_1105
*7540 TAP_1106
*7541 TAP_1107
*7542 TAP_1108
*7543 TAP_1109
*7544 TAP_1110
*7545 TAP_1111
*7546 TAP_1112
*7547 TAP_1113
*7548 TAP_1114
*7549 TAP_1115
*7550 TAP_1116
*7551 TAP_1117
*7552 TAP_1118
*7553 TAP_1119
*7554 TAP_1120
*7555 TAP_1121
*7556 TAP_1122
*7557 TAP_1123
*7558 TAP_1124
*7559 TAP_1125
*7560 TAP_1126
*7561 TAP_1127
*7562 TAP_1128
*7563 TAP_1129
*7564 TAP_1130
*7565 TAP_1131
*7566 TAP_1132
*7567 TAP_1133
*7568 TAP_1134
*7569 TAP_1135
*7570 TAP_1136
*7571 TAP_1137
*7572 TAP_1138
*7573 TAP_1139
*7574 TAP_1140
*7575 TAP_1141
*7576 TAP_1142
*7577 TAP_1143
*7578 TAP_1144
*7579 TAP_1145
*7580 TAP_1146
*7581 TAP_1147
*7582 TAP_1148
*7583 TAP_1149
*7584 TAP_1150
*7585 TAP_1151
*7586 TAP_1152
*7587 TAP_1153
*7588 TAP_1154
*7589 TAP_1155
*7590 TAP_1156
*7591 TAP_1157
*7592 TAP_1158
*7593 TAP_1159
*7594 TAP_1160
*7595 TAP_1161
*7596 TAP_1162
*7597 TAP_1163
*7598 TAP_1164
*7599 TAP_1165
*7600 TAP_1166
*7601 TAP_1167
*7602 TAP_1168
*7603 TAP_1169
*7604 TAP_1170
*7605 TAP_1171
*7606 TAP_1172
*7607 TAP_1173
*7608 TAP_1174
*7609 TAP_1175
*7610 TAP_1176
*7611 TAP_1177
*7612 TAP_1178
*7613 TAP_1179
*7614 TAP_1180
*7615 TAP_1181
*7616 TAP_1182
*7617 TAP_1183
*7618 TAP_1184
*7619 TAP_1185
*7620 TAP_1186
*7621 TAP_1187
*7622 TAP_1188
*7623 TAP_1189
*7624 TAP_1190
*7625 TAP_1191
*7626 TAP_1192
*7627 TAP_1193
*7628 TAP_1194
*7629 TAP_1195
*7630 TAP_1196
*7631 TAP_1197
*7632 TAP_1198
*7633 TAP_1199
*7634 TAP_1200
*7635 TAP_1201
*7636 TAP_1202
*7637 TAP_1203
*7638 TAP_1204
*7639 TAP_1205
*7640 TAP_1206
*7641 TAP_1207
*7642 TAP_1208
*7643 TAP_1209
*7644 TAP_1210
*7645 TAP_1211
*7646 TAP_1212
*7647 TAP_1213
*7648 TAP_1214
*7649 TAP_1215
*7650 TAP_1216
*7651 TAP_1217
*7652 TAP_1218
*7653 TAP_1219
*7654 TAP_1220
*7655 TAP_1221
*7656 TAP_1222
*7657 TAP_1223
*7658 TAP_1224
*7659 TAP_1225
*7660 TAP_1226
*7661 TAP_1227
*7662 TAP_1228
*7663 TAP_1229
*7664 TAP_1230
*7665 TAP_1231
*7666 TAP_1232
*7667 TAP_1233
*7668 TAP_1234
*7669 TAP_1235
*7670 TAP_1236
*7671 TAP_1237
*7672 TAP_1238
*7673 TAP_1239
*7674 TAP_1240
*7675 TAP_1241
*7676 TAP_1242
*7677 TAP_1243
*7678 TAP_1244
*7679 TAP_1245
*7680 TAP_1246
*7681 TAP_1247
*7682 TAP_1248
*7683 TAP_1249
*7684 TAP_1250
*7685 TAP_1251
*7686 TAP_1252
*7687 TAP_1253
*7688 TAP_1254
*7689 TAP_1255
*7690 TAP_1256
*7691 TAP_1257
*7692 TAP_1258
*7693 TAP_1259
*7694 TAP_1260
*7695 TAP_1261
*7696 TAP_1262
*7697 TAP_1263
*7698 TAP_1264
*7699 TAP_1265
*7700 TAP_1266
*7701 TAP_1267
*7702 TAP_1268
*7703 TAP_1269
*7704 TAP_1270
*7705 TAP_1271
*7706 TAP_1272
*7707 TAP_1273
*7708 TAP_1274
*7709 TAP_1275
*7710 TAP_1276
*7711 TAP_1277
*7712 TAP_1278
*7713 TAP_1279
*7714 TAP_1280
*7715 TAP_1281
*7716 TAP_1282
*7717 TAP_1283
*7718 TAP_1284
*7719 TAP_1285
*7720 TAP_1286
*7721 TAP_1287
*7722 TAP_1288
*7723 TAP_1289
*7724 TAP_1290
*7725 TAP_1291
*7726 TAP_1292
*7727 TAP_1293
*7728 TAP_1294
*7729 TAP_1295
*7730 TAP_1296
*7731 TAP_1297
*7732 TAP_1298
*7733 TAP_1299
*7734 TAP_1300
*7735 TAP_1301
*7736 TAP_1302
*7737 TAP_1303
*7738 TAP_1304
*7739 TAP_1305
*7740 TAP_1306
*7741 TAP_1307
*7742 TAP_1308
*7743 TAP_1309
*7744 TAP_1310
*7745 TAP_1311
*7746 TAP_1312
*7747 TAP_1313
*7748 TAP_1314
*7749 TAP_1315
*7750 TAP_1316
*7751 TAP_1317
*7752 TAP_1318
*7753 TAP_1319
*7754 TAP_1320
*7755 TAP_1321
*7756 TAP_1322
*7757 TAP_1323
*7758 TAP_1324
*7759 TAP_1325
*7760 TAP_1326
*7761 TAP_1327
*7762 TAP_1328
*7763 TAP_1329
*7764 TAP_1330
*7765 TAP_1331
*7766 TAP_1332
*7767 TAP_1333
*7768 TAP_1334
*7769 TAP_1335
*7770 TAP_1336
*7771 TAP_1337
*7772 TAP_1338
*7773 TAP_1339
*7774 TAP_1340
*7775 TAP_1341
*7776 TAP_1342
*7777 TAP_1343
*7778 TAP_1344
*7779 TAP_1345
*7780 TAP_1346
*7781 TAP_1347
*7782 TAP_204
*7783 TAP_205
*7784 TAP_206
*7785 TAP_207
*7786 TAP_208
*7787 TAP_209
*7788 TAP_210
*7789 TAP_211
*7790 TAP_212
*7791 TAP_213
*7792 TAP_214
*7793 TAP_215
*7794 TAP_216
*7795 TAP_217
*7796 TAP_218
*7797 TAP_219
*7798 TAP_220
*7799 TAP_221
*7800 TAP_222
*7801 TAP_223
*7802 TAP_224
*7803 TAP_225
*7804 TAP_226
*7805 TAP_227
*7806 TAP_228
*7807 TAP_229
*7808 TAP_230
*7809 TAP_231
*7810 TAP_232
*7811 TAP_233
*7812 TAP_234
*7813 TAP_235
*7814 TAP_236
*7815 TAP_237
*7816 TAP_238
*7817 TAP_239
*7818 TAP_240
*7819 TAP_241
*7820 TAP_242
*7821 TAP_243
*7822 TAP_244
*7823 TAP_245
*7824 TAP_246
*7825 TAP_247
*7826 TAP_248
*7827 TAP_249
*7828 TAP_250
*7829 TAP_251
*7830 TAP_252
*7831 TAP_253
*7832 TAP_254
*7833 TAP_255
*7834 TAP_256
*7835 TAP_257
*7836 TAP_258
*7837 TAP_259
*7838 TAP_260
*7839 TAP_261
*7840 TAP_262
*7841 TAP_263
*7842 TAP_264
*7843 TAP_265
*7844 TAP_266
*7845 TAP_267
*7846 TAP_268
*7847 TAP_269
*7848 TAP_270
*7849 TAP_271
*7850 TAP_272
*7851 TAP_273
*7852 TAP_274
*7853 TAP_275
*7854 TAP_276
*7855 TAP_277
*7856 TAP_278
*7857 TAP_279
*7858 TAP_280
*7859 TAP_281
*7860 TAP_282
*7861 TAP_283
*7862 TAP_284
*7863 TAP_285
*7864 TAP_286
*7865 TAP_287
*7866 TAP_288
*7867 TAP_289
*7868 TAP_290
*7869 TAP_291
*7870 TAP_292
*7871 TAP_293
*7872 TAP_294
*7873 TAP_295
*7874 TAP_296
*7875 TAP_297
*7876 TAP_298
*7877 TAP_299
*7878 TAP_300
*7879 TAP_301
*7880 TAP_302
*7881 TAP_303
*7882 TAP_304
*7883 TAP_305
*7884 TAP_306
*7885 TAP_307
*7886 TAP_308
*7887 TAP_309
*7888 TAP_310
*7889 TAP_311
*7890 TAP_312
*7891 TAP_313
*7892 TAP_314
*7893 TAP_315
*7894 TAP_316
*7895 TAP_317
*7896 TAP_318
*7897 TAP_319
*7898 TAP_320
*7899 TAP_321
*7900 TAP_322
*7901 TAP_323
*7902 TAP_324
*7903 TAP_325
*7904 TAP_326
*7905 TAP_327
*7906 TAP_328
*7907 TAP_329
*7908 TAP_330
*7909 TAP_331
*7910 TAP_332
*7911 TAP_333
*7912 TAP_334
*7913 TAP_335
*7914 TAP_336
*7915 TAP_337
*7916 TAP_338
*7917 TAP_339
*7918 TAP_340
*7919 TAP_341
*7920 TAP_342
*7921 TAP_343
*7922 TAP_344
*7923 TAP_345
*7924 TAP_346
*7925 TAP_347
*7926 TAP_348
*7927 TAP_349
*7928 TAP_350
*7929 TAP_351
*7930 TAP_352
*7931 TAP_353
*7932 TAP_354
*7933 TAP_355
*7934 TAP_356
*7935 TAP_357
*7936 TAP_358
*7937 TAP_359
*7938 TAP_360
*7939 TAP_361
*7940 TAP_362
*7941 TAP_363
*7942 TAP_364
*7943 TAP_365
*7944 TAP_366
*7945 TAP_367
*7946 TAP_368
*7947 TAP_369
*7948 TAP_370
*7949 TAP_371
*7950 TAP_372
*7951 TAP_373
*7952 TAP_374
*7953 TAP_375
*7954 TAP_376
*7955 TAP_377
*7956 TAP_378
*7957 TAP_379
*7958 TAP_380
*7959 TAP_381
*7960 TAP_382
*7961 TAP_383
*7962 TAP_384
*7963 TAP_385
*7964 TAP_386
*7965 TAP_387
*7966 TAP_388
*7967 TAP_389
*7968 TAP_390
*7969 TAP_391
*7970 TAP_392
*7971 TAP_393
*7972 TAP_394
*7973 TAP_395
*7974 TAP_396
*7975 TAP_397
*7976 TAP_398
*7977 TAP_399
*7978 TAP_400
*7979 TAP_401
*7980 TAP_402
*7981 TAP_403
*7982 TAP_404
*7983 TAP_405
*7984 TAP_406
*7985 TAP_407
*7986 TAP_408
*7987 TAP_409
*7988 TAP_410
*7989 TAP_411
*7990 TAP_412
*7991 TAP_413
*7992 TAP_414
*7993 TAP_415
*7994 TAP_416
*7995 TAP_417
*7996 TAP_418
*7997 TAP_419
*7998 TAP_420
*7999 TAP_421
*8000 TAP_422
*8001 TAP_423
*8002 TAP_424
*8003 TAP_425
*8004 TAP_426
*8005 TAP_427
*8006 TAP_428
*8007 TAP_429
*8008 TAP_430
*8009 TAP_431
*8010 TAP_432
*8011 TAP_433
*8012 TAP_434
*8013 TAP_435
*8014 TAP_436
*8015 TAP_437
*8016 TAP_438
*8017 TAP_439
*8018 TAP_440
*8019 TAP_441
*8020 TAP_442
*8021 TAP_443
*8022 TAP_444
*8023 TAP_445
*8024 TAP_446
*8025 TAP_447
*8026 TAP_448
*8027 TAP_449
*8028 TAP_450
*8029 TAP_451
*8030 TAP_452
*8031 TAP_453
*8032 TAP_454
*8033 TAP_455
*8034 TAP_456
*8035 TAP_457
*8036 TAP_458
*8037 TAP_459
*8038 TAP_460
*8039 TAP_461
*8040 TAP_462
*8041 TAP_463
*8042 TAP_464
*8043 TAP_465
*8044 TAP_466
*8045 TAP_467
*8046 TAP_468
*8047 TAP_469
*8048 TAP_470
*8049 TAP_471
*8050 TAP_472
*8051 TAP_473
*8052 TAP_474
*8053 TAP_475
*8054 TAP_476
*8055 TAP_477
*8056 TAP_478
*8057 TAP_479
*8058 TAP_480
*8059 TAP_481
*8060 TAP_482
*8061 TAP_483
*8062 TAP_484
*8063 TAP_485
*8064 TAP_486
*8065 TAP_487
*8066 TAP_488
*8067 TAP_489
*8068 TAP_490
*8069 TAP_491
*8070 TAP_492
*8071 TAP_493
*8072 TAP_494
*8073 TAP_495
*8074 TAP_496
*8075 TAP_497
*8076 TAP_498
*8077 TAP_499
*8078 TAP_500
*8079 TAP_501
*8080 TAP_502
*8081 TAP_503
*8082 TAP_504
*8083 TAP_505
*8084 TAP_506
*8085 TAP_507
*8086 TAP_508
*8087 TAP_509
*8088 TAP_510
*8089 TAP_511
*8090 TAP_512
*8091 TAP_513
*8092 TAP_514
*8093 TAP_515
*8094 TAP_516
*8095 TAP_517
*8096 TAP_518
*8097 TAP_519
*8098 TAP_520
*8099 TAP_521
*8100 TAP_522
*8101 TAP_523
*8102 TAP_524
*8103 TAP_525
*8104 TAP_526
*8105 TAP_527
*8106 TAP_528
*8107 TAP_529
*8108 TAP_530
*8109 TAP_531
*8110 TAP_532
*8111 TAP_533
*8112 TAP_534
*8113 TAP_535
*8114 TAP_536
*8115 TAP_537
*8116 TAP_538
*8117 TAP_539
*8118 TAP_540
*8119 TAP_541
*8120 TAP_542
*8121 TAP_543
*8122 TAP_544
*8123 TAP_545
*8124 TAP_546
*8125 TAP_547
*8126 TAP_548
*8127 TAP_549
*8128 TAP_550
*8129 TAP_551
*8130 TAP_552
*8131 TAP_553
*8132 TAP_554
*8133 TAP_555
*8134 TAP_556
*8135 TAP_557
*8136 TAP_558
*8137 TAP_559
*8138 TAP_560
*8139 TAP_561
*8140 TAP_562
*8141 TAP_563
*8142 TAP_564
*8143 TAP_565
*8144 TAP_566
*8145 TAP_567
*8146 TAP_568
*8147 TAP_569
*8148 TAP_570
*8149 TAP_571
*8150 TAP_572
*8151 TAP_573
*8152 TAP_574
*8153 TAP_575
*8154 TAP_576
*8155 TAP_577
*8156 TAP_578
*8157 TAP_579
*8158 TAP_580
*8159 TAP_581
*8160 TAP_582
*8161 TAP_583
*8162 TAP_584
*8163 TAP_585
*8164 TAP_586
*8165 TAP_587
*8166 TAP_588
*8167 TAP_589
*8168 TAP_590
*8169 TAP_591
*8170 TAP_592
*8171 TAP_593
*8172 TAP_594
*8173 TAP_595
*8174 TAP_596
*8175 TAP_597
*8176 TAP_598
*8177 TAP_599
*8178 TAP_600
*8179 TAP_601
*8180 TAP_602
*8181 TAP_603
*8182 TAP_604
*8183 TAP_605
*8184 TAP_606
*8185 TAP_607
*8186 TAP_608
*8187 TAP_609
*8188 TAP_610
*8189 TAP_611
*8190 TAP_612
*8191 TAP_613
*8192 TAP_614
*8193 TAP_615
*8194 TAP_616
*8195 TAP_617
*8196 TAP_618
*8197 TAP_619
*8198 TAP_620
*8199 TAP_621
*8200 TAP_622
*8201 TAP_623
*8202 TAP_624
*8203 TAP_625
*8204 TAP_626
*8205 TAP_627
*8206 TAP_628
*8207 TAP_629
*8208 TAP_630
*8209 TAP_631
*8210 TAP_632
*8211 TAP_633
*8212 TAP_634
*8213 TAP_635
*8214 TAP_636
*8215 TAP_637
*8216 TAP_638
*8217 TAP_639
*8218 TAP_640
*8219 TAP_641
*8220 TAP_642
*8221 TAP_643
*8222 TAP_644
*8223 TAP_645
*8224 TAP_646
*8225 TAP_647
*8226 TAP_648
*8227 TAP_649
*8228 TAP_650
*8229 TAP_651
*8230 TAP_652
*8231 TAP_653
*8232 TAP_654
*8233 TAP_655
*8234 TAP_656
*8235 TAP_657
*8236 TAP_658
*8237 TAP_659
*8238 TAP_660
*8239 TAP_661
*8240 TAP_662
*8241 TAP_663
*8242 TAP_664
*8243 TAP_665
*8244 TAP_666
*8245 TAP_667
*8246 TAP_668
*8247 TAP_669
*8248 TAP_670
*8249 TAP_671
*8250 TAP_672
*8251 TAP_673
*8252 TAP_674
*8253 TAP_675
*8254 TAP_676
*8255 TAP_677
*8256 TAP_678
*8257 TAP_679
*8258 TAP_680
*8259 TAP_681
*8260 TAP_682
*8261 TAP_683
*8262 TAP_684
*8263 TAP_685
*8264 TAP_686
*8265 TAP_687
*8266 TAP_688
*8267 TAP_689
*8268 TAP_690
*8269 TAP_691
*8270 TAP_692
*8271 TAP_693
*8272 TAP_694
*8273 TAP_695
*8274 TAP_696
*8275 TAP_697
*8276 TAP_698
*8277 TAP_699
*8278 TAP_700
*8279 TAP_701
*8280 TAP_702
*8281 TAP_703
*8282 TAP_704
*8283 TAP_705
*8284 TAP_706
*8285 TAP_707
*8286 TAP_708
*8287 TAP_709
*8288 TAP_710
*8289 TAP_711
*8290 TAP_712
*8291 TAP_713
*8292 TAP_714
*8293 TAP_715
*8294 TAP_716
*8295 TAP_717
*8296 TAP_718
*8297 TAP_719
*8298 TAP_720
*8299 TAP_721
*8300 TAP_722
*8301 TAP_723
*8302 TAP_724
*8303 TAP_725
*8304 TAP_726
*8305 TAP_727
*8306 TAP_728
*8307 TAP_729
*8308 TAP_730
*8309 TAP_731
*8310 TAP_732
*8311 TAP_733
*8312 TAP_734
*8313 TAP_735
*8314 TAP_736
*8315 TAP_737
*8316 TAP_738
*8317 TAP_739
*8318 TAP_740
*8319 TAP_741
*8320 TAP_742
*8321 TAP_743
*8322 TAP_744
*8323 TAP_745
*8324 TAP_746
*8325 TAP_747
*8326 TAP_748
*8327 TAP_749
*8328 TAP_750
*8329 TAP_751
*8330 TAP_752
*8331 TAP_753
*8332 TAP_754
*8333 TAP_755
*8334 TAP_756
*8335 TAP_757
*8336 TAP_758
*8337 TAP_759
*8338 TAP_760
*8339 TAP_761
*8340 TAP_762
*8341 TAP_763
*8342 TAP_764
*8343 TAP_765
*8344 TAP_766
*8345 TAP_767
*8346 TAP_768
*8347 TAP_769
*8348 TAP_770
*8349 TAP_771
*8350 TAP_772
*8351 TAP_773
*8352 TAP_774
*8353 TAP_775
*8354 TAP_776
*8355 TAP_777
*8356 TAP_778
*8357 TAP_779
*8358 TAP_780
*8359 TAP_781
*8360 TAP_782
*8361 TAP_783
*8362 TAP_784
*8363 TAP_785
*8364 TAP_786
*8365 TAP_787
*8366 TAP_788
*8367 TAP_789
*8368 TAP_790
*8369 TAP_791
*8370 TAP_792
*8371 TAP_793
*8372 TAP_794
*8373 TAP_795
*8374 TAP_796
*8375 TAP_797
*8376 TAP_798
*8377 TAP_799
*8378 TAP_800
*8379 TAP_801
*8380 TAP_802
*8381 TAP_803
*8382 TAP_804
*8383 TAP_805
*8384 TAP_806
*8385 TAP_807
*8386 TAP_808
*8387 TAP_809
*8388 TAP_810
*8389 TAP_811
*8390 TAP_812
*8391 TAP_813
*8392 TAP_814
*8393 TAP_815
*8394 TAP_816
*8395 TAP_817
*8396 TAP_818
*8397 TAP_819
*8398 TAP_820
*8399 TAP_821
*8400 TAP_822
*8401 TAP_823
*8402 TAP_824
*8403 TAP_825
*8404 TAP_826
*8405 TAP_827
*8406 TAP_828
*8407 TAP_829
*8408 TAP_830
*8409 TAP_831
*8410 TAP_832
*8411 TAP_833
*8412 TAP_834
*8413 TAP_835
*8414 TAP_836
*8415 TAP_837
*8416 TAP_838
*8417 TAP_839
*8418 TAP_840
*8419 TAP_841
*8420 TAP_842
*8421 TAP_843
*8422 TAP_844
*8423 TAP_845
*8424 TAP_846
*8425 TAP_847
*8426 TAP_848
*8427 TAP_849
*8428 TAP_850
*8429 TAP_851
*8430 TAP_852
*8431 TAP_853
*8432 TAP_854
*8433 TAP_855
*8434 TAP_856
*8435 TAP_857
*8436 TAP_858
*8437 TAP_859
*8438 TAP_860
*8439 TAP_861
*8440 TAP_862
*8441 TAP_863
*8442 TAP_864
*8443 TAP_865
*8444 TAP_866
*8445 TAP_867
*8446 TAP_868
*8447 TAP_869
*8448 TAP_870
*8449 TAP_871
*8450 TAP_872
*8451 TAP_873
*8452 TAP_874
*8453 TAP_875
*8454 TAP_876
*8455 TAP_877
*8456 TAP_878
*8457 TAP_879
*8458 TAP_880
*8459 TAP_881
*8460 TAP_882
*8461 TAP_883
*8462 TAP_884
*8463 TAP_885
*8464 TAP_886
*8465 TAP_887
*8466 TAP_888
*8467 TAP_889
*8468 TAP_890
*8469 TAP_891
*8470 TAP_892
*8471 TAP_893
*8472 TAP_894
*8473 TAP_895
*8474 TAP_896
*8475 TAP_897
*8476 TAP_898
*8477 TAP_899
*8478 TAP_900
*8479 TAP_901
*8480 TAP_902
*8481 TAP_903
*8482 TAP_904
*8483 TAP_905
*8484 TAP_906
*8485 TAP_907
*8486 TAP_908
*8487 TAP_909
*8488 TAP_910
*8489 TAP_911
*8490 TAP_912
*8491 TAP_913
*8492 TAP_914
*8493 TAP_915
*8494 TAP_916
*8495 TAP_917
*8496 TAP_918
*8497 TAP_919
*8498 TAP_920
*8499 TAP_921
*8500 TAP_922
*8501 TAP_923
*8502 TAP_924
*8503 TAP_925
*8504 TAP_926
*8505 TAP_927
*8506 TAP_928
*8507 TAP_929
*8508 TAP_930
*8509 TAP_931
*8510 TAP_932
*8511 TAP_933
*8512 TAP_934
*8513 TAP_935
*8514 TAP_936
*8515 TAP_937
*8516 TAP_938
*8517 TAP_939
*8518 TAP_940
*8519 TAP_941
*8520 TAP_942
*8521 TAP_943
*8522 TAP_944
*8523 TAP_945
*8524 TAP_946
*8525 TAP_947
*8526 TAP_948
*8527 TAP_949
*8528 TAP_950
*8529 TAP_951
*8530 TAP_952
*8531 TAP_953
*8532 TAP_954
*8533 TAP_955
*8534 TAP_956
*8535 TAP_957
*8536 TAP_958
*8537 TAP_959
*8538 TAP_960
*8539 TAP_961
*8540 TAP_962
*8541 TAP_963
*8542 TAP_964
*8543 TAP_965
*8544 TAP_966
*8545 TAP_967
*8546 TAP_968
*8547 TAP_969
*8548 TAP_970
*8549 TAP_971
*8550 TAP_972
*8551 TAP_973
*8552 TAP_974
*8553 TAP_975
*8554 TAP_976
*8555 TAP_977
*8556 TAP_978
*8557 TAP_979
*8558 TAP_980
*8559 TAP_981
*8560 TAP_982
*8561 TAP_983
*8562 TAP_984
*8563 TAP_985
*8564 TAP_986
*8565 TAP_987
*8566 TAP_988
*8567 TAP_989
*8568 TAP_990
*8569 TAP_991
*8570 TAP_992
*8571 TAP_993
*8572 TAP_994
*8573 TAP_995
*8574 TAP_996
*8575 TAP_997
*8576 TAP_998
*8577 TAP_999
*8578 _177_
*8579 _178_
*8580 _179_
*8581 _180_
*8582 _181_
*8583 _182_
*8584 _183_
*8585 _184_
*8586 _185_
*8587 _186_
*8588 _187_
*8589 _188_
*8590 _189_
*8591 _190_
*8592 _191_
*8593 _192_
*8594 _193_
*8595 _194_
*8596 _195_
*8597 _196_
*8598 _197_
*8599 _198_
*8600 _199_
*8601 _200_
*8602 _201_
*8603 _202_
*8604 _203_
*8605 _204_
*8606 _205_
*8607 _206_
*8608 _207_
*8609 _208_
*8610 _209_
*8611 _210_
*8612 _211_
*8613 _212_
*8614 _213_
*8615 _214_
*8616 _215_
*8617 _216_
*8618 _217_
*8619 _218_
*8620 _219_
*8621 _220_
*8622 _221_
*8623 _222_
*8624 _223_
*8625 _224_
*8626 _225_
*8627 _226_
*8628 _227_
*8629 _228_
*8630 _229_
*8631 _230_
*8632 _231_
*8633 _232_
*8634 _233_
*8635 _234_
*8636 _235_
*8637 _236_
*8638 _237_
*8639 _238_
*8640 _239_
*8641 _240_
*8642 _241_
*8643 _242_
*8644 _243_
*8645 _244_
*8646 _245_
*8647 _246_
*8648 _247_
*8649 _248_
*8650 _249_
*8651 _250_
*8652 _251_
*8653 _252_
*8654 _253_
*8655 _254_
*8656 _255_
*8657 _256_
*8658 _257_
*8659 _258_
*8660 _259_
*8661 _260_
*8662 _261_
*8663 _262_
*8664 _263_
*8665 _264_
*8666 _265_
*8667 _266_
*8668 _267_
*8669 _268_
*8670 _269_
*8671 _270_
*8672 _271_
*8673 _272_
*8674 _273_
*8675 _274_
*8676 _275_
*8677 _276_
*8678 _277_
*8679 _278_
*8680 _279_
*8681 _280_
*8682 _281_
*8683 _282_
*8684 _283_
*8685 _284_
*8686 _285_
*8687 _286_
*8688 _287_
*8689 _288_
*8690 _289_
*8691 _290_
*8692 _291_
*8693 _292_
*8694 _293_
*8695 _294_
*8696 _295_
*8697 _296_
*8698 _297_
*8699 _298_
*8700 _299_
*8701 _300_
*8702 _301_
*8703 _302_
*8704 _303_
*8705 _304_
*8706 _305_
*8707 _306_
*8708 _307_
*8709 _308_
*8710 _309_
*8711 _310_
*8712 _311_
*8713 _312_
*8714 _313_
*8715 _314_
*8716 _315_
*8717 _316_
*8718 _317_
*8719 _318_
*8720 _319_
*8721 _320_
*8722 _321_
*8723 _322_
*8724 _323_
*8725 _324_
*8726 _325_
*8727 _326_
*8728 _327_
*8729 _328_
*8730 _329_
*8731 _330_
*8732 _331_
*8733 _332_
*8734 _333_
*8735 _334_
*8736 _335_
*8737 _336_
*8738 _337_
*8739 _338_
*8740 _339_
*8741 _340_
*8742 _341_
*8743 _342_
*8744 _343_
*8745 _344_
*8746 _345_
*8747 _346_
*8748 _347_
*8749 _348_
*8750 _349_
*8751 _350_
*8752 _351_
*8753 _352_
*8754 _353_
*8755 _354_
*8756 _355_
*8757 _356_
*8758 _357_
*8759 _358_
*8760 _359_
*8761 _360_
*8762 _361_
*8763 _362_
*8764 _363_
*8765 _364_
*8766 _365_
*8767 _366_
*8768 _367_
*8769 _368_
*8770 _369_
*8771 _370_
*8772 _371_
*8773 _372_
*8774 _373_
*8775 _374_
*8776 _375_
*8777 _376_
*8778 _377_
*8779 _378_
*8780 _379_
*8781 _380_
*8782 _381_
*8783 _382_
*8784 _383_
*8785 _384_
*8786 _385_
*8787 _386_
*8788 _387_
*8789 _388_
*8790 _389_
*8791 _390_
*8792 _391_
*8793 _392_
*8794 _393_
*8795 _394_
*8796 _395_
*8797 _396_
*8798 _397_
*8799 _398_
*8800 _399_
*8801 _400_
*8802 _401_
*8803 _402_
*8804 _403_
*8805 _404_
*8806 _405_
*8807 _406_
*8808 _407_
*8809 _408_
*8810 _409_
*8811 _410_
*8812 _411_
*8813 _412_
*8814 _413_
*8815 _414_
*8816 _415_
*8817 _416_
*8818 _417_
*8819 _418_
*8820 _419_
*8821 _420_
*8822 _421_
*8823 _422_
*8824 _423_
*8825 _424_
*8826 _425_
*8827 _426_
*8828 _427_
*8829 _428_
*8830 _429_
*8831 _430_
*8832 _431_
*8833 _432_
*8834 _433_
*8835 _434_
*8836 _435_
*8837 _436_
*8838 _437_
*8839 _438_
*8840 _439_
*8841 _440_
*8842 _441_
*8843 _442_
*8844 _443_
*8845 _444_
*8846 _445_
*8847 _446_
*8848 _447_
*8849 _448_
*8850 _449_
*8851 _450_
*8852 _451_
*8853 _452_
*8854 _453_
*8855 _454_
*8856 _455_
*8857 _456_
*8858 _457_
*8859 clkbuf_0_clk
*8860 clkbuf_3_0__f_clk
*8861 clkbuf_3_1__f_clk
*8862 clkbuf_3_2__f_clk
*8863 clkbuf_3_3__f_clk
*8864 clkbuf_3_4__f_clk
*8865 clkbuf_3_5__f_clk
*8866 clkbuf_3_6__f_clk
*8867 clkbuf_3_7__f_clk
*8868 fanout203
*8869 fanout204
*8870 fanout205
*8871 fanout206
*8872 fanout207
*8873 fanout208
*8874 fanout209
*8875 fanout210
*8876 hold1
*8877 hold10
*8878 hold11
*8879 hold2
*8880 hold3
*8881 hold4
*8882 hold5
*8883 hold6
*8884 hold7
*8885 hold8
*8886 hold9
*8887 input1
*8888 input10
*8889 input100
*8890 input11
*8891 input12
*8892 input13
*8893 input14
*8894 input15
*8895 input16
*8896 input17
*8897 input18
*8898 input19
*8899 input2
*8900 input20
*8901 input21
*8902 input22
*8903 input23
*8904 input24
*8905 input25
*8906 input26
*8907 input27
*8908 input28
*8909 input29
*8910 input3
*8911 input30
*8912 input31
*8913 input32
*8914 input33
*8915 input34
*8916 input35
*8917 input36
*8918 input37
*8919 input38
*8920 input39
*8921 input4
*8922 input40
*8923 input41
*8924 input42
*8925 input43
*8926 input44
*8927 input45
*8928 input46
*8929 input47
*8930 input48
*8931 input49
*8932 input5
*8933 input50
*8934 input51
*8935 input52
*8936 input53
*8937 input54
*8938 input55
*8939 input56
*8940 input57
*8941 input58
*8942 input59
*8943 input6
*8944 input60
*8945 input61
*8946 input62
*8947 input63
*8948 input64
*8949 input65
*8950 input66
*8951 input67
*8952 input68
*8953 input69
*8954 input7
*8955 input70
*8956 input71
*8957 input72
*8958 input73
*8959 input74
*8960 input75
*8961 input76
*8962 input77
*8963 input78
*8964 input79
*8965 input8
*8966 input80
*8967 input81
*8968 input82
*8969 input83
*8970 input84
*8971 input85
*8972 input86
*8973 input87
*8974 input88
*8975 input89
*8976 input9
*8977 input90
*8978 input91
*8979 input92
*8980 input93
*8981 input94
*8982 input95
*8983 input96
*8984 input97
*8985 input98
*8986 input99
*8987 output101
*8988 output102
*8989 output103
*8990 output104
*8991 output105
*8992 output106
*8993 output107
*8994 output108
*8995 output109
*8996 output110
*8997 output111
*8998 output112
*8999 output113
*9000 output114
*9001 output115
*9002 output116
*9003 output117
*9004 output118
*9005 output119
*9006 output120
*9007 output121
*9008 output122
*9009 output123
*9010 output124
*9011 output125
*9012 output126
*9013 output127
*9014 output128
*9015 output129
*9016 output130
*9017 output131
*9018 output132
*9019 output133
*9020 output134
*9021 output135
*9022 output136
*9023 output137
*9024 output138
*9025 output139
*9026 output140
*9027 output141
*9028 output142
*9029 output143
*9030 output144
*9031 output145
*9032 output146
*9033 output147
*9034 output148
*9035 output149
*9036 output150
*9037 output151
*9038 output152
*9039 output153
*9040 output154
*9041 output155
*9042 output156
*9043 output157
*9044 output158
*9045 output159
*9046 output160
*9047 output161
*9048 output162
*9049 output163
*9050 output164
*9051 output165
*9052 output166
*9053 output167
*9054 output168
*9055 output169
*9056 output170
*9057 output171
*9058 output172
*9059 output173
*9060 output174
*9061 output175
*9062 output176
*9063 output177
*9064 output178
*9065 output179
*9066 output180
*9067 output181
*9068 output182
*9069 output183
*9070 output184
*9071 output185
*9072 output186
*9073 output187
*9074 output188
*9075 output189
*9076 output190
*9077 output191
*9078 output192
*9079 output193
*9080 output194
*9081 output195
*9082 output196
*9083 output197
*9084 output198
*9085 output199
*9086 output200
*9087 output201
*9088 output202

*PORTS
clk I
m_addr[0] I
m_addr[10] I
m_addr[11] I
m_addr[12] I
m_addr[13] I
m_addr[14] I
m_addr[15] I
m_addr[16] I
m_addr[17] I
m_addr[18] I
m_addr[19] I
m_addr[1] I
m_addr[20] I
m_addr[21] I
m_addr[22] I
m_addr[23] I
m_addr[24] I
m_addr[25] I
m_addr[26] I
m_addr[27] I
m_addr[28] I
m_addr[29] I
m_addr[2] I
m_addr[30] I
m_addr[31] I
m_addr[3] I
m_addr[4] I
m_addr[5] I
m_addr[6] I
m_addr[7] I
m_addr[8] I
m_addr[9] I
m_rdata[0] O
m_rdata[10] O
m_rdata[11] O
m_rdata[12] O
m_rdata[13] O
m_rdata[14] O
m_rdata[15] O
m_rdata[16] O
m_rdata[17] O
m_rdata[18] O
m_rdata[19] O
m_rdata[1] O
m_rdata[20] O
m_rdata[21] O
m_rdata[22] O
m_rdata[23] O
m_rdata[24] O
m_rdata[25] O
m_rdata[26] O
m_rdata[27] O
m_rdata[28] O
m_rdata[29] O
m_rdata[2] O
m_rdata[30] O
m_rdata[31] O
m_rdata[3] O
m_rdata[4] O
m_rdata[5] O
m_rdata[6] O
m_rdata[7] O
m_rdata[8] O
m_rdata[9] O
m_ready O
m_req I
m_wdata[0] I
m_wdata[10] I
m_wdata[11] I
m_wdata[12] I
m_wdata[13] I
m_wdata[14] I
m_wdata[15] I
m_wdata[16] I
m_wdata[17] I
m_wdata[18] I
m_wdata[19] I
m_wdata[1] I
m_wdata[20] I
m_wdata[21] I
m_wdata[22] I
m_wdata[23] I
m_wdata[24] I
m_wdata[25] I
m_wdata[26] I
m_wdata[27] I
m_wdata[28] I
m_wdata[29] I
m_wdata[2] I
m_wdata[30] I
m_wdata[31] I
m_wdata[3] I
m_wdata[4] I
m_wdata[5] I
m_wdata[6] I
m_wdata[7] I
m_wdata[8] I
m_wdata[9] I
m_write I
paddr[0] O
paddr[10] O
paddr[11] O
paddr[12] O
paddr[13] O
paddr[14] O
paddr[15] O
paddr[16] O
paddr[17] O
paddr[18] O
paddr[19] O
paddr[1] O
paddr[20] O
paddr[21] O
paddr[22] O
paddr[23] O
paddr[24] O
paddr[25] O
paddr[26] O
paddr[27] O
paddr[28] O
paddr[29] O
paddr[2] O
paddr[30] O
paddr[31] O
paddr[3] O
paddr[4] O
paddr[5] O
paddr[6] O
paddr[7] O
paddr[8] O
paddr[9] O
pclk O
penable O
prdata[0] I
prdata[10] I
prdata[11] I
prdata[12] I
prdata[13] I
prdata[14] I
prdata[15] I
prdata[16] I
prdata[17] I
prdata[18] I
prdata[19] I
prdata[1] I
prdata[20] I
prdata[21] I
prdata[22] I
prdata[23] I
prdata[24] I
prdata[25] I
prdata[26] I
prdata[27] I
prdata[28] I
prdata[29] I
prdata[2] I
prdata[30] I
prdata[31] I
prdata[3] I
prdata[4] I
prdata[5] I
prdata[6] I
prdata[7] I
prdata[8] I
prdata[9] I
pready I
presetn O
psel O
pwdata[0] O
pwdata[10] O
pwdata[11] O
pwdata[12] O
pwdata[13] O
pwdata[14] O
pwdata[15] O
pwdata[16] O
pwdata[17] O
pwdata[18] O
pwdata[19] O
pwdata[1] O
pwdata[20] O
pwdata[21] O
pwdata[22] O
pwdata[23] O
pwdata[24] O
pwdata[25] O
pwdata[26] O
pwdata[27] O
pwdata[28] O
pwdata[29] O
pwdata[2] O
pwdata[30] O
pwdata[31] O
pwdata[3] O
pwdata[4] O
pwdata[5] O
pwdata[6] O
pwdata[7] O
pwdata[8] O
pwdata[9] O
pwrite O
rstn I

*D_NET *3 0.0369278
*CONN
*P clk I
*I *8859:A I *D sky130_fd_sc_hd__clkbuf_16
*CAP
1 clk 0.0148083
2 *8859:A 0.0148083
3 *8859:A m_rdata[24] 8.06245e-05
4 *8859:A *8653:A 1.92979e-05
5 *8859:A *8655:A2 0.000119831
6 *8859:A *8970:A 0
7 *8859:A *311:58 0.000133731
8 *8859:A *383:14 0.000565662
9 *8859:A *383:112 0.00318467
10 *8859:A *388:113 0.000335082
11 *8859:A *418:20 0.00037881
12 *8859:A *437:18 0.000148552
13 *8859:A *437:50 0.000119689
14 *8859:A *487:26 0
15 *8859:A *489:41 0.000331777
16 *8859:A *489:63 0.000350014
17 *8859:A *514:95 0.00137403
18 *8859:A *612:20 0.000169447
*RES
1 clk *8859:A 37.3868 
*END

*D_NET *4 0.00201251
*CONN
*P m_addr[0] I
*I *8887:A I *D sky130_fd_sc_hd__buf_1
*CAP
1 m_addr[0] 0.000634638
2 *8887:A 0.000634638
3 *8887:A pwdata[0] 0
4 *8887:A *8919:A 8.8266e-05
5 *8887:A *8942:A 0.000339444
6 *8887:A *8982:A 0.000315527
*RES
1 m_addr[0] *8887:A 12.3046 
*END

*D_NET *5 0.000620728
*CONN
*P m_addr[10] I
*I *8899:A I *D sky130_fd_sc_hd__clkbuf_1
*CAP
1 m_addr[10] 0.00027688
2 *8899:A 0.00027688
3 *8899:A m_rdata[24] 0
4 *8899:A *8965:A 0
5 *8899:A *492:12 2.51475e-05
6 *8899:A *585:12 4.18203e-05
*RES
1 m_addr[10] *8899:A 6.9687 
*END

*D_NET *6 0.000686728
*CONN
*P m_addr[11] I
*I *8910:A I *D sky130_fd_sc_hd__buf_1
*CAP
1 m_addr[11] 0.000270035
2 *8910:A 0.000270035
3 *8910:A m_rdata[2] 0
4 *8910:A *8927:A 5.63302e-05
5 *8910:A *465:25 4.36438e-05
6 *8910:A *536:8 4.66826e-05
*RES
1 m_addr[11] *8910:A 7.11697 
*END

*D_NET *7 0.000910157
*CONN
*P m_addr[12] I
*I *8921:A I *D sky130_fd_sc_hd__buf_1
*CAP
1 m_addr[12] 0.000269716
2 *8921:A 0.000269716
3 *8921:A paddr[0] 0
4 *8921:A *8889:A 4.79083e-05
5 *8921:A *412:26 0.000125877
6 *8921:A *418:20 8.57024e-05
7 *8921:A *423:22 6.96023e-05
8 *8921:A *547:16 4.16353e-05
*RES
1 m_addr[12] *8921:A 7.77697 
*END

*D_NET *8 0.000776928
*CONN
*P m_addr[13] I
*I *8932:A I *D sky130_fd_sc_hd__buf_1
*CAP
1 m_addr[13] 0.000386371
2 *8932:A 0.000386371
3 *8932:A *416:36 0
4 *8932:A *417:10 4.18603e-06
5 *8932:A *610:14 0
*RES
1 m_addr[13] *8932:A 10.455 
*END

*D_NET *9 0.000696516
*CONN
*P m_addr[14] I
*I *8943:A I *D sky130_fd_sc_hd__clkbuf_1
*CAP
1 m_addr[14] 0.000295811
2 *8943:A 0.000295811
3 *8943:A *8973:A 0
4 *8943:A *8986:A 4.42044e-05
5 *8943:A *465:25 6.06899e-05
*RES
1 m_addr[14] *8943:A 7.9887 
*END

*D_NET *10 0.000866756
*CONN
*P m_addr[15] I
*I *8954:A I *D sky130_fd_sc_hd__buf_1
*CAP
1 m_addr[15] 0.000386667
2 *8954:A 0.000386667
3 *8954:A *9047:A 8.7152e-06
4 *8954:A *448:22 8.4706e-05
5 *8954:A *554:28 0
*RES
1 m_addr[15] *8954:A 10.455 
*END

*D_NET *11 0.0010808
*CONN
*P m_addr[16] I
*I *8965:A I *D sky130_fd_sc_hd__dlymetal6s2s_1
*CAP
1 m_addr[16] 0.000456368
2 *8965:A 0.000456368
3 *8965:A psel 0
4 *8965:A *8720:A0 5.83121e-06
5 *8965:A *412:40 1.93834e-05
6 *8965:A *423:22 1.79536e-05
7 *8965:A *591:8 0.000124895
8 *8899:A *8965:A 0
*RES
1 m_addr[16] *8965:A 8.05677 
*END

*D_NET *12 0.000924299
*CONN
*P m_addr[17] I
*I *8976:A I *D sky130_fd_sc_hd__clkbuf_2
*CAP
1 m_addr[17] 0.000392318
2 *8976:A 0.000392318
3 *8976:A *502:31 5.30673e-05
4 *8976:A *526:26 8.65961e-05
*RES
1 m_addr[17] *8976:A 10.95 
*END

*D_NET *13 0.000828501
*CONN
*P m_addr[18] I
*I *8888:A I *D sky130_fd_sc_hd__clkbuf_2
*CAP
1 m_addr[18] 0.00041425
2 *8888:A 0.00041425
*RES
1 m_addr[18] *8888:A 10.44 
*END

*D_NET *14 0.00070686
*CONN
*P m_addr[19] I
*I *8890:A I *D sky130_fd_sc_hd__buf_1
*CAP
1 m_addr[19] 0.000342185
2 *8890:A 0.000342185
3 *8890:A *8953:A 0
4 *8890:A *8955:A 2.24901e-05
5 *8890:A *386:33 0
6 *8890:A *506:20 0
*RES
1 m_addr[19] *8890:A 8.68043 
*END

*D_NET *15 0.00101748
*CONN
*P m_addr[1] I
*I *8891:A I *D sky130_fd_sc_hd__clkbuf_1
*CAP
1 m_addr[1] 0.000438074
2 *8891:A 0.000438074
3 *8891:A *9085:A 5.30673e-05
4 *8891:A *526:24 8.8266e-05
*RES
1 m_addr[1] *8891:A 11.655 
*END

*D_NET *16 0.00101173
*CONN
*P m_addr[20] I
*I *8892:A I *D sky130_fd_sc_hd__clkbuf_1
*CAP
1 m_addr[20] 0.000432862
2 *8892:A 0.000432862
3 *8892:A paddr[20] 0
4 *8892:A *8699:A0 2.11084e-05
5 *8892:A *548:22 0.0001249
*RES
1 m_addr[20] *8892:A 11.55 
*END

*D_NET *17 0.00123761
*CONN
*P m_addr[21] I
*I *8893:A I *D sky130_fd_sc_hd__dlymetal6s2s_1
*CAP
1 m_addr[21] 0.000496069
2 *8893:A 0.000496069
3 *8893:A *8923:A 0
4 *8893:A *8935:A 3.40636e-05
5 *8893:A *418:28 0.000106251
6 *8893:A *423:22 0.000105159
*RES
1 m_addr[21] *8893:A 9.07677 
*END

*D_NET *18 0.000861269
*CONN
*P m_addr[22] I
*I *8894:A I *D sky130_fd_sc_hd__clkbuf_2
*CAP
1 m_addr[22] 0.000412635
2 *8894:A 0.000412635
3 *8894:A *448:12 3.59997e-05
*RES
1 m_addr[22] *8894:A 10.44 
*END

*D_NET *19 0.000493569
*CONN
*P m_addr[23] I
*I *8895:A I *D sky130_fd_sc_hd__buf_1
*CAP
1 m_addr[23] 0.000246784
2 *8895:A 0.000246784
3 *8895:A *8912:A 0
4 *8895:A *8951:A 0
5 *8895:A *9087:A 0
*RES
1 m_addr[23] *8895:A 6.89543 
*END

*D_NET *20 0.000564633
*CONN
*P m_addr[24] I
*I *8896:A I *D sky130_fd_sc_hd__buf_1
*CAP
1 m_addr[24] 0.000282317
2 *8896:A 0.000282317
3 *8896:A paddr[24] 0
4 *8896:A *8936:A 0
5 *8896:A *441:24 0
*RES
1 m_addr[24] *8896:A 7.40543 
*END

*D_NET *21 0.00117413
*CONN
*P m_addr[25] I
*I *8897:A I *D sky130_fd_sc_hd__dlymetal6s2s_1
*CAP
1 m_addr[25] 0.000511644
2 *8897:A 0.000511644
3 *8897:A *8963:A 0
4 *8897:A *8973:A 0
5 *8897:A *481:10 0.000150837
*RES
1 m_addr[25] *8897:A 7.57963 
*END

*D_NET *22 0.000734084
*CONN
*P m_addr[26] I
*I *8898:A I *D sky130_fd_sc_hd__clkbuf_2
*CAP
1 m_addr[26] 0.000325832
2 *8898:A 0.000325832
3 *8898:A m_rdata[4] 0
4 *8898:A *8970:A 0
5 *8898:A *492:10 3.11403e-05
6 *8898:A *492:12 6.57981e-06
7 *8898:A *585:12 4.46999e-05
*RES
1 m_addr[26] *8898:A 7.62697 
*END

*D_NET *23 0.00073209
*CONN
*P m_addr[27] I
*I *8900:A I *D sky130_fd_sc_hd__buf_1
*CAP
1 m_addr[27] 0.000298926
2 *8900:A 0.000298926
3 *8900:A paddr[0] 0
4 *8900:A *8923:A 0
5 *8900:A *412:26 4.13879e-05
6 *8900:A *492:12 4.36438e-05
7 *8900:A *504:6 4.92062e-05
*RES
1 m_addr[27] *8900:A 7.11697 
*END

*D_NET *24 0.00065478
*CONN
*P m_addr[28] I
*I *8901:A I *D sky130_fd_sc_hd__clkbuf_2
*CAP
1 m_addr[28] 0.000309393
2 *8901:A 0.000309393
3 *8901:A pwdata[12] 0
4 *8901:A pwdata[13] 3.59949e-05
5 *8901:A *441:24 0
*RES
1 m_addr[28] *8901:A 8.00543 
*END

*D_NET *25 0.00146668
*CONN
*P m_addr[29] I
*I *8902:A I *D sky130_fd_sc_hd__buf_2
*CAP
1 m_addr[29] 0.000474374
2 *8902:A 0.000474374
3 *8902:A m_rdata[15] 0.000335469
4 *8902:A pwdata[6] 0
5 *8902:A *8968:A 3.92005e-05
6 *8902:A *8977:A 0
7 *8902:A *8993:A 0.000143266
*RES
1 m_addr[29] *8902:A 11.2218 
*END

*D_NET *26 0.000893948
*CONN
*P m_addr[2] I
*I *8903:A I *D sky130_fd_sc_hd__buf_1
*CAP
1 m_addr[2] 0.000406974
2 *8903:A 0.000406974
3 *8903:A m_ready 0
4 *8903:A *502:31 4.99619e-05
5 *8903:A *526:26 3.00381e-05
*RES
1 m_addr[2] *8903:A 10.965 
*END

*D_NET *27 0.000749702
*CONN
*P m_addr[30] I
*I *8904:A I *D sky130_fd_sc_hd__buf_1
*CAP
1 m_addr[30] 0.000352833
2 *8904:A 0.000352833
3 *8904:A m_rdata[29] 0
4 *8904:A *8982:A 0
5 *8904:A *471:35 0
6 *8904:A *530:18 4.40358e-05
*RES
1 m_addr[30] *8904:A 8.28697 
*END

*D_NET *28 0.000897416
*CONN
*P m_addr[31] I
*I *8905:A I *D sky130_fd_sc_hd__buf_1
*CAP
1 m_addr[31] 0.000419305
2 *8905:A 0.000419305
3 *8905:A *598:24 5.8807e-05
*RES
1 m_addr[31] *8905:A 10.35 
*END

*D_NET *29 0.000891808
*CONN
*P m_addr[3] I
*I *8906:A I *D sky130_fd_sc_hd__buf_1
*CAP
1 m_addr[3] 0.000445904
2 *8906:A 0.000445904
3 *8906:A *451:20 0
*RES
1 m_addr[3] *8906:A 10.35 
*END

*D_NET *30 0.000727334
*CONN
*P m_addr[4] I
*I *8907:A I *D sky130_fd_sc_hd__clkbuf_1
*CAP
1 m_addr[4] 0.000299895
2 *8907:A 0.000299895
3 *8907:A paddr[18] 0
4 *8907:A pwrite 0
5 *8907:A *441:24 0.000127543
6 *8907:A *603:8 0
*RES
1 m_addr[4] *8907:A 6.2383 
*END

*D_NET *31 0.000864354
*CONN
*P m_addr[5] I
*I *8908:A I *D sky130_fd_sc_hd__buf_1
*CAP
1 m_addr[5] 0.000432177
2 *8908:A 0.000432177
3 *8908:A *593:18 0
*RES
1 m_addr[5] *8908:A 10.35 
*END

*D_NET *32 0.000897176
*CONN
*P m_addr[6] I
*I *8909:A I *D sky130_fd_sc_hd__buf_1
*CAP
1 m_addr[6] 0.000408588
2 *8909:A 0.000408588
3 *8909:A m_rdata[0] 0
4 *8909:A *502:31 4.99619e-05
5 *8909:A *526:26 3.00381e-05
*RES
1 m_addr[6] *8909:A 10.965 
*END

*D_NET *33 0.0010079
*CONN
*P m_addr[7] I
*I *8911:A I *D sky130_fd_sc_hd__clkbuf_1
*CAP
1 m_addr[7] 0.000430978
2 *8911:A 0.000430978
3 *8911:A *8688:A0 7.35813e-05
4 *8911:A *8722:A0 0
5 *8911:A *495:16 0
6 *8911:A *537:20 7.23602e-05
*RES
1 m_addr[7] *8911:A 11.04 
*END

*D_NET *34 0.000664867
*CONN
*P m_addr[8] I
*I *8912:A I *D sky130_fd_sc_hd__clkbuf_2
*CAP
1 m_addr[8] 0.000290561
2 *8912:A 0.000290561
3 *8912:A m_rdata[13] 0
4 *8912:A *9087:A 8.37447e-05
5 *8895:A *8912:A 0
*RES
1 m_addr[8] *8912:A 5.83217 
*END

*D_NET *35 0.000880291
*CONN
*P m_addr[9] I
*I *8913:A I *D sky130_fd_sc_hd__buf_1
*CAP
1 m_addr[9] 0.000400981
2 *8913:A 0.000400981
3 *8913:A *9010:A 3.00381e-05
4 *8913:A *548:22 4.82919e-05
*RES
1 m_addr[9] *8913:A 10.86 
*END

*D_NET *36 0.00124357
*CONN
*P m_rdata[0] O
*I *8987:X O *D sky130_fd_sc_hd__clkbuf_4
*CAP
1 m_rdata[0] 0.000411687
2 *8987:X 0.000411687
3 m_rdata[0] *8987:A 8.8266e-05
4 m_rdata[0] *502:31 9.21168e-05
5 m_rdata[0] *526:26 0.000239813
6 *8909:A m_rdata[0] 0
*RES
1 *8987:X m_rdata[0] 12.33 
*END

*D_NET *37 0.000595401
*CONN
*P m_rdata[10] O
*I *8988:X O *D sky130_fd_sc_hd__clkbuf_4
*CAP
1 m_rdata[10] 0.000276522
2 *8988:X 0.000276522
3 m_rdata[10] paddr[30] 0
4 m_rdata[10] *8935:A 0
5 m_rdata[10] *423:22 1.7635e-05
6 m_rdata[10] *514:78 2.47216e-05
*RES
1 *8988:X m_rdata[10] 5.29677 
*END

*D_NET *38 0.000752091
*CONN
*P m_rdata[11] O
*I *8989:X O *D sky130_fd_sc_hd__clkbuf_4
*CAP
1 m_rdata[11] 0.000348227
2 *8989:X 0.000348227
3 m_rdata[11] paddr[18] 3.45293e-05
4 m_rdata[11] *8968:A 0
5 m_rdata[11] *8977:A 0
6 m_rdata[11] *8989:A 2.11084e-05
*RES
1 *8989:X m_rdata[11] 8.09543 
*END

*D_NET *39 0.00121726
*CONN
*P m_rdata[12] O
*I *8990:X O *D sky130_fd_sc_hd__clkbuf_4
*CAP
1 m_rdata[12] 0.000418062
2 *8990:X 0.000418062
3 m_rdata[12] *502:31 0.000141323
4 m_rdata[12] *526:26 0.000239813
*RES
1 *8990:X m_rdata[12] 12.33 
*END

*D_NET *40 0.000650838
*CONN
*P m_rdata[13] O
*I *8991:X O *D sky130_fd_sc_hd__clkbuf_4
*CAP
1 m_rdata[13] 0.000298966
2 *8991:X 0.000298966
3 m_rdata[13] *8960:A 3.45293e-05
4 m_rdata[13] *8991:A 1.83756e-05
5 *8912:A m_rdata[13] 0
*RES
1 *8991:X m_rdata[13] 7.07543 
*END

*D_NET *41 0.000939104
*CONN
*P m_rdata[14] O
*I *8992:X O *D sky130_fd_sc_hd__clkbuf_4
*CAP
1 m_rdata[14] 0.000444241
2 *8992:X 0.000444241
3 m_rdata[14] *8992:A 3.72916e-05
4 m_rdata[14] *608:14 1.33293e-05
*RES
1 *8992:X m_rdata[14] 11.04 
*END

*D_NET *42 0.00112272
*CONN
*P m_rdata[15] O
*I *8993:X O *D sky130_fd_sc_hd__clkbuf_4
*CAP
1 m_rdata[15] 0.000393626
2 *8993:X 0.000393626
3 m_rdata[15] *8977:A 0
4 *8902:A m_rdata[15] 0.000335469
*RES
1 *8993:X m_rdata[15] 11.04 
*END

*D_NET *43 0.000728554
*CONN
*P m_rdata[16] O
*I *8994:X O *D sky130_fd_sc_hd__clkbuf_4
*CAP
1 m_rdata[16] 0.000364277
2 *8994:X 0.000364277
3 m_rdata[16] pwdata[24] 0
4 m_rdata[16] *463:14 0
*RES
1 *8994:X m_rdata[16] 9.945 
*END

*D_NET *44 0.000911506
*CONN
*P m_rdata[17] O
*I *8995:X O *D sky130_fd_sc_hd__clkbuf_4
*CAP
1 m_rdata[17] 0.000448009
2 *8995:X 0.000448009
3 m_rdata[17] paddr[19] 0
4 m_rdata[17] pwdata[8] 0
5 m_rdata[17] *9030:A 0
6 m_rdata[17] *406:14 1.54878e-05
*RES
1 *8995:X m_rdata[17] 10.53 
*END

*D_NET *45 0.000672138
*CONN
*P m_rdata[18] O
*I *8996:X O *D sky130_fd_sc_hd__clkbuf_4
*CAP
1 m_rdata[18] 0.000312764
2 *8996:X 0.000312764
3 m_rdata[18] pwdata[1] 0
4 m_rdata[18] *8955:A 0
5 m_rdata[18] *405:14 4.66108e-05
*RES
1 *8996:X m_rdata[18] 7.07543 
*END

*D_NET *46 0.000928628
*CONN
*P m_rdata[19] O
*I *8997:X O *D sky130_fd_sc_hd__clkbuf_4
*CAP
1 m_rdata[19] 0.000431051
2 *8997:X 0.000431051
3 m_rdata[19] m_rdata[26] 0
4 m_rdata[19] paddr[8] 0
5 m_rdata[19] *9005:A 6.65267e-05
*RES
1 *8997:X m_rdata[19] 10.53 
*END

*D_NET *47 0.000743632
*CONN
*P m_rdata[1] O
*I *8998:X O *D sky130_fd_sc_hd__clkbuf_4
*CAP
1 m_rdata[1] 0.000371816
2 *8998:X 0.000371816
3 m_rdata[1] *8962:A 0
*RES
1 *8998:X m_rdata[1] 9.945 
*END

*D_NET *48 0.00100356
*CONN
*P m_rdata[20] O
*I *8999:X O *D sky130_fd_sc_hd__clkbuf_4
*CAP
1 m_rdata[20] 0.000438496
2 *8999:X 0.000438496
3 m_rdata[20] *548:22 0.00012657
*RES
1 *8999:X m_rdata[20] 11.04 
*END

*D_NET *49 0.00103897
*CONN
*P m_rdata[21] O
*I *9000:X O *D sky130_fd_sc_hd__clkbuf_4
*CAP
1 m_rdata[21] 0.000417038
2 *9000:X 0.000417038
3 m_rdata[21] paddr[2] 0
4 m_rdata[21] *9048:A 0.000122337
5 m_rdata[21] *9077:A 8.25609e-05
6 m_rdata[21] *598:24 0
*RES
1 *9000:X m_rdata[21] 10.53 
*END

*D_NET *50 0.00160494
*CONN
*P m_rdata[22] O
*I *9001:X O *D sky130_fd_sc_hd__clkbuf_4
*CAP
1 m_rdata[22] 0.000644258
2 *9001:X 0.000644258
3 m_rdata[22] *9015:A 0.000316421
4 m_rdata[22] *410:8 0
*RES
1 *9001:X m_rdata[22] 14.04 
*END

*D_NET *51 0.00100356
*CONN
*P m_rdata[23] O
*I *9002:X O *D sky130_fd_sc_hd__clkbuf_4
*CAP
1 m_rdata[23] 0.000438496
2 *9002:X 0.000438496
3 m_rdata[23] *526:24 0.00012657
*RES
1 *9002:X m_rdata[23] 11.04 
*END

*D_NET *52 0.000772455
*CONN
*P m_rdata[24] O
*I *9003:X O *D sky130_fd_sc_hd__buf_2
*CAP
1 m_rdata[24] 0.00023842
2 *9003:X 0.00023842
3 m_rdata[24] *412:40 0.000108647
4 m_rdata[24] *530:18 0.000106344
5 *8859:A m_rdata[24] 8.06245e-05
6 *8899:A m_rdata[24] 0
*RES
1 *9003:X m_rdata[24] 5.92503 
*END

*D_NET *53 0.000757008
*CONN
*P m_rdata[25] O
*I *9004:X O *D sky130_fd_sc_hd__clkbuf_4
*CAP
1 m_rdata[25] 0.000371304
2 *9004:X 0.000371304
3 m_rdata[25] paddr[12] 0
4 m_rdata[25] pwdata[17] 0
5 m_rdata[25] *9004:A 1.4399e-05
6 m_rdata[25] *441:24 0
*RES
1 *9004:X m_rdata[25] 8.09543 
*END

*D_NET *54 0.00128442
*CONN
*P m_rdata[26] O
*I *9005:X O *D sky130_fd_sc_hd__clkbuf_4
*CAP
1 m_rdata[26] 0.000559362
2 *9005:X 0.000559362
3 m_rdata[26] *9005:A 0.000165698
4 m_rdata[19] m_rdata[26] 0
*RES
1 *9005:X m_rdata[26] 12.255 
*END

*D_NET *55 0.00151402
*CONN
*P m_rdata[27] O
*I *9006:X O *D sky130_fd_sc_hd__clkbuf_4
*CAP
1 m_rdata[27] 0.000724226
2 *9006:X 0.000724226
3 m_rdata[27] m_rdata[28] 5.35969e-06
4 m_rdata[27] paddr[9] 6.02059e-05
5 m_rdata[27] *416:36 0
*RES
1 *9006:X m_rdata[27] 11.4312 
*END

*D_NET *56 0.00166783
*CONN
*P m_rdata[28] O
*I *9007:X O *D sky130_fd_sc_hd__buf_2
*CAP
1 m_rdata[28] 0.000782711
2 *9007:X 0.000782711
3 m_rdata[28] paddr[31] 0
4 m_rdata[28] paddr[9] 6.24871e-05
5 m_rdata[28] *8939:A 0
6 m_rdata[28] *9051:A 3.45588e-05
7 m_rdata[28] *416:36 0
8 m_rdata[27] m_rdata[28] 5.35969e-06
*RES
1 *9007:X m_rdata[28] 11.1098 
*END

*D_NET *57 0.000518474
*CONN
*P m_rdata[29] O
*I *9008:X O *D sky130_fd_sc_hd__buf_2
*CAP
1 m_rdata[29] 0.000217271
2 *9008:X 0.000217271
3 m_rdata[29] *8959:A 5.33544e-05
4 m_rdata[29] *9008:A 1.17114e-05
5 m_rdata[29] *530:18 1.88656e-05
6 *8904:A m_rdata[29] 0
*RES
1 *9008:X m_rdata[29] 4.90503 
*END

*D_NET *58 0.000721069
*CONN
*P m_rdata[2] O
*I *9009:X O *D sky130_fd_sc_hd__clkbuf_4
*CAP
1 m_rdata[2] 0.000343169
2 *9009:X 0.000343169
3 m_rdata[2] *8963:A 0
4 m_rdata[2] *465:25 3.47296e-05
5 *8910:A m_rdata[2] 0
*RES
1 *9009:X m_rdata[2] 7.85543 
*END

*D_NET *59 0.00100356
*CONN
*P m_rdata[30] O
*I *9010:X O *D sky130_fd_sc_hd__clkbuf_4
*CAP
1 m_rdata[30] 0.000438496
2 *9010:X 0.000438496
3 m_rdata[30] *548:22 0.00012657
*RES
1 *9010:X m_rdata[30] 11.04 
*END

*D_NET *60 0.000635942
*CONN
*P m_rdata[31] O
*I *9011:X O *D sky130_fd_sc_hd__clkbuf_4
*CAP
1 m_rdata[31] 0.000317971
2 *9011:X 0.000317971
3 m_rdata[31] paddr[21] 0
4 m_rdata[31] pwdata[30] 0
*RES
1 *9011:X m_rdata[31] 5.9833 
*END

*D_NET *61 0.000672726
*CONN
*P m_rdata[3] O
*I *9012:X O *D sky130_fd_sc_hd__clkbuf_4
*CAP
1 m_rdata[3] 0.000329163
2 *9012:X 0.000329163
3 m_rdata[3] *8918:A 0
4 m_rdata[3] *8953:A 0
5 m_rdata[3] *9012:A 1.4399e-05
6 m_rdata[3] *506:20 0
*RES
1 *9012:X m_rdata[3] 7.33043 
*END

*D_NET *62 0.000423571
*CONN
*P m_rdata[4] O
*I *9013:X O *D sky130_fd_sc_hd__clkbuf_4
*CAP
1 m_rdata[4] 0.00020593
2 *9013:X 0.00020593
3 m_rdata[4] *8959:A 0
4 m_rdata[4] *530:18 1.17114e-05
5 *8898:A m_rdata[4] 0
*RES
1 *9013:X m_rdata[4] 4.84677 
*END

*D_NET *63 0.00157762
*CONN
*P m_rdata[5] O
*I *9014:X O *D sky130_fd_sc_hd__clkbuf_4
*CAP
1 m_rdata[5] 0.000444908
2 *9014:X 0.000444908
3 m_rdata[5] *502:31 0.000256469
4 m_rdata[5] *526:26 0.000431333
*RES
1 *9014:X m_rdata[5] 14.055 
*END

*D_NET *64 0.00100356
*CONN
*P m_rdata[6] O
*I *9015:X O *D sky130_fd_sc_hd__clkbuf_4
*CAP
1 m_rdata[6] 0.000438496
2 *9015:X 0.000438496
3 m_rdata[6] *526:24 0.00012657
*RES
1 *9015:X m_rdata[6] 11.04 
*END

*D_NET *65 0.000782341
*CONN
*P m_rdata[7] O
*I *9016:X O *D sky130_fd_sc_hd__clkbuf_4
*CAP
1 m_rdata[7] 0.000367024
2 *9016:X 0.000367024
3 m_rdata[7] paddr[12] 0
4 m_rdata[7] pwdata[27] 0
5 m_rdata[7] *9016:A 4.82919e-05
6 m_rdata[7] *441:24 0
*RES
1 *9016:X m_rdata[7] 8.09543 
*END

*D_NET *66 0.0011746
*CONN
*P m_rdata[8] O
*I *9017:X O *D sky130_fd_sc_hd__clkbuf_4
*CAP
1 m_rdata[8] 0.00048571
2 *9017:X 0.00048571
3 m_rdata[8] *8944:A 0
4 m_rdata[8] *526:20 0.000203178
*RES
1 *9017:X m_rdata[8] 11.73 
*END

*D_NET *67 0.000726158
*CONN
*P m_rdata[9] O
*I *9018:X O *D sky130_fd_sc_hd__clkbuf_4
*CAP
1 m_rdata[9] 0.000338933
2 *9018:X 0.000338933
3 m_rdata[9] paddr[27] 0
4 m_rdata[9] pwrite 0
5 m_rdata[9] *9018:A 4.82919e-05
6 m_rdata[9] *441:24 0
*RES
1 *9018:X m_rdata[9] 7.58543 
*END

*D_NET *68 0.00160401
*CONN
*P m_ready O
*I *9019:X O *D sky130_fd_sc_hd__clkbuf_4
*CAP
1 m_ready 0.000645076
2 *9019:X 0.000645076
3 m_ready *9015:A 0.000313857
4 m_ready *9019:A 0
5 m_ready *529:8 0
6 *8903:A m_ready 0
*RES
1 *9019:X m_ready 14.04 
*END

*D_NET *69 0.000870707
*CONN
*P m_req I
*I *8914:A I *D sky130_fd_sc_hd__buf_1
*CAP
1 m_req 0.000411207
2 *8914:A 0.000411207
3 *8914:A *548:22 4.82919e-05
*RES
1 m_req *8914:A 10.86 
*END

*D_NET *70 0.000638869
*CONN
*P m_wdata[0] I
*I *8915:A I *D sky130_fd_sc_hd__clkbuf_2
*CAP
1 m_wdata[0] 0.000319435
2 *8915:A 0.000319435
3 *8915:A pwdata[9] 0
4 *8915:A *8964:A 0
5 *8915:A *9087:A 0
*RES
1 m_wdata[0] *8915:A 8.00543 
*END

*D_NET *71 0.000876409
*CONN
*P m_wdata[10] I
*I *8916:A I *D sky130_fd_sc_hd__buf_1
*CAP
1 m_wdata[10] 0.000408167
2 *8916:A 0.000408167
3 *8916:A *526:26 3.00381e-05
4 *8916:A *548:28 3.00381e-05
*RES
1 m_wdata[10] *8916:A 10.965 
*END

*D_NET *72 0.00101893
*CONN
*P m_wdata[11] I
*I *8917:A I *D sky130_fd_sc_hd__clkbuf_1
*CAP
1 m_wdata[11] 0.000412391
2 *8917:A 0.000412391
3 *8917:A *548:22 0.0001249
4 *8917:A *551:20 6.92504e-05
*RES
1 m_wdata[11] *8917:A 11.55 
*END

*D_NET *73 0.000692931
*CONN
*P m_wdata[12] I
*I *8918:A I *D sky130_fd_sc_hd__clkbuf_1
*CAP
1 m_wdata[12] 0.000321862
2 *8918:A 0.000321862
3 *8918:A *8749:A0 4.92062e-05
4 *8918:A *8985:A 0
5 *8918:A *506:20 0
6 m_rdata[3] *8918:A 0
*RES
1 m_wdata[12] *8918:A 8.35043 
*END

*D_NET *74 0.000915932
*CONN
*P m_wdata[13] I
*I *8919:A I *D sky130_fd_sc_hd__clkbuf_2
*CAP
1 m_wdata[13] 0.000413833
2 *8919:A 0.000413833
3 *8919:A *8942:A 0
4 *8887:A *8919:A 8.8266e-05
*RES
1 m_wdata[13] *8919:A 10.95 
*END

*D_NET *75 0.000893948
*CONN
*P m_wdata[14] I
*I *8920:A I *D sky130_fd_sc_hd__buf_1
*CAP
1 m_wdata[14] 0.000406974
2 *8920:A 0.000406974
3 *8920:A *502:31 4.99619e-05
4 *8920:A *526:26 3.00381e-05
*RES
1 m_wdata[14] *8920:A 10.965 
*END

*D_NET *76 0.00174469
*CONN
*P m_wdata[15] I
*I *8922:A I *D sky130_fd_sc_hd__clkbuf_2
*CAP
1 m_wdata[15] 0.000861789
2 *8922:A 0.000861789
3 *8922:A *548:20 2.11084e-05
*RES
1 m_wdata[15] *8922:A 18.675 
*END

*D_NET *77 0.00103247
*CONN
*P m_wdata[16] I
*I *8923:A I *D sky130_fd_sc_hd__buf_1
*CAP
1 m_wdata[16] 0.000317727
2 *8923:A 0.000317727
3 *8923:A *412:26 0.000152503
4 *8923:A *492:12 0.000154806
5 *8923:A *549:6 4.00541e-06
6 *8923:A *549:8 8.57024e-05
7 *8893:A *8923:A 0
8 *8900:A *8923:A 0
*RES
1 m_wdata[16] *8923:A 8.39197 
*END

*D_NET *78 0.00105534
*CONN
*P m_wdata[17] I
*I *8924:A I *D sky130_fd_sc_hd__dlymetal6s2s_1
*CAP
1 m_wdata[17] 0.000479755
2 *8924:A 0.000479755
3 *8924:A paddr[29] 0
4 *8924:A *8986:A 0
5 *8924:A *440:25 8.66976e-06
6 *8924:A *465:25 9.58678e-06
7 *8924:A *550:6 4.00541e-06
8 *8924:A *550:8 7.35729e-05
*RES
1 m_wdata[17] *8924:A 8.77677 
*END

*D_NET *79 0.000884681
*CONN
*P m_wdata[18] I
*I *8925:A I *D sky130_fd_sc_hd__buf_1
*CAP
1 m_wdata[18] 0.000404433
2 *8925:A 0.000404433
3 *8925:A pwdata[25] 0
4 *8925:A *9010:A 2.75229e-05
5 *8925:A *489:65 0
6 *8925:A *548:22 4.82919e-05
*RES
1 m_wdata[18] *8925:A 10.86 
*END

*D_NET *80 0.000901676
*CONN
*P m_wdata[19] I
*I *8926:A I *D sky130_fd_sc_hd__buf_1
*CAP
1 m_wdata[19] 0.000400229
2 *8926:A 0.000400229
3 *8926:A *526:20 0.000101218
*RES
1 m_wdata[19] *8926:A 10.965 
*END

*D_NET *81 0.00116185
*CONN
*P m_wdata[1] I
*I *8927:A I *D sky130_fd_sc_hd__dlymetal6s2s_1
*CAP
1 m_wdata[1] 0.000423888
2 *8927:A 0.000423888
3 *8927:A *8981:A 0
4 *8927:A *436:14 6.44566e-05
5 *8927:A *553:6 0.00012657
6 *8927:A *607:10 6.67166e-05
7 *8910:A *8927:A 5.63302e-05
*RES
1 m_wdata[1] *8927:A 8.92677 
*END

*D_NET *82 0.000883824
*CONN
*P m_wdata[20] I
*I *8928:A I *D sky130_fd_sc_hd__buf_1
*CAP
1 m_wdata[20] 0.000416254
2 *8928:A 0.000416254
3 *8928:A *554:16 5.13155e-05
*RES
1 m_wdata[20] *8928:A 10.455 
*END

*D_NET *83 0.00109153
*CONN
*P m_wdata[21] I
*I *8929:A I *D sky130_fd_sc_hd__clkbuf_1
*CAP
1 m_wdata[21] 0.0003868
2 *8929:A 0.0003868
3 *8929:A paddr[25] 0
4 *8929:A *8624:A 2.63406e-05
5 *8929:A *8666:A0 0.0001249
6 *8929:A *9078:A 0.000166692
*RES
1 m_wdata[21] *8929:A 11.04 
*END

*D_NET *84 0.00110028
*CONN
*P m_wdata[22] I
*I *8930:A I *D sky130_fd_sc_hd__dlymetal6s2s_1
*CAP
1 m_wdata[22] 0.000395651
2 *8930:A 0.000395651
3 *8930:A paddr[14] 7.93779e-05
4 *8930:A pwdata[26] 0
5 *8930:A *9028:A 3.85757e-05
6 *8930:A *436:14 6.44566e-05
7 *8930:A *556:6 0.00012657
*RES
1 m_wdata[22] *8930:A 8.92677 
*END

*D_NET *85 0.000870716
*CONN
*P m_wdata[23] I
*I *8931:A I *D sky130_fd_sc_hd__buf_1
*CAP
1 m_wdata[23] 0.00040192
2 *8931:A 0.00040192
3 *8931:A *416:20 1.88663e-05
4 *8931:A *495:16 0
5 *8931:A *557:14 4.80085e-05
*RES
1 m_wdata[23] *8931:A 10.455 
*END

*D_NET *86 0.000640597
*CONN
*P m_wdata[24] I
*I *8933:A I *D sky130_fd_sc_hd__buf_1
*CAP
1 m_wdata[24] 0.000273379
2 *8933:A 0.000273379
3 *8933:A paddr[21] 0
4 *8933:A *8966:A 3.59949e-05
5 *8933:A *559:14 5.78448e-05
*RES
1 m_wdata[24] *8933:A 6.63177 
*END

*D_NET *87 0.000839804
*CONN
*P m_wdata[25] I
*I *8934:A I *D sky130_fd_sc_hd__buf_1
*CAP
1 m_wdata[25] 0.000377752
2 *8934:A 0.000377752
3 *8934:A *416:20 0
4 *8934:A *442:47 7.76679e-05
5 *8934:A *557:18 0
6 *8934:A *610:16 6.63219e-06
*RES
1 m_wdata[25] *8934:A 10.35 
*END

*D_NET *88 0.000535839
*CONN
*P m_wdata[26] I
*I *8935:A I *D sky130_fd_sc_hd__clkbuf_1
*CAP
1 m_wdata[26] 0.000232524
2 *8935:A 0.000232524
3 *8935:A *412:26 1.87784e-05
4 *8935:A *585:20 1.79483e-05
5 m_rdata[10] *8935:A 0
6 *8893:A *8935:A 3.40636e-05
*RES
1 m_wdata[26] *8935:A 6.0987 
*END

*D_NET *89 0.000593625
*CONN
*P m_wdata[27] I
*I *8936:A I *D sky130_fd_sc_hd__clkbuf_1
*CAP
1 m_wdata[27] 0.000254802
2 *8936:A 0.000254802
3 *8936:A *8780:A0 8.40213e-05
4 *8936:A *8946:A 0
5 *8896:A *8936:A 0
*RES
1 m_wdata[27] *8936:A 7.07543 
*END

*D_NET *90 0.000870707
*CONN
*P m_wdata[28] I
*I *8937:A I *D sky130_fd_sc_hd__buf_1
*CAP
1 m_wdata[28] 0.000411207
2 *8937:A 0.000411207
3 *8937:A *548:22 4.82919e-05
*RES
1 m_wdata[28] *8937:A 10.86 
*END

*D_NET *91 0.000995623
*CONN
*P m_wdata[29] I
*I *8938:A I *D sky130_fd_sc_hd__clkbuf_1
*CAP
1 m_wdata[29] 0.000422294
2 *8938:A 0.000422294
3 *8938:A *8624:A 7.35813e-05
4 *8938:A *451:32 2.67022e-05
5 *8938:A *462:22 0
6 *8938:A *484:28 5.0751e-05
7 *8938:A *598:24 0
*RES
1 m_wdata[29] *8938:A 11.04 
*END

*D_NET *92 0.00184694
*CONN
*P m_wdata[2] I
*I *8939:A I *D sky130_fd_sc_hd__buf_1
*CAP
1 m_wdata[2] 0.000662887
2 *8939:A 0.000662887
3 *8939:A paddr[9] 0
4 *8939:A pwdata[10] 3.45588e-05
5 *8939:A *465:25 0.000206817
6 *8939:A *472:30 0.000279787
7 m_rdata[28] *8939:A 0
*RES
1 m_wdata[2] *8939:A 16.44 
*END

*D_NET *93 0.00102717
*CONN
*P m_wdata[30] I
*I *8940:A I *D sky130_fd_sc_hd__clkbuf_1
*CAP
1 m_wdata[30] 0.000412253
2 *8940:A 0.000412253
3 *8940:A *9038:A 0.0001249
4 *8940:A *582:10 7.35813e-05
5 *8940:A *582:12 4.18603e-06
*RES
1 m_wdata[30] *8940:A 11.04 
*END

*D_NET *94 0.000876409
*CONN
*P m_wdata[31] I
*I *8941:A I *D sky130_fd_sc_hd__buf_1
*CAP
1 m_wdata[31] 0.000408167
2 *8941:A 0.000408167
3 *8941:A *526:26 3.00381e-05
4 *8941:A *548:28 3.00381e-05
*RES
1 m_wdata[31] *8941:A 10.965 
*END

*D_NET *95 0.00239937
*CONN
*P m_wdata[3] I
*I *8942:A I *D sky130_fd_sc_hd__clkbuf_2
*CAP
1 m_wdata[3] 0.000964169
2 *8942:A 0.000964169
3 *8942:A pwdata[0] 0
4 *8942:A *8982:A 1.88358e-05
5 *8942:A *471:35 0
6 *8942:A *545:10 7.81876e-05
7 *8942:A *548:20 3.45679e-05
8 *8887:A *8942:A 0.000339444
9 *8919:A *8942:A 0
*RES
1 m_wdata[3] *8942:A 17.9746 
*END

*D_NET *96 0.000872052
*CONN
*P m_wdata[4] I
*I *8944:A I *D sky130_fd_sc_hd__dlymetal6s2s_1
*CAP
1 m_wdata[4] 0.00041188
2 *8944:A 0.00041188
3 *8944:A *428:18 0
4 *8944:A *526:20 4.82919e-05
5 m_rdata[8] *8944:A 0
*RES
1 m_wdata[4] *8944:A 10.86 
*END

*D_NET *97 0.000897894
*CONN
*P m_wdata[5] I
*I *8945:A I *D sky130_fd_sc_hd__buf_1
*CAP
1 m_wdata[5] 0.000404914
2 *8945:A 0.000404914
3 *8945:A *548:20 8.80664e-05
*RES
1 m_wdata[5] *8945:A 10.965 
*END

*D_NET *98 0.000710703
*CONN
*P m_wdata[6] I
*I *8946:A I *D sky130_fd_sc_hd__clkbuf_1
*CAP
1 m_wdata[6] 0.000311188
2 *8946:A 0.000311188
3 *8946:A pwdata[17] 4.16538e-05
4 *8946:A *8737:A0 4.66742e-05
5 *8946:A *441:24 0
6 *8936:A *8946:A 0
*RES
1 m_wdata[6] *8946:A 8.35043 
*END

*D_NET *99 0.00101981
*CONN
*P m_wdata[7] I
*I *8947:A I *D sky130_fd_sc_hd__clkbuf_1
*CAP
1 m_wdata[7] 0.000420716
2 *8947:A 0.000420716
3 *8947:A paddr[22] 0
4 *8947:A *526:26 0.0001249
5 *8947:A *548:28 5.34747e-05
*RES
1 m_wdata[7] *8947:A 11.655 
*END

*D_NET *100 0.000811983
*CONN
*P m_wdata[8] I
*I *8948:A I *D sky130_fd_sc_hd__buf_1
*CAP
1 m_wdata[8] 0.000405991
2 *8948:A 0.000405991
*RES
1 m_wdata[8] *8948:A 10.455 
*END

*D_NET *101 0.000974428
*CONN
*P m_wdata[9] I
*I *8949:A I *D sky130_fd_sc_hd__buf_1
*CAP
1 m_wdata[9] 0.000298911
2 *8949:A 0.000298911
3 *8949:A pwdata[6] 0.000376607
*RES
1 m_wdata[9] *8949:A 10.965 
*END

*D_NET *102 0.000833091
*CONN
*P m_write I
*I *8950:A I *D sky130_fd_sc_hd__clkbuf_2
*CAP
1 m_write 0.000416546
2 *8950:A 0.000416546
*RES
1 m_write *8950:A 10.44 
*END

*D_NET *103 0.000831431
*CONN
*P paddr[0] O
*I *9020:X O *D sky130_fd_sc_hd__clkbuf_4
*CAP
1 paddr[0] 0.000262061
2 *9020:X 0.000262061
3 paddr[0] *418:28 0.000154806
4 paddr[0] *423:22 0.000152503
5 *8900:A paddr[0] 0
6 *8921:A paddr[0] 0
*RES
1 *9020:X paddr[0] 6.37677 
*END

*D_NET *104 0.000658616
*CONN
*P paddr[10] O
*I *9021:X O *D sky130_fd_sc_hd__buf_2
*CAP
1 paddr[10] 0.000267732
2 *9021:X 0.000267732
3 paddr[10] paddr[30] 0
4 paddr[10] pwdata[31] 0
5 paddr[10] *412:40 6.06649e-05
6 paddr[10] *418:28 6.24871e-05
*RES
1 *9021:X paddr[10] 5.41503 
*END

*D_NET *105 0.000636237
*CONN
*P paddr[11] O
*I *9022:X O *D sky130_fd_sc_hd__clkbuf_4
*CAP
1 paddr[11] 0.000290434
2 *9022:X 0.000290434
3 paddr[11] *8951:A 0
4 paddr[11] *8985:A 3.6993e-05
5 paddr[11] *433:23 1.83756e-05
*RES
1 *9022:X paddr[11] 7.07543 
*END

*D_NET *106 0.000644434
*CONN
*P paddr[12] O
*I *9023:X O *D sky130_fd_sc_hd__clkbuf_4
*CAP
1 paddr[12] 0.000313025
2 *9023:X 0.000313025
3 paddr[12] *434:29 1.83847e-05
4 m_rdata[25] paddr[12] 0
5 m_rdata[7] paddr[12] 0
*RES
1 *9023:X paddr[12] 7.07543 
*END

*D_NET *107 0.00069423
*CONN
*P paddr[13] O
*I *9024:X O *D sky130_fd_sc_hd__clkbuf_4
*CAP
1 paddr[13] 0.000322134
2 *9024:X 0.000322134
3 paddr[13] paddr[16] 0
4 paddr[13] presetn 0
5 paddr[13] *8974:A 0
6 paddr[13] *9024:A 4.99619e-05
7 paddr[13] *9027:A 0
*RES
1 *9024:X paddr[13] 7.33043 
*END

*D_NET *108 0.000674957
*CONN
*P paddr[14] O
*I *9025:X O *D sky130_fd_sc_hd__buf_2
*CAP
1 paddr[14] 0.000235118
2 *9025:X 0.000235118
3 paddr[14] paddr[28] 0
4 paddr[14] *9028:A 8.79281e-05
5 paddr[14] *436:14 8.41703e-06
6 paddr[14] *465:25 2.89976e-05
7 *8930:A paddr[14] 7.93779e-05
*RES
1 *9025:X paddr[14] 5.67003 
*END

*D_NET *109 0.0012233
*CONN
*P paddr[15] O
*I *9026:X O *D sky130_fd_sc_hd__clkbuf_4
*CAP
1 paddr[15] 0.000586276
2 *9026:X 0.000586276
3 paddr[15] paddr[28] 0
4 paddr[15] *8975:A 0
5 paddr[15] *9026:A 5.0751e-05
6 paddr[15] *9028:A 0
*RES
1 *9026:X paddr[15] 7.75963 
*END

*D_NET *110 0.00119058
*CONN
*P paddr[16] O
*I *9027:X O *D sky130_fd_sc_hd__clkbuf_4
*CAP
1 paddr[16] 0.000563658
2 *9027:X 0.000563658
3 paddr[16] *8967:A 1.01661e-05
4 paddr[16] *9062:A 4.13879e-05
5 paddr[16] *593:12 1.17114e-05
6 paddr[13] paddr[16] 0
*RES
1 *9027:X paddr[16] 7.45677 
*END

*D_NET *111 0.00060441
*CONN
*P paddr[17] O
*I *9028:X O *D sky130_fd_sc_hd__buf_2
*CAP
1 paddr[17] 0.000258596
2 *9028:X 0.000258596
3 paddr[17] paddr[31] 4.66616e-05
4 paddr[17] *8975:A 0
5 paddr[17] *465:25 4.05569e-05
*RES
1 *9028:X paddr[17] 5.92503 
*END

*D_NET *112 0.000673343
*CONN
*P paddr[18] O
*I *9029:X O *D sky130_fd_sc_hd__clkbuf_4
*CAP
1 paddr[18] 0.000319407
2 *9029:X 0.000319407
3 paddr[18] *441:24 0
4 m_rdata[11] paddr[18] 3.45293e-05
5 *8907:A paddr[18] 0
*RES
1 *9029:X paddr[18] 7.33043 
*END

*D_NET *113 0.00118716
*CONN
*P paddr[19] O
*I *9030:X O *D sky130_fd_sc_hd__clkbuf_4
*CAP
1 paddr[19] 0.000566134
2 *9030:X 0.000566134
3 paddr[19] *9030:A 3.62385e-05
4 paddr[19] *406:14 1.86482e-05
5 m_rdata[17] paddr[19] 0
*RES
1 *9030:X paddr[19] 13.695 
*END

*D_NET *114 0.00100356
*CONN
*P paddr[1] O
*I *9031:X O *D sky130_fd_sc_hd__clkbuf_4
*CAP
1 paddr[1] 0.000438496
2 *9031:X 0.000438496
3 paddr[1] paddr[4] 0
4 paddr[1] *526:24 0.00012657
*RES
1 *9031:X paddr[1] 11.04 
*END

*D_NET *115 0.00100766
*CONN
*P paddr[20] O
*I *9032:X O *D sky130_fd_sc_hd__clkbuf_4
*CAP
1 paddr[20] 0.000436278
2 *9032:X 0.000436278
3 paddr[20] *526:32 8.53113e-06
4 paddr[20] *548:22 0.00012657
5 *8892:A paddr[20] 0
*RES
1 *9032:X paddr[20] 11.04 
*END

*D_NET *116 0.000604414
*CONN
*P paddr[21] O
*I *9033:X O *D sky130_fd_sc_hd__clkbuf_4
*CAP
1 paddr[21] 0.000302207
2 *9033:X 0.000302207
3 m_rdata[31] paddr[21] 0
4 *8933:A paddr[21] 0
*RES
1 *9033:X paddr[21] 5.27657 
*END

*D_NET *117 0.00124475
*CONN
*P paddr[22] O
*I *9034:X O *D sky130_fd_sc_hd__clkbuf_4
*CAP
1 paddr[22] 0.000416471
2 *9034:X 0.000416471
3 paddr[22] *9034:A 0.000124895
4 paddr[22] *526:26 0.000239813
5 paddr[22] *548:28 4.7101e-05
6 *8947:A paddr[22] 0
*RES
1 *9034:X paddr[22] 12.33 
*END

*D_NET *118 0.00122313
*CONN
*P paddr[23] O
*I *9035:X O *D sky130_fd_sc_hd__clkbuf_4
*CAP
1 paddr[23] 0.000562884
2 *9035:X 0.000562884
3 paddr[23] *8978:A 0
4 paddr[23] *393:10 9.73618e-05
*RES
1 *9035:X paddr[23] 12.36 
*END

*D_NET *119 0.000686475
*CONN
*P paddr[24] O
*I *9036:X O *D sky130_fd_sc_hd__clkbuf_4
*CAP
1 paddr[24] 0.000337541
2 *9036:X 0.000337541
3 paddr[24] pwdata[13] 0
4 paddr[24] *9036:A 1.1392e-05
5 paddr[24] *441:24 0
6 *8896:A paddr[24] 0
*RES
1 *9036:X paddr[24] 7.33043 
*END

*D_NET *120 0.00102757
*CONN
*P paddr[25] O
*I *9037:X O *D sky130_fd_sc_hd__clkbuf_4
*CAP
1 paddr[25] 0.000509033
2 *9037:X 0.000509033
3 paddr[25] *450:20 9.50342e-06
4 *8929:A paddr[25] 0
*RES
1 *9037:X paddr[25] 11.595 
*END

*D_NET *121 0.000776768
*CONN
*P paddr[26] O
*I *9038:X O *D sky130_fd_sc_hd__clkbuf_4
*CAP
1 paddr[26] 0.000332416
2 *9038:X 0.000332416
3 paddr[26] *9049:A 0.000111937
*RES
1 *9038:X paddr[26] 9.945 
*END

*D_NET *122 0.000716568
*CONN
*P paddr[27] O
*I *9039:X O *D sky130_fd_sc_hd__clkbuf_4
*CAP
1 paddr[27] 0.000278619
2 *9039:X 0.000278619
3 paddr[27] pwdata[27] 3.6993e-05
4 paddr[27] *9039:A 0.000122337
5 m_rdata[9] paddr[27] 0
*RES
1 *9039:X paddr[27] 7.76543 
*END

*D_NET *123 0.000530137
*CONN
*P paddr[28] O
*I *9040:X O *D sky130_fd_sc_hd__clkbuf_4
*CAP
1 paddr[28] 0.000242265
2 *9040:X 0.000242265
3 paddr[28] *9028:A 2.51475e-05
4 paddr[28] *465:25 2.04591e-05
5 paddr[14] paddr[28] 0
6 paddr[15] paddr[28] 0
*RES
1 *9040:X paddr[28] 5.55177 
*END

*D_NET *124 0.000535934
*CONN
*P paddr[29] O
*I *9041:X O *D sky130_fd_sc_hd__buf_2
*CAP
1 paddr[29] 0.000241523
2 *9041:X 0.000241523
3 paddr[29] penable 0
4 paddr[29] *412:14 0
5 paddr[29] *440:25 3.19349e-05
6 paddr[29] *465:25 2.09527e-05
7 *8924:A paddr[29] 0
*RES
1 *9041:X paddr[29] 5.41503 
*END

*D_NET *125 0.000787881
*CONN
*P paddr[2] O
*I *9042:X O *D sky130_fd_sc_hd__clkbuf_4
*CAP
1 paddr[2] 0.000393941
2 *9042:X 0.000393941
3 m_rdata[21] paddr[2] 0
*RES
1 *9042:X paddr[2] 9.84 
*END

*D_NET *126 0.000569668
*CONN
*P paddr[30] O
*I *9043:X O *D sky130_fd_sc_hd__buf_2
*CAP
1 paddr[30] 0.000264663
2 *9043:X 0.000264663
3 paddr[30] *412:40 1.92979e-05
4 paddr[30] *418:28 2.10433e-05
5 m_rdata[10] paddr[30] 0
6 paddr[10] paddr[30] 0
*RES
1 *9043:X paddr[30] 4.90503 
*END

*D_NET *127 0.000679039
*CONN
*P paddr[31] O
*I *9044:X O *D sky130_fd_sc_hd__buf_2
*CAP
1 paddr[31] 0.000296627
2 *9044:X 0.000296627
3 paddr[31] *465:25 3.91226e-05
4 m_rdata[28] paddr[31] 0
5 paddr[17] paddr[31] 4.66616e-05
*RES
1 *9044:X paddr[31] 7.3137 
*END

*D_NET *128 0.000985712
*CONN
*P paddr[3] O
*I *9045:X O *D sky130_fd_sc_hd__clkbuf_4
*CAP
1 paddr[3] 0.000450212
2 *9045:X 0.000450212
3 paddr[3] *526:20 8.52883e-05
*RES
1 *9045:X paddr[3] 11.04 
*END

*D_NET *129 0.00100356
*CONN
*P paddr[4] O
*I *9046:X O *D sky130_fd_sc_hd__clkbuf_4
*CAP
1 paddr[4] 0.000438496
2 *9046:X 0.000438496
3 paddr[4] *526:24 0.00012657
4 paddr[1] paddr[4] 0
*RES
1 *9046:X paddr[4] 11.04 
*END

*D_NET *130 0.00102227
*CONN
*P paddr[5] O
*I *9047:X O *D sky130_fd_sc_hd__clkbuf_4
*CAP
1 paddr[5] 0.000448686
2 *9047:X 0.000448686
3 paddr[5] *9061:A 0.0001249
4 paddr[5] *554:28 0
*RES
1 *9047:X paddr[5] 10.53 
*END

*D_NET *131 0.000917522
*CONN
*P paddr[6] O
*I *9048:X O *D sky130_fd_sc_hd__clkbuf_4
*CAP
1 paddr[6] 0.000458761
2 *9048:X 0.000458761
*RES
1 *9048:X paddr[6] 10.635 
*END

*D_NET *132 0.00109649
*CONN
*P paddr[7] O
*I *9049:X O *D sky130_fd_sc_hd__clkbuf_4
*CAP
1 paddr[7] 0.000517518
2 *9049:X 0.000517518
3 paddr[7] *8967:A 0
4 paddr[7] *9049:A 3.00381e-05
5 paddr[7] *9062:A 3.14155e-05
*RES
1 *9049:X paddr[7] 11.775 
*END

*D_NET *133 0.00102288
*CONN
*P paddr[8] O
*I *9050:X O *D sky130_fd_sc_hd__clkbuf_4
*CAP
1 paddr[8] 0.000502246
2 *9050:X 0.000502246
3 paddr[8] *9005:A 1.83847e-05
4 m_rdata[19] paddr[8] 0
*RES
1 *9050:X paddr[8] 12.66 
*END

*D_NET *134 0.000756782
*CONN
*P paddr[9] O
*I *9051:X O *D sky130_fd_sc_hd__clkbuf_4
*CAP
1 paddr[9] 0.000317045
2 *9051:X 0.000317045
3 m_rdata[27] paddr[9] 6.02059e-05
4 m_rdata[28] paddr[9] 6.24871e-05
5 *8939:A paddr[9] 0
*RES
1 *9051:X paddr[9] 9.945 
*END

*D_NET *135 0.00100356
*CONN
*P pclk O
*I *9052:X O *D sky130_fd_sc_hd__buf_1
*CAP
1 pclk 0.000438496
2 *9052:X 0.000438496
3 pclk pwdata[11] 0
4 pclk *9058:A 0.00012657
*RES
1 *9052:X pclk 11.04 
*END

*D_NET *136 0.000566154
*CONN
*P penable O
*I *9053:X O *D sky130_fd_sc_hd__buf_2
*CAP
1 penable 0.000241098
2 *9053:X 0.000241098
3 penable *8889:A 0
4 penable *412:14 7.46883e-05
5 penable *490:10 9.26907e-06
6 paddr[29] penable 0
*RES
1 *9053:X penable 4.90503 
*END

*D_NET *137 0.000668356
*CONN
*P prdata[0] I
*I *8951:A I *D sky130_fd_sc_hd__buf_1
*CAP
1 prdata[0] 0.000309575
2 *8951:A 0.000309575
3 *8951:A *9087:A 4.92063e-05
4 paddr[11] *8951:A 0
5 *8895:A *8951:A 0
*RES
1 prdata[0] *8951:A 5.86003 
*END

*D_NET *138 0.000883169
*CONN
*P prdata[10] I
*I *8952:A I *D sky130_fd_sc_hd__buf_1
*CAP
1 prdata[10] 0.000410282
2 *8952:A 0.000410282
3 *8952:A *502:31 1.08758e-05
4 *8952:A *526:26 3.00381e-05
5 *8952:A *548:28 2.16917e-05
*RES
1 prdata[10] *8952:A 10.965 
*END

*D_NET *139 0.00062353
*CONN
*P prdata[11] I
*I *8953:A I *D sky130_fd_sc_hd__clkbuf_1
*CAP
1 prdata[11] 0.000287162
2 *8953:A 0.000287162
3 *8953:A *8607:A 4.92062e-05
4 *8953:A *506:20 0
5 m_rdata[3] *8953:A 0
6 *8890:A *8953:A 0
*RES
1 prdata[11] *8953:A 7.58543 
*END

*D_NET *140 0.000698331
*CONN
*P prdata[12] I
*I *8955:A I *D sky130_fd_sc_hd__buf_1
*CAP
1 prdata[12] 0.000320035
2 *8955:A 0.000320035
3 *8955:A *386:33 3.57702e-05
4 m_rdata[18] *8955:A 0
5 *8890:A *8955:A 2.24901e-05
*RES
1 prdata[12] *8955:A 5.60503 
*END

*D_NET *141 0.000836765
*CONN
*P prdata[13] I
*I *8956:A I *D sky130_fd_sc_hd__buf_1
*CAP
1 prdata[13] 0.000418382
2 *8956:A 0.000418382
*RES
1 prdata[13] *8956:A 10.35 
*END

*D_NET *142 0.00074473
*CONN
*P prdata[14] I
*I *8957:A I *D sky130_fd_sc_hd__buf_1
*CAP
1 prdata[14] 0.000315845
2 *8957:A 0.000315845
3 *8957:A pwdata[26] 0
4 *8957:A *8981:A 0
5 *8957:A *465:25 6.24871e-05
6 *8957:A *583:8 5.05521e-05
*RES
1 prdata[14] *8957:A 7.62697 
*END

*D_NET *143 0.000865941
*CONN
*P prdata[15] I
*I *8958:A I *D sky130_fd_sc_hd__buf_1
*CAP
1 prdata[15] 0.000346857
2 *8958:A 0.000346857
3 *8958:A *402:12 0
4 *8958:A *463:14 0
5 *8958:A *477:34 8.07785e-05
6 *8958:A *606:12 9.14486e-05
*RES
1 prdata[15] *8958:A 10.35 
*END

*D_NET *144 0.000802533
*CONN
*P prdata[16] I
*I *8959:A I *D sky130_fd_sc_hd__clkbuf_2
*CAP
1 prdata[16] 0.000284655
2 *8959:A 0.000284655
3 *8959:A *530:18 2.37037e-05
4 *8959:A *585:12 0.000156164
5 m_rdata[29] *8959:A 5.33544e-05
6 m_rdata[4] *8959:A 0
*RES
1 prdata[16] *8959:A 7.88197 
*END

*D_NET *145 0.000559823
*CONN
*P prdata[17] I
*I *8960:A I *D sky130_fd_sc_hd__buf_1
*CAP
1 prdata[17] 0.000262647
2 *8960:A 0.000262647
3 *8960:A *8964:A 0
4 *8960:A *9087:A 0
5 m_rdata[13] *8960:A 3.45293e-05
*RES
1 prdata[17] *8960:A 7.40543 
*END

*D_NET *146 0.000895522
*CONN
*P prdata[18] I
*I *8961:A I *D sky130_fd_sc_hd__buf_1
*CAP
1 prdata[18] 0.000409653
2 *8961:A 0.000409653
3 *8961:A *526:26 4.77757e-05
4 *8961:A *548:28 2.84397e-05
*RES
1 prdata[18] *8961:A 10.965 
*END

*D_NET *147 0.000837816
*CONN
*P prdata[19] I
*I *8962:A I *D sky130_fd_sc_hd__buf_1
*CAP
1 prdata[19] 0.000418908
2 *8962:A 0.000418908
3 *8962:A *407:12 0
4 m_rdata[1] *8962:A 0
*RES
1 prdata[19] *8962:A 10.455 
*END

*D_NET *148 0.000712415
*CONN
*P prdata[1] I
*I *8963:A I *D sky130_fd_sc_hd__buf_1
*CAP
1 prdata[1] 0.000312139
2 *8963:A 0.000312139
3 *8963:A *465:25 8.81365e-05
4 m_rdata[2] *8963:A 0
5 *8897:A *8963:A 0
*RES
1 prdata[1] *8963:A 7.26697 
*END

*D_NET *149 0.000435042
*CONN
*P prdata[20] I
*I *8964:A I *D sky130_fd_sc_hd__dlymetal6s2s_1
*CAP
1 prdata[20] 0.000217521
2 *8964:A 0.000217521
3 *8915:A *8964:A 0
4 *8960:A *8964:A 0
*RES
1 prdata[20] *8964:A 6.38543 
*END

*D_NET *150 0.000472652
*CONN
*P prdata[21] I
*I *8966:A I *D sky130_fd_sc_hd__buf_1
*CAP
1 prdata[21] 0.000218329
2 *8966:A 0.000218329
3 *8966:A *8974:A 0
4 *8966:A *559:14 0
5 *8933:A *8966:A 3.59949e-05
*RES
1 prdata[21] *8966:A 6.64043 
*END

*D_NET *151 0.00122565
*CONN
*P prdata[22] I
*I *8967:A I *D sky130_fd_sc_hd__clkbuf_2
*CAP
1 prdata[22] 0.00057212
2 *8967:A 0.00057212
3 *8967:A presetn 0
4 *8967:A *593:12 7.12477e-05
5 paddr[16] *8967:A 1.01661e-05
6 paddr[7] *8967:A 0
*RES
1 prdata[22] *8967:A 10.77 
*END

*D_NET *152 0.00118471
*CONN
*P prdata[23] I
*I *8968:A I *D sky130_fd_sc_hd__buf_1
*CAP
1 prdata[23] 0.000344877
2 *8968:A 0.000344877
3 *8968:A *8977:A 0.000191243
4 *8968:A *8993:A 2.30292e-05
5 *8968:A *526:20 0.000241483
6 m_rdata[11] *8968:A 0
7 *8902:A *8968:A 3.92005e-05
*RES
1 prdata[23] *8968:A 9.95197 
*END

*D_NET *153 0.00058861
*CONN
*P prdata[24] I
*I *8969:A I *D sky130_fd_sc_hd__clkbuf_2
*CAP
1 prdata[24] 0.000275809
2 *8969:A 0.000275809
3 *8969:A pwdata[9] 0
4 *8969:A *8983:A 3.6993e-05
5 *8969:A *609:10 0
*RES
1 prdata[24] *8969:A 7.49543 
*END

*D_NET *154 0.00114513
*CONN
*P prdata[25] I
*I *8970:A I *D sky130_fd_sc_hd__dlymetal6s2s_1
*CAP
1 prdata[25] 0.00049896
2 *8970:A 0.00049896
3 *8970:A *545:10 6.4368e-05
4 *8970:A *568:10 8.28427e-05
5 *8859:A *8970:A 0
6 *8898:A *8970:A 0
*RES
1 prdata[25] *8970:A 7.57963 
*END

*D_NET *155 0.000870707
*CONN
*P prdata[26] I
*I *8971:A I *D sky130_fd_sc_hd__buf_1
*CAP
1 prdata[26] 0.000411207
2 *8971:A 0.000411207
3 *8971:A *548:22 4.82919e-05
*RES
1 prdata[26] *8971:A 10.86 
*END

*D_NET *156 0.000858378
*CONN
*P prdata[27] I
*I *8972:A I *D sky130_fd_sc_hd__buf_1
*CAP
1 prdata[27] 0.000429189
2 *8972:A 0.000429189
*RES
1 prdata[27] *8972:A 10.35 
*END

*D_NET *157 0.00060757
*CONN
*P prdata[28] I
*I *8973:A I *D sky130_fd_sc_hd__clkbuf_1
*CAP
1 prdata[28] 0.000286876
2 *8973:A 0.000286876
3 *8973:A *465:25 3.38178e-05
4 *8897:A *8973:A 0
5 *8943:A *8973:A 0
*RES
1 prdata[28] *8973:A 7.2237 
*END

*D_NET *158 0.000588927
*CONN
*P prdata[29] I
*I *8974:A I *D sky130_fd_sc_hd__buf_2
*CAP
1 prdata[29] 0.000294463
2 *8974:A 0.000294463
3 paddr[13] *8974:A 0
4 *8966:A *8974:A 0
*RES
1 prdata[29] *8974:A 7.66043 
*END

*D_NET *159 0.000631459
*CONN
*P prdata[2] I
*I *8975:A I *D sky130_fd_sc_hd__buf_1
*CAP
1 prdata[2] 0.000288035
2 *8975:A 0.000288035
3 *8975:A *465:25 1.97486e-05
4 *8975:A *601:8 3.56402e-05
5 paddr[15] *8975:A 0
6 paddr[17] *8975:A 0
*RES
1 prdata[2] *8975:A 7.11697 
*END

*D_NET *160 0.00177366
*CONN
*P prdata[30] I
*I *8977:A I *D sky130_fd_sc_hd__clkbuf_2
*CAP
1 prdata[30] 0.000791207
2 *8977:A 0.000791207
3 m_rdata[11] *8977:A 0
4 m_rdata[15] *8977:A 0
5 *8902:A *8977:A 0
6 *8968:A *8977:A 0.000191243
*RES
1 prdata[30] *8977:A 17.655 
*END

*D_NET *161 0.00100976
*CONN
*P prdata[31] I
*I *8978:A I *D sky130_fd_sc_hd__buf_1
*CAP
1 prdata[31] 0.00046581
2 *8978:A 0.00046581
3 *8978:A *393:10 7.35813e-05
4 *8978:A *447:23 4.55864e-06
5 paddr[23] *8978:A 0
*RES
1 prdata[31] *8978:A 11.94 
*END

*D_NET *162 0.000815152
*CONN
*P prdata[3] I
*I *8979:A I *D sky130_fd_sc_hd__buf_1
*CAP
1 prdata[3] 0.000407576
2 *8979:A 0.000407576
*RES
1 prdata[3] *8979:A 10.35 
*END

*D_NET *163 0.000892717
*CONN
*P prdata[4] I
*I *8980:A I *D sky130_fd_sc_hd__buf_1
*CAP
1 prdata[4] 0.000373585
2 *8980:A 0.000373585
3 *8980:A *598:38 0.000145546
*RES
1 prdata[4] *8980:A 10.35 
*END

*D_NET *164 0.000590971
*CONN
*P prdata[5] I
*I *8981:A I *D sky130_fd_sc_hd__clkbuf_2
*CAP
1 prdata[5] 0.000285794
2 *8981:A 0.000285794
3 *8981:A *465:25 1.93834e-05
4 *8927:A *8981:A 0
5 *8957:A *8981:A 0
*RES
1 prdata[5] *8981:A 6.50197 
*END

*D_NET *165 0.00178195
*CONN
*P prdata[6] I
*I *8982:A I *D sky130_fd_sc_hd__buf_1
*CAP
1 prdata[6] 0.000658966
2 *8982:A 0.000658966
3 *8982:A *8992:A 0
4 *8982:A *471:35 4.13879e-05
5 *8982:A *608:14 8.8266e-05
6 *8887:A *8982:A 0.000315527
7 *8904:A *8982:A 0
8 *8942:A *8982:A 1.88358e-05
*RES
1 prdata[6] *8982:A 10.7031 
*END

*D_NET *166 0.000622362
*CONN
*P prdata[7] I
*I *8983:A I *D sky130_fd_sc_hd__buf_1
*CAP
1 prdata[7] 0.000292685
2 *8983:A 0.000292685
3 *8983:A pwdata[30] 0
4 *8969:A *8983:A 3.6993e-05
*RES
1 prdata[7] *8983:A 6.63177 
*END

*D_NET *167 0.000803558
*CONN
*P prdata[8] I
*I *8984:A I *D sky130_fd_sc_hd__clkbuf_2
*CAP
1 prdata[8] 0.000386163
2 *8984:A 0.000386163
3 *8984:A *610:14 3.12319e-05
*RES
1 prdata[8] *8984:A 10.545 
*END

*D_NET *168 0.000541293
*CONN
*P prdata[9] I
*I *8985:A I *D sky130_fd_sc_hd__clkbuf_1
*CAP
1 prdata[9] 0.000234871
2 *8985:A 0.000234871
3 *8985:A *8603:A 3.45588e-05
4 paddr[11] *8985:A 3.6993e-05
5 *8918:A *8985:A 0
*RES
1 prdata[9] *8985:A 7.07543 
*END

*D_NET *169 0.000755477
*CONN
*P pready I
*I *8986:A I *D sky130_fd_sc_hd__buf_1
*CAP
1 pready 0.000305747
2 *8986:A 0.000305747
3 *8986:A *465:25 6.24871e-05
4 *8986:A *612:12 3.72916e-05
5 *8924:A *8986:A 0
6 *8943:A *8986:A 4.42044e-05
*RES
1 pready *8986:A 7.62697 
*END

*D_NET *170 0.00184439
*CONN
*P presetn O
*I *9054:X O *D sky130_fd_sc_hd__clkbuf_4
*CAP
1 presetn 0.000892685
2 *9054:X 0.000892685
3 presetn pwdata[15] 5.90232e-05
4 paddr[13] presetn 0
5 *8967:A presetn 0
*RES
1 *9054:X presetn 18.36 
*END

*D_NET *171 0.000583234
*CONN
*P psel O
*I *9055:X O *D sky130_fd_sc_hd__buf_2
*CAP
1 psel 0.000271902
2 *9055:X 0.000271902
3 psel pwdata[28] 0
4 psel *8678:A0 2.05641e-05
5 psel *412:40 1.88656e-05
6 *8965:A psel 0
*RES
1 *9055:X psel 4.90503 
*END

*D_NET *172 0.000872621
*CONN
*P pwdata[0] O
*I *9056:X O *D sky130_fd_sc_hd__clkbuf_4
*CAP
1 pwdata[0] 0.00043631
2 *9056:X 0.00043631
3 *8887:A pwdata[0] 0
4 *8942:A pwdata[0] 0
*RES
1 *9056:X pwdata[0] 10.695 
*END

*D_NET *173 0.00166401
*CONN
*P pwdata[10] O
*I *9057:X O *D sky130_fd_sc_hd__clkbuf_4
*CAP
1 pwdata[10] 0.000814728
2 *9057:X 0.000814728
3 *8939:A pwdata[10] 3.45588e-05
*RES
1 *9057:X pwdata[10] 17.055 
*END

*D_NET *174 0.0014122
*CONN
*P pwdata[11] O
*I *9058:X O *D sky130_fd_sc_hd__clkbuf_4
*CAP
1 pwdata[11] 0.000558116
2 *9058:X 0.000558116
3 pwdata[11] *8992:A 1.61831e-05
4 pwdata[11] *9058:A 0.000279787
5 pclk pwdata[11] 0
*RES
1 *9058:X pwdata[11] 12.765 
*END

*D_NET *175 0.000647154
*CONN
*P pwdata[12] O
*I *9059:X O *D sky130_fd_sc_hd__clkbuf_4
*CAP
1 pwdata[12] 0.000315756
2 *9059:X 0.000315756
3 pwdata[12] pwdata[1] 0
4 pwdata[12] *9059:A 1.56428e-05
5 *8901:A pwdata[12] 0
*RES
1 *9059:X pwdata[12] 7.07543 
*END

*D_NET *176 0.000711878
*CONN
*P pwdata[13] O
*I *9060:X O *D sky130_fd_sc_hd__clkbuf_4
*CAP
1 pwdata[13] 0.00033012
2 *9060:X 0.00033012
3 pwdata[13] *441:24 0
4 pwdata[13] *475:12 1.56428e-05
5 paddr[24] pwdata[13] 0
6 *8901:A pwdata[13] 3.59949e-05
*RES
1 *9060:X pwdata[13] 7.58543 
*END

*D_NET *177 0.00119022
*CONN
*P pwdata[14] O
*I *9061:X O *D sky130_fd_sc_hd__clkbuf_4
*CAP
1 pwdata[14] 0.000538666
2 *9061:X 0.000538666
3 pwdata[14] pwdata[3] 0
4 pwdata[14] *9061:A 4.8684e-05
5 pwdata[14] *9081:A 6.42051e-05
*RES
1 *9061:X pwdata[14] 11.325 
*END

*D_NET *178 0.00191261
*CONN
*P pwdata[15] O
*I *9062:X O *D sky130_fd_sc_hd__clkbuf_4
*CAP
1 pwdata[15] 0.000926794
2 *9062:X 0.000926794
3 presetn pwdata[15] 5.90232e-05
*RES
1 *9062:X pwdata[15] 18.015 
*END

*D_NET *179 0.000955372
*CONN
*P pwdata[16] O
*I *9063:X O *D sky130_fd_sc_hd__clkbuf_4
*CAP
1 pwdata[16] 0.000477686
2 *9063:X 0.000477686
*RES
1 *9063:X pwdata[16] 10.53 
*END

*D_NET *180 0.00067535
*CONN
*P pwdata[17] O
*I *9064:X O *D sky130_fd_sc_hd__clkbuf_4
*CAP
1 pwdata[17] 0.000293543
2 *9064:X 0.000293543
3 pwdata[17] *9064:A 4.66108e-05
4 m_rdata[25] pwdata[17] 0
5 *8946:A pwdata[17] 4.16538e-05
*RES
1 *9064:X pwdata[17] 7.07543 
*END

*D_NET *181 0.00114297
*CONN
*P pwdata[18] O
*I *9065:X O *D sky130_fd_sc_hd__clkbuf_4
*CAP
1 pwdata[18] 0.000489303
2 *9065:X 0.000489303
3 pwdata[18] *526:20 0.00016436
*RES
1 *9065:X pwdata[18] 11.94 
*END

*D_NET *182 0.00121726
*CONN
*P pwdata[19] O
*I *9066:X O *D sky130_fd_sc_hd__clkbuf_4
*CAP
1 pwdata[19] 0.000418062
2 *9066:X 0.000418062
3 pwdata[19] *502:31 0.000141323
4 pwdata[19] *526:26 0.000239813
*RES
1 *9066:X pwdata[19] 12.33 
*END

*D_NET *183 0.00088954
*CONN
*P pwdata[1] O
*I *9067:X O *D sky130_fd_sc_hd__clkbuf_4
*CAP
1 pwdata[1] 0.000425472
2 *9067:X 0.000425472
3 pwdata[1] *427:16 1.92979e-05
4 pwdata[1] *452:20 1.92979e-05
5 m_rdata[18] pwdata[1] 0
6 pwdata[12] pwdata[1] 0
*RES
1 *9067:X pwdata[1] 5.41423 
*END

*D_NET *184 0.000743605
*CONN
*P pwdata[20] O
*I *9068:X O *D sky130_fd_sc_hd__clkbuf_4
*CAP
1 pwdata[20] 0.000371802
2 *9068:X 0.000371802
3 pwdata[20] pwdata[29] 0
4 pwdata[20] *9077:A 0
*RES
1 *9068:X pwdata[20] 9.945 
*END

*D_NET *185 0.000859426
*CONN
*P pwdata[21] O
*I *9069:X O *D sky130_fd_sc_hd__clkbuf_4
*CAP
1 pwdata[21] 0.000325818
2 *9069:X 0.000325818
3 pwdata[21] *9069:A 0.00020779
*RES
1 *9069:X pwdata[21] 9.945 
*END

*D_NET *186 0.000972568
*CONN
*P pwdata[22] O
*I *9070:X O *D sky130_fd_sc_hd__clkbuf_4
*CAP
1 pwdata[22] 0.000442151
2 *9070:X 0.000442151
3 pwdata[22] *548:22 8.8266e-05
*RES
1 *9070:X pwdata[22] 11.25 
*END

*D_NET *187 0.0012341
*CONN
*P pwdata[23] O
*I *9071:X O *D sky130_fd_sc_hd__clkbuf_4
*CAP
1 pwdata[23] 0.000441634
2 *9071:X 0.000441634
3 pwdata[23] *425:14 0.000162311
4 pwdata[23] *487:26 2.7881e-05
5 pwdata[23] *502:31 0.000160641
*RES
1 *9071:X pwdata[23] 12.405 
*END

*D_NET *188 0.000892015
*CONN
*P pwdata[24] O
*I *9072:X O *D sky130_fd_sc_hd__clkbuf_4
*CAP
1 pwdata[24] 0.000444678
2 *9072:X 0.000444678
3 pwdata[24] *416:20 0
4 pwdata[24] *484:26 2.65814e-06
5 m_rdata[16] pwdata[24] 0
*RES
1 *9072:X pwdata[24] 10.53 
*END

*D_NET *189 0.00100356
*CONN
*P pwdata[25] O
*I *9073:X O *D sky130_fd_sc_hd__clkbuf_4
*CAP
1 pwdata[25] 0.000438496
2 *9073:X 0.000438496
3 pwdata[25] *548:22 0.00012657
4 *8925:A pwdata[25] 0
*RES
1 *9073:X pwdata[25] 11.04 
*END

*D_NET *190 0.000499398
*CONN
*P pwdata[26] O
*I *9074:X O *D sky130_fd_sc_hd__buf_2
*CAP
1 pwdata[26] 0.00023413
2 *9074:X 0.00023413
3 pwdata[26] *9028:A 2.10433e-05
4 pwdata[26] *436:14 1.00941e-05
5 *8930:A pwdata[26] 0
6 *8957:A pwdata[26] 0
*RES
1 *9074:X pwdata[26] 4.90503 
*END

*D_NET *191 0.000670542
*CONN
*P pwdata[27] O
*I *9075:X O *D sky130_fd_sc_hd__clkbuf_4
*CAP
1 pwdata[27] 0.000292629
2 *9075:X 0.000292629
3 pwdata[27] *9075:A 4.82919e-05
4 m_rdata[7] pwdata[27] 0
5 paddr[27] pwdata[27] 3.6993e-05
*RES
1 *9075:X pwdata[27] 7.07543 
*END

*D_NET *192 0.000777035
*CONN
*P pwdata[28] O
*I *9076:X O *D sky130_fd_sc_hd__buf_2
*CAP
1 pwdata[28] 0.000255836
2 *9076:X 0.000255836
3 pwdata[28] pwdata[31] 5.0372e-05
4 pwdata[28] *412:40 0.000106344
5 pwdata[28] *418:28 0.000108647
6 psel pwdata[28] 0
*RES
1 *9076:X pwdata[28] 5.92503 
*END

*D_NET *193 0.000924946
*CONN
*P pwdata[29] O
*I *9077:X O *D sky130_fd_sc_hd__clkbuf_4
*CAP
1 pwdata[29] 0.000430262
2 *9077:X 0.000430262
3 pwdata[29] *9077:A 6.4422e-05
4 pwdata[20] pwdata[29] 0
*RES
1 *9077:X pwdata[29] 10.635 
*END

*D_NET *194 0.00102409
*CONN
*P pwdata[2] O
*I *9078:X O *D sky130_fd_sc_hd__clkbuf_4
*CAP
1 pwdata[2] 0.000448634
2 *9078:X 0.000448634
3 pwdata[2] *485:24 0.000126824
4 pwdata[2] *593:18 0
*RES
1 *9078:X pwdata[2] 11.31 
*END

*D_NET *195 0.00052567
*CONN
*P pwdata[30] O
*I *9079:X O *D sky130_fd_sc_hd__clkbuf_4
*CAP
1 pwdata[30] 0.000262835
2 *9079:X 0.000262835
3 m_rdata[31] pwdata[30] 0
4 *8983:A pwdata[30] 0
*RES
1 *9079:X pwdata[30] 4.9633 
*END

*D_NET *196 0.00079162
*CONN
*P pwdata[31] O
*I *9080:X O *D sky130_fd_sc_hd__buf_2
*CAP
1 pwdata[31] 0.000304573
2 *9080:X 0.000304573
3 pwdata[31] *492:12 6.72027e-05
4 pwdata[31] *585:16 6.49e-05
5 paddr[10] pwdata[31] 0
6 pwdata[28] pwdata[31] 5.0372e-05
*RES
1 *9080:X pwdata[31] 7.02697 
*END

*D_NET *197 0.000843124
*CONN
*P pwdata[3] O
*I *9081:X O *D sky130_fd_sc_hd__clkbuf_4
*CAP
1 pwdata[3] 0.000421562
2 *9081:X 0.000421562
3 pwdata[14] pwdata[3] 0
*RES
1 *9081:X pwdata[3] 9.84 
*END

*D_NET *198 0.00100356
*CONN
*P pwdata[4] O
*I *9082:X O *D sky130_fd_sc_hd__clkbuf_4
*CAP
1 pwdata[4] 0.000438496
2 *9082:X 0.000438496
3 pwdata[4] pwdata[5] 0
4 pwdata[4] *548:22 0.00012657
*RES
1 *9082:X pwdata[4] 11.04 
*END

*D_NET *199 0.00100356
*CONN
*P pwdata[5] O
*I *9083:X O *D sky130_fd_sc_hd__clkbuf_4
*CAP
1 pwdata[5] 0.000438496
2 *9083:X 0.000438496
3 pwdata[5] *548:22 0.00012657
4 pwdata[4] pwdata[5] 0
*RES
1 *9083:X pwdata[5] 11.04 
*END

*D_NET *200 0.00263633
*CONN
*P pwdata[6] O
*I *9084:X O *D sky130_fd_sc_hd__clkbuf_4
*CAP
1 pwdata[6] 0.00110572
2 *9084:X 0.00110572
3 pwdata[6] *9084:A 4.82863e-05
4 *8902:A pwdata[6] 0
5 *8949:A pwdata[6] 0.000376607
*RES
1 *9084:X pwdata[6] 17.599 
*END

*D_NET *201 0.00100356
*CONN
*P pwdata[7] O
*I *9085:X O *D sky130_fd_sc_hd__clkbuf_4
*CAP
1 pwdata[7] 0.000438496
2 *9085:X 0.000438496
3 pwdata[7] *526:24 0.00012657
*RES
1 *9085:X pwdata[7] 11.04 
*END

*D_NET *202 0.00083833
*CONN
*P pwdata[8] O
*I *9086:X O *D sky130_fd_sc_hd__clkbuf_4
*CAP
1 pwdata[8] 0.000419165
2 *9086:X 0.000419165
3 m_rdata[17] pwdata[8] 0
*RES
1 *9086:X pwdata[8] 10.185 
*END

*D_NET *203 0.000660135
*CONN
*P pwdata[9] O
*I *9087:X O *D sky130_fd_sc_hd__clkbuf_4
*CAP
1 pwdata[9] 0.000330067
2 *9087:X 0.000330067
3 pwdata[9] *609:10 0
4 *8915:A pwdata[9] 0
5 *8969:A pwdata[9] 0
*RES
1 *9087:X pwdata[9] 7.33043 
*END

*D_NET *204 0.000700689
*CONN
*P pwrite O
*I *9088:X O *D sky130_fd_sc_hd__clkbuf_4
*CAP
1 pwrite 0.000340912
2 *9088:X 0.000340912
3 pwrite *603:8 1.88656e-05
4 m_rdata[9] pwrite 0
5 *8907:A pwrite 0
*RES
1 *9088:X pwrite 5.1381 
*END

*D_NET *205 0.00108593
*CONN
*P rstn I
*I *8889:A I *D sky130_fd_sc_hd__clkbuf_2
*CAP
1 rstn 0.000285334
2 *8889:A 0.000285334
3 *8889:A *9053:A 0
4 *8889:A *412:26 0.000265799
5 *8889:A *423:20 7.60965e-05
6 *8889:A *423:22 0.000125456
7 penable *8889:A 0
8 *8921:A *8889:A 4.79083e-05
*RES
1 rstn *8889:A 9.30697 
*END

*D_NET *206 0.00149495
*CONN
*I *8790:D I *D sky130_fd_sc_hd__dfrtp_4
*I *8653:X O *D sky130_fd_sc_hd__clkbuf_1
*CAP
1 *8790:D 0.000465114
2 *8653:X 0.000465114
3 *8790:D *8701:A0 0.00015896
4 *8790:D *8701:S 2.8185e-05
5 *8790:D *8702:A 0.000228889
6 *8790:D *437:50 7.6327e-05
7 *8790:D *451:18 7.23602e-05
*RES
1 *8653:X *8790:D 14.85 
*END

*D_NET *207 0.000422467
*CONN
*I *8791:D I *D sky130_fd_sc_hd__dfrtp_1
*I *8654:Y O *D sky130_fd_sc_hd__inv_2
*CAP
1 *8791:D 0.000163669
2 *8654:Y 0.000163669
3 *8791:D *8791:CLK 4.80285e-05
4 *8791:D *311:36 4.7101e-05
*RES
1 *8654:Y *8791:D 5.39 
*END

*D_NET *208 0.00328994
*CONN
*I *8792:D I *D sky130_fd_sc_hd__dfrtp_1
*I *8655:Y O *D sky130_fd_sc_hd__o21ai_1
*CAP
1 *8792:D 0.00104818
2 *8655:Y 0.00104818
3 *8792:D *8656:S 3.52139e-06
4 *8792:D *311:36 0.000430534
5 *8792:D *467:8 0.000507936
6 *8792:D *489:63 0.000219765
7 *8792:D *489:65 0
8 *8792:D *612:20 3.18219e-05
*RES
1 *8655:Y *8792:D 22.8487 
*END

*D_NET *209 0.000194145
*CONN
*I *8793:D I *D sky130_fd_sc_hd__dfrtp_1
*I *8657:X O *D sky130_fd_sc_hd__clkbuf_1
*CAP
1 *8793:D 4.96997e-05
2 *8657:X 4.96997e-05
3 *8793:D *514:55 0
4 *8793:D *539:12 9.47454e-05
*RES
1 *8657:X *8793:D 8.325 
*END

*D_NET *210 0.000453862
*CONN
*I *8794:D I *D sky130_fd_sc_hd__dfrtp_1
*I *8659:X O *D sky130_fd_sc_hd__clkbuf_1
*CAP
1 *8794:D 0.000164121
2 *8659:X 0.000164121
3 *8794:D *570:20 0.000125621
*RES
1 *8659:X *8794:D 6.08 
*END

*D_NET *211 0.000266677
*CONN
*I *8795:D I *D sky130_fd_sc_hd__dfrtp_2
*I *8661:X O *D sky130_fd_sc_hd__clkbuf_1
*CAP
1 *8795:D 7.69219e-05
2 *8661:X 7.69219e-05
3 *8795:D *8795:CLK 1.7386e-05
4 *8795:D *602:14 9.54469e-05
*RES
1 *8661:X *8795:D 8.775 
*END

*D_NET *212 0.000702668
*CONN
*I *8796:D I *D sky130_fd_sc_hd__dfrtp_4
*I *8663:X O *D sky130_fd_sc_hd__clkbuf_1
*CAP
1 *8796:D 0.000232336
2 *8663:X 0.000232336
3 *8796:D *8663:A 3.86607e-05
4 *8796:D *8796:CLK 0.000160675
5 *8796:D *8796:RESET_B 3.86607e-05
*RES
1 *8663:X *8796:D 10.6388 
*END

*D_NET *213 0.00041252
*CONN
*I *8797:D I *D sky130_fd_sc_hd__dfrtp_1
*I *8665:X O *D sky130_fd_sc_hd__clkbuf_1
*CAP
1 *8797:D 0.000151338
2 *8665:X 0.000151338
3 *8797:D *480:24 0.000109845
*RES
1 *8665:X *8797:D 6.08 
*END

*D_NET *214 0.0012508
*CONN
*I *8798:D I *D sky130_fd_sc_hd__dfrtp_1
*I *8667:X O *D sky130_fd_sc_hd__clkbuf_1
*CAP
1 *8798:D 0.000229045
2 *8667:X 0.000229045
3 *8798:D *8625:A 0.000158297
4 *8798:D *8667:A 0.000131463
5 *8798:D *8670:S 0.000309035
6 *8798:D *311:163 0.000127366
7 *8798:D *576:22 6.65534e-05
*RES
1 *8667:X *8798:D 13.2 
*END

*D_NET *215 0.000193052
*CONN
*I *8799:D I *D sky130_fd_sc_hd__dfrtp_2
*I *8669:X O *D sky130_fd_sc_hd__clkbuf_1
*CAP
1 *8799:D 9.65261e-05
2 *8669:X 9.65261e-05
3 *8799:D *8799:RESET_B 0
*RES
1 *8669:X *8799:D 8.325 
*END

*D_NET *216 0.000624243
*CONN
*I *8800:D I *D sky130_fd_sc_hd__dfrtp_2
*I *8671:X O *D sky130_fd_sc_hd__clkbuf_1
*CAP
1 *8800:D 0.000118557
2 *8671:X 0.000118557
3 *8800:D *8768:S 0.00015997
4 *8800:D *8845:CLK 6.71882e-05
5 *8800:D *606:14 0.00015997
*RES
1 *8671:X *8800:D 10.23 
*END

*D_NET *217 0.000737444
*CONN
*I *8801:D I *D sky130_fd_sc_hd__dfrtp_1
*I *8675:X O *D sky130_fd_sc_hd__clkbuf_1
*CAP
1 *8801:D 0.000202131
2 *8675:X 0.000202131
3 *8801:D *8674:S 2.49909e-05
4 *8801:D *8675:A 1.19928e-05
5 *8801:D *8770:A0 3.32709e-05
6 *8801:D *322:14 0.000160651
7 *8801:D *389:55 6.51854e-05
8 *8801:D *556:12 1.80242e-05
9 *8801:D *589:16 1.90662e-05
*RES
1 *8675:X *8801:D 11.025 
*END

*D_NET *218 0.000982006
*CONN
*I *8802:D I *D sky130_fd_sc_hd__dfrtp_2
*I *8677:X O *D sky130_fd_sc_hd__clkbuf_1
*CAP
1 *8802:D 0.000278391
2 *8677:X 0.000278391
3 *8802:D *8676:A1 0.000120655
4 *8802:D *322:87 0.000248247
5 *8802:D *389:117 5.63214e-05
*RES
1 *8677:X *8802:D 12.0938 
*END

*D_NET *219 0.000445782
*CONN
*I *8803:D I *D sky130_fd_sc_hd__dfrtp_1
*I *8679:X O *D sky130_fd_sc_hd__clkbuf_1
*CAP
1 *8803:D 0.000123421
2 *8679:X 0.000123421
3 *8803:D *8823:RESET_B 0.000198939
*RES
1 *8679:X *8803:D 5.735 
*END

*D_NET *220 0.000415312
*CONN
*I *8804:D I *D sky130_fd_sc_hd__dfrtp_4
*I *8681:X O *D sky130_fd_sc_hd__clkbuf_1
*CAP
1 *8804:D 0.000150435
2 *8681:X 0.000150435
3 *8804:D *388:28 6.74079e-05
4 *8804:D *453:14 4.70343e-05
*RES
1 *8681:X *8804:D 9.72 
*END

*D_NET *221 0.000404124
*CONN
*I *8805:D I *D sky130_fd_sc_hd__dfrtp_4
*I *8683:X O *D sky130_fd_sc_hd__clkbuf_1
*CAP
1 *8805:D 0.000109498
2 *8683:X 0.000109498
3 *8805:D *434:21 9.54469e-05
4 *8805:D *437:50 3.94592e-05
5 *8805:D *597:12 5.02217e-05
*RES
1 *8683:X *8805:D 9.465 
*END

*D_NET *222 0.000445259
*CONN
*I *8806:D I *D sky130_fd_sc_hd__dfrtp_2
*I *8685:X O *D sky130_fd_sc_hd__clkbuf_1
*CAP
1 *8806:D 0.000196972
2 *8685:X 0.000196972
3 *8806:D *8688:A0 5.13155e-05
4 *8806:D *344:138 0
*RES
1 *8685:X *8806:D 9.81 
*END

*D_NET *223 0.00024692
*CONN
*I *8807:D I *D sky130_fd_sc_hd__dfrtp_1
*I *8687:X O *D sky130_fd_sc_hd__clkbuf_1
*CAP
1 *8807:D 9.74116e-05
2 *8687:X 9.74116e-05
3 *8807:D *8687:A 5.20968e-05
*RES
1 *8687:X *8807:D 8.775 
*END

*D_NET *224 0.000374036
*CONN
*I *8808:D I *D sky130_fd_sc_hd__dfrtp_1
*I *8689:X O *D sky130_fd_sc_hd__clkbuf_1
*CAP
1 *8808:D 0.000129893
2 *8689:X 0.000129893
3 *8808:D *8806:CLK 7.01132e-05
4 *8808:D *389:18 4.41356e-05
*RES
1 *8689:X *8808:D 5.735 
*END

*D_NET *225 0.000376642
*CONN
*I *8809:D I *D sky130_fd_sc_hd__dfrtp_4
*I *8691:X O *D sky130_fd_sc_hd__clkbuf_1
*CAP
1 *8809:D 0.000116689
2 *8691:X 0.000116689
3 *8809:D *8809:RESET_B 0
4 *8809:D *388:39 4.05358e-05
5 *8809:D *585:40 3.03684e-05
6 *8809:D *597:12 7.23602e-05
*RES
1 *8691:X *8809:D 9.225 
*END

*D_NET *226 0.000448437
*CONN
*I *8810:D I *D sky130_fd_sc_hd__dfrtp_2
*I *8693:X O *D sky130_fd_sc_hd__clkbuf_1
*CAP
1 *8810:D 0.000172921
2 *8693:X 0.000172921
3 *8810:D *8693:A 0.000102594
*RES
1 *8693:X *8810:D 5.735 
*END

*D_NET *227 0.00147934
*CONN
*I *8811:D I *D sky130_fd_sc_hd__dfrtp_4
*I *8696:X O *D sky130_fd_sc_hd__clkbuf_1
*CAP
1 *8811:D 0.000443269
2 *8696:X 0.000443269
3 *8811:D *8711:A0 4.61932e-05
4 *8811:D *8755:A1 3.09233e-05
5 *8811:D *355:60 0.000160651
6 *8811:D *477:6 0.000198939
7 *8811:D *508:65 0.000156091
*RES
1 *8696:X *8811:D 14.49 
*END

*D_NET *228 0.00287063
*CONN
*I *8812:D I *D sky130_fd_sc_hd__dfrtp_2
*I *8698:X O *D sky130_fd_sc_hd__clkbuf_1
*CAP
1 *8812:D 0.000743795
2 *8698:X 0.000743795
3 *8812:D *8697:A1 0.000440847
4 *8812:D *8698:A 4.35717e-05
5 *8812:D *8760:A0 6.07532e-05
6 *8812:D *8761:A 0.000131489
7 *8812:D *8776:A0 0.000122331
8 *8812:D *8776:A1 5.83121e-06
9 *8812:D *8777:A 0.000198046
10 *8812:D *366:32 8.53113e-06
11 *8812:D *366:90 0.000289298
12 *8812:D *437:50 8.23457e-05
*RES
1 *8698:X *8812:D 20.4788 
*END

*D_NET *229 0.000348227
*CONN
*I *8813:D I *D sky130_fd_sc_hd__dfrtp_1
*I *8700:X O *D sky130_fd_sc_hd__clkbuf_1
*CAP
1 *8813:D 0.000149458
2 *8700:X 0.000149458
3 *8813:D *8699:A0 0
4 *8813:D *8699:S 2.937e-05
5 *8813:D *8813:RESET_B 5.83121e-06
6 *8813:D *390:44 1.41095e-05
7 *8813:D *542:8 0
*RES
1 *8700:X *8813:D 9.48 
*END

*D_NET *230 0.00229901
*CONN
*I *8814:D I *D sky130_fd_sc_hd__dfrtp_4
*I *8702:X O *D sky130_fd_sc_hd__clkbuf_1
*CAP
1 *8814:D 0.000848914
2 *8702:X 0.000848914
3 *8814:D *8796:CLK 0.000134922
4 *8814:D *8814:CLK 4.41506e-05
5 *8814:D *385:101 9.02259e-05
6 *8814:D *385:103 0.000155436
7 *8814:D *445:16 0.000170617
8 *8814:D *508:27 5.83121e-06
*RES
1 *8702:X *8814:D 15.41 
*END

*D_NET *231 0.00130109
*CONN
*I *8815:D I *D sky130_fd_sc_hd__dfrtp_1
*I *8704:X O *D sky130_fd_sc_hd__clkbuf_1
*CAP
1 *8815:D 0.000487767
2 *8704:X 0.000487767
3 *8815:D *8696:A 9.2741e-05
4 *8815:D *8703:A1 0
5 *8815:D *8760:A0 0
6 *8815:D *8814:RESET_B 2.86623e-05
7 *8815:D *8868:A 0.000176629
8 *8815:D *430:123 0
9 *8815:D *437:50 2.75229e-05
*RES
1 *8704:X *8815:D 16.125 
*END

*D_NET *232 0.000426342
*CONN
*I *8816:D I *D sky130_fd_sc_hd__dfrtp_4
*I *8706:X O *D sky130_fd_sc_hd__clkbuf_1
*CAP
1 *8816:D 0.000105956
2 *8706:X 0.000105956
3 *8816:D *8706:A 3.03775e-05
4 *8816:D *311:159 6.55328e-05
5 *8816:D *595:14 0.00011852
*RES
1 *8706:X *8816:D 9.375 
*END

*D_NET *233 0.000732357
*CONN
*I *8817:D I *D sky130_fd_sc_hd__dfrtp_1
*I *8708:X O *D sky130_fd_sc_hd__clkbuf_1
*CAP
1 *8817:D 0.000214142
2 *8708:X 0.000214142
3 *8817:D *8708:A 3.86607e-05
4 *8817:D *8817:CLK 0.000180675
5 *8817:D *8817:RESET_B 1.23763e-05
6 *8817:D *386:19 7.23602e-05
*RES
1 *8708:X *8817:D 11.265 
*END

*D_NET *234 0.000488462
*CONN
*I *8818:D I *D sky130_fd_sc_hd__dfrtp_1
*I *8710:X O *D sky130_fd_sc_hd__clkbuf_1
*CAP
1 *8818:D 0.000133835
2 *8710:X 0.000133835
3 *8818:D *8709:S 0.000102272
4 *8818:D *576:24 0.00011852
*RES
1 *8710:X *8818:D 9.72 
*END

*D_NET *235 0.00250457
*CONN
*I *8819:D I *D sky130_fd_sc_hd__dfrtp_4
*I *8712:X O *D sky130_fd_sc_hd__clkbuf_1
*CAP
1 *8819:D 0.000506237
2 *8712:X 0.000506237
3 *8819:D *8653:A 4.82863e-05
4 *8819:D *8712:A 0.000425142
5 *8819:D *8753:A0 0.000313857
6 *8819:D *8811:CLK 0.000181376
7 *8819:D *8840:D 0.000118527
8 *8819:D *8840:RESET_B 2.42236e-05
9 *8819:D *333:29 0.000178439
10 *8819:D *385:103 6.97034e-05
11 *8819:D *387:39 0
12 *8819:D *477:18 6.2148e-05
13 *8819:D *508:118 7.03934e-05
*RES
1 *8712:X *8819:D 19.215 
*END

*D_NET *236 0.000704318
*CONN
*I *8820:D I *D sky130_fd_sc_hd__dfrtp_4
*I *8714:X O *D sky130_fd_sc_hd__clkbuf_1
*CAP
1 *8820:D 0.000333725
2 *8714:X 0.000333725
3 *8820:D *387:50 3.68682e-05
4 *8820:D *508:118 0
*RES
1 *8714:X *8820:D 11.19 
*END

*D_NET *237 0.00116758
*CONN
*I *8821:D I *D sky130_fd_sc_hd__dfrtp_4
*I *8717:X O *D sky130_fd_sc_hd__clkbuf_1
*CAP
1 *8821:D 0.000247159
2 *8717:X 0.000247159
3 *8821:D *8716:A1 9.14049e-05
4 *8821:D *8825:D 0
5 *8821:D *344:29 0.000154253
6 *8821:D *344:46 0.000104287
7 *8821:D *388:60 0.000124895
8 *8821:D *437:50 0.000122331
9 *8821:D *489:41 7.60965e-05
*RES
1 *8717:X *8821:D 12.645 
*END

*D_NET *238 0.0015212
*CONN
*I *8822:D I *D sky130_fd_sc_hd__dfrtp_1
*I *8719:X O *D sky130_fd_sc_hd__clkbuf_1
*CAP
1 *8822:D 0.000316526
2 *8719:X 0.000316526
3 *8822:D *8716:A0 0.000291358
4 *8822:D *8717:A 6.90876e-05
5 *8822:D *8719:A 0.00023468
6 *8822:D *8727:A 0.000293025
*RES
1 *8719:X *8822:D 13.83 
*END

*D_NET *239 0.000257512
*CONN
*I *8823:D I *D sky130_fd_sc_hd__dfrtp_1
*I *8721:X O *D sky130_fd_sc_hd__clkbuf_1
*CAP
1 *8823:D 7.11966e-05
2 *8721:X 7.11966e-05
3 *8823:D *8803:CLK 1.7386e-05
4 *8823:D *514:95 4.94404e-05
5 *8823:D *545:16 4.82919e-05
*RES
1 *8721:X *8823:D 8.775 
*END

*D_NET *240 0.00152839
*CONN
*I *8824:D I *D sky130_fd_sc_hd__dfrtp_1
*I *8723:X O *D sky130_fd_sc_hd__clkbuf_1
*CAP
1 *8824:D 0.000284148
2 *8723:X 0.000284148
3 *8824:D *8722:A0 0
4 *8824:D *8722:A1 2.66935e-05
5 *8824:D *8722:S 4.82863e-05
6 *8824:D *8824:RESET_B 0
7 *8824:D *388:8 2.03578e-05
8 *8824:D *435:26 8.53856e-06
9 *8824:D *439:24 0.00046618
10 *8824:D *472:28 0.000390039
11 *8824:D *495:16 0
*RES
1 *8723:X *8824:D 14.7638 
*END

*D_NET *241 0.00155382
*CONN
*I *8825:D I *D sky130_fd_sc_hd__dfrtp_4
*I *8725:X O *D sky130_fd_sc_hd__clkbuf_1
*CAP
1 *8825:D 0.000319856
2 *8725:X 0.000319856
3 *8825:D *8716:A1 0
4 *8825:D *8725:A 2.7881e-05
5 *8825:D *8727:A 0.000148194
6 *8825:D *8730:A1 0
7 *8825:D *8826:RESET_B 0.000294414
8 *8825:D *311:58 9.14049e-05
9 *8825:D *344:29 0
10 *8825:D *366:24 0.000162311
11 *8825:D *388:70 2.92712e-05
12 *8825:D *489:41 0.000160635
13 *8821:D *8825:D 0
*RES
1 *8725:X *8825:D 14.91 
*END

*D_NET *242 0.00135745
*CONN
*I *8826:D I *D sky130_fd_sc_hd__dfrtp_4
*I *8727:X O *D sky130_fd_sc_hd__clkbuf_1
*CAP
1 *8826:D 0.000334374
2 *8727:X 0.000334374
3 *8826:D *8711:A0 2.66586e-05
4 *8826:D *8727:A 3.45588e-05
5 *8826:D *8730:A0 3.68682e-05
6 *8826:D *8730:A1 0
7 *8826:D *8731:A 0.000504022
8 *8826:D *8745:A1 8.65905e-05
9 *8826:D *8826:RESET_B 0
*RES
1 *8727:X *8826:D 14.91 
*END

*D_NET *243 0.000439034
*CONN
*I *8827:D I *D sky130_fd_sc_hd__dfrtp_1
*I *8729:X O *D sky130_fd_sc_hd__clkbuf_1
*CAP
1 *8827:D 0.000134006
2 *8729:X 0.000134006
3 *8827:D *439:24 0.000103196
4 *8827:D *472:14 4.94404e-05
5 *8827:D *472:28 1.83847e-05
*RES
1 *8729:X *8827:D 9.465 
*END

*D_NET *244 0.000627791
*CONN
*I *8828:D I *D sky130_fd_sc_hd__dfrtp_2
*I *8731:X O *D sky130_fd_sc_hd__clkbuf_1
*CAP
1 *8828:D 0.000196296
2 *8731:X 0.000196296
3 *8828:D *355:141 0.000117825
4 *8828:D *388:113 0.000117373
5 *8828:D *498:12 0
*RES
1 *8731:X *8828:D 10.41 
*END

*D_NET *245 0.000254676
*CONN
*I *8829:D I *D sky130_fd_sc_hd__dfrtp_1
*I *8733:X O *D sky130_fd_sc_hd__clkbuf_1
*CAP
1 *8829:D 0.00010623
2 *8733:X 0.00010623
3 *8829:D *8699:A0 0
4 *8829:D *8829:CLK 1.0263e-05
5 *8829:D *355:115 2.75145e-05
6 *8829:D *551:36 4.43871e-06
*RES
1 *8733:X *8829:D 8.67375 
*END

*D_NET *246 0.000489157
*CONN
*I *8830:D I *D sky130_fd_sc_hd__dfrtp_1
*I *8735:X O *D sky130_fd_sc_hd__clkbuf_1
*CAP
1 *8830:D 0.000144507
2 *8735:X 0.000144507
3 *8830:D *9082:A 7.35729e-05
4 *8830:D *514:127 0.00012657
5 *8830:D *540:8 0
*RES
1 *8735:X *8830:D 10.23 
*END

*D_NET *247 0.000421897
*CONN
*I *8831:D I *D sky130_fd_sc_hd__dfrtp_1
*I *8738:X O *D sky130_fd_sc_hd__clkbuf_1
*CAP
1 *8831:D 0.000154657
2 *8738:X 0.000154657
3 *8831:D *8738:A 6.55406e-05
4 *8831:D *603:8 4.7043e-05
*RES
1 *8738:X *8831:D 10.065 
*END

*D_NET *248 0.00122716
*CONN
*I *8832:D I *D sky130_fd_sc_hd__dfrtp_1
*I *8740:X O *D sky130_fd_sc_hd__clkbuf_1
*CAP
1 *8832:D 0.000481914
2 *8740:X 0.000481914
3 *8832:D *8597:A 6.96579e-05
4 *8832:D *296:139 0.000118467
5 *8832:D *480:22 1.16578e-05
6 *8832:D *482:10 6.35535e-05
7 *8832:D *548:32 0
*RES
1 *8740:X *8832:D 14.025 
*END

*D_NET *249 0.000579867
*CONN
*I *8833:D I *D sky130_fd_sc_hd__dfrtp_1
*I *8742:X O *D sky130_fd_sc_hd__clkbuf_1
*CAP
1 *8833:D 0.000150703
2 *8742:X 0.000150703
3 *8833:D *8741:S 9.2741e-05
4 *8833:D *322:14 0.000120186
5 *8833:D *403:10 6.55328e-05
*RES
1 *8742:X *8833:D 10.065 
*END

*D_NET *250 0.0012175
*CONN
*I *8834:D I *D sky130_fd_sc_hd__dfrtp_1
*I *8744:X O *D sky130_fd_sc_hd__clkbuf_1
*CAP
1 *8834:D 0.000576104
2 *8744:X 0.000576104
3 *8834:D *8744:A 1.16578e-05
4 *8834:D *506:12 5.36341e-05
*RES
1 *8744:X *8834:D 10.355 
*END

*D_NET *251 0.000261667
*CONN
*I *8835:D I *D sky130_fd_sc_hd__dfrtp_4
*I *8746:X O *D sky130_fd_sc_hd__clkbuf_1
*CAP
1 *8835:D 9.12236e-05
2 *8746:X 9.12236e-05
3 *8835:D *8746:A 7.92202e-05
*RES
1 *8746:X *8835:D 8.775 
*END

*D_NET *252 0.000654112
*CONN
*I *8836:D I *D sky130_fd_sc_hd__dfrtp_1
*I *8748:X O *D sky130_fd_sc_hd__clkbuf_1
*CAP
1 *8836:D 0.000227587
2 *8748:X 0.000227587
3 *8836:D *8747:S 0.000198939
4 *8836:D *551:20 0
*RES
1 *8748:X *8836:D 10.41 
*END

*D_NET *253 0.00148567
*CONN
*I *8837:D I *D sky130_fd_sc_hd__dfrtp_1
*I *8750:X O *D sky130_fd_sc_hd__clkbuf_1
*CAP
1 *8837:D 0.000449341
2 *8750:X 0.000449341
3 *8837:D *8608:A 0
4 *8837:D *8750:A 5.39718e-05
5 *8837:D *429:20 0.000533018
*RES
1 *8750:X *8837:D 16.29 
*END

*D_NET *254 0.000523424
*CONN
*I *8838:D I *D sky130_fd_sc_hd__dfrtp_2
*I *8752:X O *D sky130_fd_sc_hd__clkbuf_1
*CAP
1 *8838:D 0.000203633
2 *8752:X 0.000203633
3 *8838:D *8838:RESET_B 0.000116158
4 *8838:D *487:26 0
*RES
1 *8752:X *8838:D 10.065 
*END

*D_NET *255 0.00244489
*CONN
*I *8839:D I *D sky130_fd_sc_hd__dfrtp_2
*I *8754:X O *D sky130_fd_sc_hd__clkbuf_1
*CAP
1 *8839:D 0.000693115
2 *8754:X 0.000693115
3 *8839:D *8703:A1 6.52265e-05
4 *8839:D *8703:S 4.82863e-05
5 *8839:D *8711:A0 8.85653e-05
6 *8839:D *311:64 0.000159741
7 *8839:D *366:90 0.000115464
8 *8839:D *366:99 0.000165002
9 *8839:D *476:8 0.000416377
*RES
1 *8754:X *8839:D 18.9638 
*END

*D_NET *256 0.000532279
*CONN
*I *8840:D I *D sky130_fd_sc_hd__dfrtp_4
*I *8756:X O *D sky130_fd_sc_hd__clkbuf_1
*CAP
1 *8840:D 0.000114234
2 *8756:X 0.000114234
3 *8840:D *8796:RESET_B 9.13951e-05
4 *8840:D *8840:RESET_B 6.50568e-05
5 *8840:D *508:118 2.88322e-05
6 *8819:D *8840:D 0.000118527
*RES
1 *8756:X *8840:D 10.065 
*END

*D_NET *257 0.000505796
*CONN
*I *8841:D I *D sky130_fd_sc_hd__dfrtp_1
*I *8759:X O *D sky130_fd_sc_hd__clkbuf_1
*CAP
1 *8841:D 0.00012418
2 *8759:X 0.00012418
3 *8841:D *8644:A 0
4 *8841:D *8841:CLK 7.10578e-05
5 *8841:D *8847:RESET_B 6.14776e-05
6 *8841:D *511:26 0.0001249
*RES
1 *8759:X *8841:D 10.23 
*END

*D_NET *258 0.00151908
*CONN
*I *8842:D I *D sky130_fd_sc_hd__dfrtp_4
*I *8761:X O *D sky130_fd_sc_hd__clkbuf_1
*CAP
1 *8842:D 0.000552223
2 *8761:X 0.000552223
3 *8842:D *8761:A 2.05056e-05
4 *8842:D *388:113 0.000234385
5 *8842:D *479:12 0.000159741
*RES
1 *8761:X *8842:D 10.565 
*END

*D_NET *259 0.000409112
*CONN
*I *8843:D I *D sky130_fd_sc_hd__dfrtp_2
*I *8763:X O *D sky130_fd_sc_hd__clkbuf_1
*CAP
1 *8843:D 8.62472e-05
2 *8763:X 8.62472e-05
3 *8843:D *8732:A0 0.000124895
4 *8843:D *8763:A 4.94404e-05
5 *8843:D *8764:S 1.17309e-05
6 *8843:D *355:115 5.05521e-05
7 *8843:D *578:10 0
*RES
1 *8763:X *8843:D 9.465 
*END

*D_NET *260 0.000324063
*CONN
*I *8844:D I *D sky130_fd_sc_hd__dfrtp_1
*I *8765:X O *D sky130_fd_sc_hd__clkbuf_1
*CAP
1 *8844:D 7.96841e-05
2 *8765:X 7.96841e-05
3 *8844:D *8764:A0 1.1392e-05
4 *8844:D *296:143 1.0263e-05
5 *8844:D *401:10 7.23533e-05
6 *8844:D *587:18 7.06865e-05
*RES
1 *8765:X *8844:D 8.67375 
*END

*D_NET *261 0.00117438
*CONN
*I *8845:D I *D sky130_fd_sc_hd__dfrtp_1
*I *8767:X O *D sky130_fd_sc_hd__clkbuf_1
*CAP
1 *8845:D 0.000244397
2 *8767:X 0.000244397
3 *8845:D *8766:S 9.30717e-05
4 *8845:D *8845:RESET_B 3.50445e-06
5 *8845:D *8877:A 2.49909e-05
6 *8845:D *406:12 0.000187738
7 *8845:D *439:24 0
8 *8845:D *439:26 0.000283205
9 *8845:D *560:8 9.30717e-05
*RES
1 *8767:X *8845:D 13.725 
*END

*D_NET *262 0.000576551
*CONN
*I *8846:D I *D sky130_fd_sc_hd__dfrtp_1
*I *8769:X O *D sky130_fd_sc_hd__clkbuf_1
*CAP
1 *8846:D 0.000177152
2 *8769:X 0.000177152
3 *8846:D *435:28 5.73739e-05
4 *8846:D *450:20 0
5 *8846:D *485:24 0.000164874
*RES
1 *8769:X *8846:D 10.935 
*END

*D_NET *263 0.000857191
*CONN
*I *8847:D I *D sky130_fd_sc_hd__dfrtp_1
*I *8771:X O *D sky130_fd_sc_hd__clkbuf_1
*CAP
1 *8847:D 0.000240219
2 *8771:X 0.000240219
3 *8847:D *8771:A 4.02591e-05
4 *8847:D *453:12 0
5 *8847:D *454:31 0.000203067
6 *8847:D *511:44 0.000133426
*RES
1 *8771:X *8847:D 11.445 
*END

*D_NET *264 0.00189162
*CONN
*I *8848:D I *D sky130_fd_sc_hd__dfrtp_2
*I *8773:X O *D sky130_fd_sc_hd__clkbuf_1
*CAP
1 *8848:D 0.000415753
2 *8773:X 0.000415753
3 *8848:D *8593:A 0
4 *8848:D *8618:A 0.000174654
5 *8848:D *8653:A 4.18603e-06
6 *8848:D *8736:A 9.52646e-05
7 *8848:D *8848:CLK 4.82919e-05
8 *8848:D *8850:CLK 0.000101477
9 *8848:D *285:50 2.87867e-05
10 *8848:D *321:42 0.000607455
*RES
1 *8773:X *8848:D 17.7 
*END

*D_NET *265 0.000415645
*CONN
*I *8849:D I *D sky130_fd_sc_hd__dfrtp_1
*I *8775:X O *D sky130_fd_sc_hd__clkbuf_1
*CAP
1 *8849:D 0.000152244
2 *8775:X 0.000152244
3 *8849:D *8775:A 8.73525e-05
4 *8849:D *296:80 2.38055e-05
*RES
1 *8775:X *8849:D 5.735 
*END

*D_NET *266 0.000667354
*CONN
*I *8850:D I *D sky130_fd_sc_hd__dfrtp_4
*I *8777:X O *D sky130_fd_sc_hd__clkbuf_1
*CAP
1 *8850:D 0.000172784
2 *8777:X 0.000172784
3 *8850:D *442:45 5.20968e-05
4 *8850:D *511:62 0.000158066
5 *8850:D *560:8 9.54399e-05
6 *8850:D *585:40 1.61831e-05
*RES
1 *8777:X *8850:D 10.155 
*END

*D_NET *267 0.000179435
*CONN
*I *8851:D I *D sky130_fd_sc_hd__dfrtp_1
*I *8779:X O *D sky130_fd_sc_hd__clkbuf_1
*CAP
1 *8851:D 8.97177e-05
2 *8779:X 8.97177e-05
*RES
1 *8779:X *8851:D 8.58 
*END

*D_NET *268 0.000473882
*CONN
*I *8852:D I *D sky130_fd_sc_hd__dfrtp_1
*I *8781:X O *D sky130_fd_sc_hd__clkbuf_1
*CAP
1 *8852:D 0.000188956
2 *8781:X 0.000188956
3 *8852:D *8781:A 3.86607e-05
4 *8852:D *386:29 1.86482e-05
5 *8852:D *479:20 3.86607e-05
*RES
1 *8781:X *8852:D 9.915 
*END

*D_NET *269 0.000376935
*CONN
*I *8853:D I *D sky130_fd_sc_hd__dfrtp_1
*I *8783:X O *D sky130_fd_sc_hd__clkbuf_1
*CAP
1 *8853:D 0.00016462
2 *8783:X 0.00016462
3 *8853:D *321:142 3.64998e-06
4 *8853:D *391:20 4.40446e-05
*RES
1 *8783:X *8853:D 5.735 
*END

*D_NET *270 0.000509529
*CONN
*I *8854:D I *D sky130_fd_sc_hd__dfrtp_1
*I *8785:X O *D sky130_fd_sc_hd__clkbuf_1
*CAP
1 *8854:D 0.000226078
2 *8785:X 0.000226078
3 *8854:D *435:28 5.73739e-05
4 *8854:D *455:10 0
*RES
1 *8785:X *8854:D 10.935 
*END

*D_NET *271 0.00036763
*CONN
*I *8855:D I *D sky130_fd_sc_hd__dfrtp_1
*I *8787:X O *D sky130_fd_sc_hd__clkbuf_1
*CAP
1 *8855:D 0.000157078
2 *8787:X 0.000157078
3 *8855:D *8855:RESET_B 0
4 *8855:D *407:12 0
5 *8855:D *445:30 5.34747e-05
*RES
1 *8787:X *8855:D 9.465 
*END

*D_NET *272 0.000261395
*CONN
*I *8856:D I *D sky130_fd_sc_hd__dfrtp_1
*I *8789:X O *D sky130_fd_sc_hd__clkbuf_1
*CAP
1 *8856:D 0.000106552
2 *8789:X 0.000106552
3 *8856:D *390:14 4.82919e-05
4 *8856:D *542:8 0
*RES
1 *8789:X *8856:D 8.775 
*END

*D_NET *273 0.00284231
*CONN
*I *8581:A I *D sky130_fd_sc_hd__nand2_1
*I *8655:A2 I *D sky130_fd_sc_hd__o21ai_1
*I *8579:A I *D sky130_fd_sc_hd__inv_2
*I *8578:X O *D sky130_fd_sc_hd__or2b_1
*CAP
1 *8581:A 4.85011e-05
2 *8655:A2 0.000402735
3 *8579:A 0.000101234
4 *8578:X 0
5 *273:8 0.000648458
6 *273:4 0.00019299
7 *8579:A *8656:S 0.0001249
8 *8579:A *311:14 3.86607e-05
9 *8579:A *311:36 0
10 *8579:A *408:16 9.29751e-06
11 *8579:A *489:63 7.60965e-05
12 *8581:A *8581:B 8.86482e-05
13 *8581:A *8582:C 5.58436e-05
14 *8581:A *437:26 1.34594e-05
15 *8581:A *568:24 0.000124895
16 *8655:A2 *8582:C 0.00054457
17 *8655:A2 *8655:A1 2.41253e-05
18 *8655:A2 *8655:B1 1.46044e-05
19 *273:8 *8582:C 0.000196701
20 *273:8 *8682:A0 0
21 *273:8 *408:16 4.47938e-06
22 *273:8 *469:10 1.22762e-05
23 *8859:A *8655:A2 0.000119831
*RES
1 *8578:X *273:4 1.6 
2 *273:4 *273:8 4.655 
3 *273:8 *8579:A 6.225 
4 *273:8 *8655:A2 9.495 
5 *273:4 *8581:A 3.715 
*END

*D_NET *274 0.00145396
*CONN
*I *8581:B I *D sky130_fd_sc_hd__nand2_1
*I *8655:B1 I *D sky130_fd_sc_hd__o21ai_1
*I *8580:X O *D sky130_fd_sc_hd__or2b_1
*CAP
1 *8581:B 0.00019569
2 *8655:B1 0.000104428
3 *8580:X 0
4 *274:6 0.000300118
5 *8581:B *8682:A0 0.000353049
6 *8581:B *437:26 4.23525e-05
7 *8581:B *469:8 4.82863e-05
8 *8581:B *568:24 0.00015765
9 *8655:B1 *8582:C 2.16833e-05
10 *8655:B1 *8655:A1 1.00714e-05
11 *8655:B1 *418:8 4.82919e-05
12 *8655:B1 *418:20 6.90876e-05
13 *8581:A *8581:B 8.86482e-05
14 *8655:A2 *8655:B1 1.46044e-05
*RES
1 *8580:X *274:6 3.6 
2 *274:6 *8655:B1 5.7 
3 *274:6 *8581:B 9.585 
*END

*D_NET *275 0.0176862
*CONN
*I *8646:B I *D sky130_fd_sc_hd__and2_1
*I *8602:A I *D sky130_fd_sc_hd__buf_4
*I *8644:B I *D sky130_fd_sc_hd__and2_1
*I *8583:A I *D sky130_fd_sc_hd__clkbuf_8
*I *8623:A I *D sky130_fd_sc_hd__clkbuf_8
*I *8648:B I *D sky130_fd_sc_hd__and2_1
*I *8582:X O *D sky130_fd_sc_hd__and3b_2
*CAP
1 *8646:B 0
2 *8602:A 0
3 *8644:B 0.000117137
4 *8583:A 1.71066e-05
5 *8623:A 0
6 *8648:B 0.00240215
7 *8582:X 0.000444246
8 *275:91 0.00277449
9 *275:78 0.00330759
10 *275:34 0.00285647
11 *275:30 0.000850434
12 *275:24 0.000557689
13 *275:22 0.00103889
14 *8583:A *321:14 8.65961e-05
15 *8583:A *389:93 5.05521e-05
16 *8644:B *8645:A 4.60584e-05
17 *8644:B *8757:A 0.000272978
18 *8644:B *366:8 7.41221e-05
19 *8644:B *489:63 0.000311282
20 *8648:B *8644:A 0
21 *8648:B *8865:A 0
22 *8648:B *478:8 0
23 *8648:B *600:10 0
24 *275:22 *8651:A 0.000411483
25 *275:22 *8682:A0 3.1562e-06
26 *275:22 *8792:RESET_B 0.000154658
27 *275:22 *8883:A 4.41506e-05
28 *275:22 *418:8 9.80032e-06
29 *275:22 *613:8 0.000290186
30 *275:22 *613:12 0.000134837
31 *275:24 *8757:A 9.14049e-05
32 *275:24 *311:36 0.000126122
33 *275:24 *512:14 1.44775e-05
34 *275:30 *8758:A1 0
35 *275:30 *8792:CLK 0.000131845
36 *275:30 *311:36 3.34164e-05
37 *275:30 *321:14 0
38 *275:30 *478:8 0
39 *275:30 *512:14 8.95816e-05
40 *275:34 *8673:A 0.000459134
41 *275:34 *296:29 0
42 *275:34 *430:8 0
43 *275:34 *430:12 0
44 *275:34 *478:8 0
45 *275:78 *8650:B 0
46 *275:78 *8757:A 7.32599e-05
47 *275:78 *8758:A0 0
48 *275:78 *8758:A1 5.74944e-05
49 *275:78 *310:10 4.19797e-05
50 *275:78 *310:12 0.000102531
51 *275:78 *311:36 6.37495e-05
52 *275:78 *391:68 0
53 *275:78 *512:14 0
54 *275:91 *8647:A 0.000145184
55 *275:91 *8758:A0 0
56 *275:91 *8783:A 0
57 *275:91 *321:142 0
*RES
1 *8582:X *275:22 17.335 
2 *275:22 *275:24 1.635 
3 *275:24 *275:30 7.035 
4 *275:30 *275:34 11.795 
5 *275:34 *8648:B 44.195 
6 *275:34 *8623:A 1.6 
7 *275:30 *8583:A 4.395 
8 *275:24 *8644:B 7.86 
9 *275:22 *275:78 9.675 
10 *275:78 *8602:A 3.6 
11 *275:78 *275:91 48.41 
12 *275:91 *8646:B 1.6 
*END

*D_NET *276 0.000717531
*CONN
*I *8585:A I *D sky130_fd_sc_hd__buf_1
*I *8584:X O *D sky130_fd_sc_hd__and2_1
*CAP
1 *8585:A 0.000299005
2 *8584:X 0.000299005
3 *8585:A *462:10 0.000119521
*RES
1 *8584:X *8585:A 12.105 
*END

*D_NET *277 0.000430805
*CONN
*I *8587:A I *D sky130_fd_sc_hd__clkbuf_2
*I *8586:X O *D sky130_fd_sc_hd__and2_1
*CAP
1 *8587:A 0.000151199
2 *8586:X 0.000151199
3 *8587:A *407:8 1.7386e-05
4 *8587:A *557:20 7.23602e-05
5 *8587:A *610:26 3.86607e-05
*RES
1 *8586:X *8587:A 9.57 
*END

*D_NET *278 0.000418558
*CONN
*I *8589:A I *D sky130_fd_sc_hd__clkbuf_1
*I *8588:X O *D sky130_fd_sc_hd__and2_1
*CAP
1 *8589:A 7.07269e-05
2 *8588:X 7.07269e-05
3 *8589:A *8588:A 0.000239813
4 *8589:A *9009:A 3.72916e-05
*RES
1 *8588:X *8589:A 5.375 
*END

*D_NET *279 0.000874761
*CONN
*I *8591:A I *D sky130_fd_sc_hd__clkbuf_1
*I *8590:X O *D sky130_fd_sc_hd__and2_1
*CAP
1 *8591:A 0.000275194
2 *8590:X 0.000275194
3 *8591:A *8598:B 0.00016506
4 *8591:A *428:14 0.000159313
*RES
1 *8590:X *8591:A 13.14 
*END

*D_NET *280 0.00149004
*CONN
*I *8593:A I *D sky130_fd_sc_hd__clkbuf_2
*I *8592:X O *D sky130_fd_sc_hd__and2_1
*CAP
1 *8593:A 0.00042168
2 *8592:X 0.00042168
3 *8593:A *8653:A 2.92496e-05
4 *8593:A *285:50 0
5 *8593:A *385:42 5.28163e-05
6 *8593:A *477:18 0.000141879
7 *8593:A *602:16 0.000422738
8 *8848:D *8593:A 0
*RES
1 *8592:X *8593:A 14.265 
*END

*D_NET *281 0.00287872
*CONN
*I *8595:A I *D sky130_fd_sc_hd__dlymetal6s2s_1
*I *8594:X O *D sky130_fd_sc_hd__and2_1
*CAP
1 *8595:A 0.000495359
2 *8594:X 0.000495359
3 *8595:A *8594:A 8.53113e-06
4 *8595:A *8617:B 0.00015639
5 *8595:A *8618:A 7.06865e-05
6 *8595:A *8652:A1 0.000222813
7 *8595:A *8697:A1 0.000383878
8 *8595:A *8698:A 0.000459377
9 *8595:A *8850:CLK 0.000100109
10 *8595:A *296:118 0.000196582
11 *8595:A *385:76 5.76565e-05
12 *8595:A *385:93 3.05295e-05
13 *8595:A *430:54 0
14 *8595:A *430:123 5.57736e-05
15 *8595:A *487:24 0.000124116
16 *8595:A *510:20 2.15594e-05
*RES
1 *8594:X *8595:A 24.775 
*END

*D_NET *282 0.00134357
*CONN
*I *8597:A I *D sky130_fd_sc_hd__buf_1
*I *8596:X O *D sky130_fd_sc_hd__and2_1
*CAP
1 *8597:A 0.000309667
2 *8596:X 0.000309667
3 *8597:A *8596:A 1.19928e-05
4 *8597:A *8739:A1 0.000116706
5 *8597:A *9019:A 0.000132673
6 *8597:A *296:139 0.000164874
7 *8597:A *425:14 0.000145538
8 *8597:A *480:22 5.58436e-05
9 *8597:A *502:29 2.69493e-05
10 *8832:D *8597:A 6.96579e-05
*RES
1 *8596:X *8597:A 14.295 
*END

*D_NET *283 0.000590581
*CONN
*I *8599:A I *D sky130_fd_sc_hd__buf_1
*I *8598:X O *D sky130_fd_sc_hd__and2_1
*CAP
1 *8599:A 0.000204424
2 *8598:X 0.000204424
3 *8599:A *8749:A0 0.000131772
4 *8599:A *9012:A 4.99619e-05
*RES
1 *8598:X *8599:A 11.325 
*END

*D_NET *284 0.00131177
*CONN
*I *8601:A I *D sky130_fd_sc_hd__clkbuf_2
*I *8600:X O *D sky130_fd_sc_hd__and2_1
*CAP
1 *8601:A 0.000466887
2 *8600:X 0.000466887
3 *8601:A *8600:A 4.66108e-05
4 *8601:A *8600:B 1.92979e-05
5 *8601:A *296:118 1.7635e-05
6 *8601:A *428:12 4.99619e-05
7 *8601:A *430:42 8.7152e-06
8 *8601:A *430:56 0.000198934
9 *8601:A *510:20 1.88904e-05
10 *8601:A *557:20 1.79483e-05
*RES
1 *8600:X *8601:A 11.3909 
*END

*D_NET *285 0.0659102
*CONN
*I *8613:B I *D sky130_fd_sc_hd__and2_1
*I *8605:B I *D sky130_fd_sc_hd__and2_1
*I *8621:B I *D sky130_fd_sc_hd__and2_1
*I *8609:B I *D sky130_fd_sc_hd__and2_1
*I *8607:B I *D sky130_fd_sc_hd__and2_1
*I *8603:B I *D sky130_fd_sc_hd__and2_1
*I *8615:B I *D sky130_fd_sc_hd__and2_1
*I *8617:B I *D sky130_fd_sc_hd__and2_1
*I *8619:B I *D sky130_fd_sc_hd__and2_1
*I *8611:B I *D sky130_fd_sc_hd__and2_1
*I *8602:X O *D sky130_fd_sc_hd__buf_4
*CAP
1 *8613:B 0.00299838
2 *8605:B 0.000445524
3 *8621:B 0
4 *8609:B 0
5 *8607:B 0
6 *8603:B 0.000174889
7 *8615:B 0
8 *8617:B 0.000482518
9 *8619:B 0
10 *8611:B 0.00122479
11 *8602:X 0
12 *285:112 0.00180084
13 *285:110 0.00266462
14 *285:102 0.00345751
15 *285:56 0.00230672
16 *285:50 0.00262296
17 *285:46 0.00210332
18 *285:42 0.000645441
19 *285:32 0.00335255
20 *285:26 0.00152565
21 *285:22 0.00582181
22 *285:20 0.00517111
23 *285:4 0.00395081
24 *8603:B *8604:A 0.000118294
25 *8603:B *8607:A 0.000267041
26 *8603:B *427:16 6.23315e-05
27 *8605:B *8713:S 5.02217e-05
28 *8605:B *333:142 0
29 *8605:B *355:81 0.000990528
30 *8611:B *8612:A 5.30673e-05
31 *8611:B *407:8 0.00189991
32 *8613:B *8656:A1 8.53113e-06
33 *8613:B *8657:A 0
34 *8613:B *322:98 0
35 *8613:B *391:28 0.00118271
36 *8613:B *391:41 0.000228241
37 *8613:B *467:8 0.000298666
38 *8613:B *539:12 0
39 *8613:B *612:20 0.000505378
40 *8617:B *617:DIODE 0.000234064
41 *8617:B *8652:A1 0.000158072
42 *8617:B *8652:S 2.55502e-05
43 *8617:B *8653:A 0.000152134
44 *8617:B *8773:A 0.000327355
45 *8617:B *487:24 5.8825e-05
46 *285:20 *8758:A0 0
47 *285:20 *391:66 0
48 *285:20 *540:8 0
49 *285:22 *8713:S 4.35348e-05
50 *285:26 *8713:A0 6.68173e-06
51 *285:26 *8713:A1 8.36055e-05
52 *285:26 *8713:S 7.00889e-06
53 *285:26 *387:69 0.000234685
54 *285:26 *452:10 9.20927e-05
55 *285:26 *452:12 3.43427e-05
56 *285:32 *8621:A 9.50342e-06
57 *285:32 *8622:A 2.67022e-05
58 *285:32 *333:91 0
59 *285:32 *401:10 0.00037839
60 *285:32 *452:12 4.82919e-05
61 *285:42 *8616:A 0.000307753
62 *285:42 *8694:A 0
63 *285:42 *8697:A0 0.000288308
64 *285:42 *8702:A 4.18603e-06
65 *285:42 *8711:A1 0
66 *285:42 *333:16 0
67 *285:42 *401:10 0.000234073
68 *285:42 *424:10 0.000111892
69 *285:42 *451:18 0
70 *285:42 *451:20 0
71 *285:46 *8653:A 0
72 *285:46 *451:20 0.000198981
73 *285:46 *487:26 7.47215e-05
74 *285:50 *8653:A 0
75 *285:50 *385:10 0
76 *285:50 *385:42 0
77 *285:50 *451:20 0.00338372
78 *285:50 *477:20 0
79 *285:56 *8619:A 0.00233213
80 *285:56 *407:8 0.00441369
81 *285:102 *8610:A 0.00023344
82 *285:102 *8796:RESET_B 0.000249197
83 *285:110 *8609:A 0.00127402
84 *285:112 *355:12 0.00428375
85 *8593:A *285:50 0
86 *8595:A *8617:B 0.00015639
87 *8848:D *285:50 2.87867e-05
*RES
1 *8602:X *285:4 1.6 
2 *285:4 *285:20 19.24 
3 *285:20 *285:22 45.645 
4 *285:22 *285:26 14.085 
5 *285:26 *285:32 10.46 
6 *285:32 *285:42 14.69 
7 *285:42 *285:46 4.4 
8 *285:46 *285:50 40.61 
9 *285:50 *285:56 40.6725 
10 *285:56 *8611:B 30.1675 
11 *285:50 *8619:B 1.6 
12 *285:46 *8617:B 15.015 
13 *285:42 *8615:B 1.6 
14 *285:32 *285:102 40.52 
15 *285:102 *285:110 24.445 
16 *285:110 *285:112 38.745 
17 *285:112 *8603:B 10.22 
18 *285:112 *8607:B 1.6 
19 *285:102 *8609:B 1.6 
20 *285:26 *8621:B 1.6 
21 *285:22 *8605:B 17.18 
22 *285:4 *8613:B 49.58 
*END

*D_NET *286 0.00119693
*CONN
*I *8604:A I *D sky130_fd_sc_hd__buf_1
*I *8603:X O *D sky130_fd_sc_hd__and2_1
*CAP
1 *8604:A 0.000454243
2 *8603:X 0.000454243
3 *8604:A *8608:A 4.61423e-05
4 *8604:A *8750:A 0
5 *8604:A *427:16 0.000124007
6 *8603:B *8604:A 0.000118294
*RES
1 *8603:X *8604:A 15.3 
*END

*D_NET *287 0.000389825
*CONN
*I *8606:A I *D sky130_fd_sc_hd__buf_1
*I *8605:X O *D sky130_fd_sc_hd__and2_1
*CAP
1 *8606:A 0.000115133
2 *8605:X 0.000115133
3 *8606:A *515:12 0.00015956
*RES
1 *8605:X *8606:A 5.72 
*END

*D_NET *288 0.00103186
*CONN
*I *8608:A I *D sky130_fd_sc_hd__buf_1
*I *8607:X O *D sky130_fd_sc_hd__and2_1
*CAP
1 *8608:A 0.000336688
2 *8607:X 0.000336688
3 *8608:A *8744:A 2.46089e-05
4 *8608:A *8750:A 0
5 *8608:A *8837:RESET_B 9.16237e-05
6 *8608:A *355:32 0
7 *8608:A *404:14 4.80285e-05
8 *8608:A *474:16 3.67779e-05
9 *8608:A *509:52 0.000111308
10 *8604:A *8608:A 4.61423e-05
11 *8837:D *8608:A 0
*RES
1 *8607:X *8608:A 13.71 
*END

*D_NET *289 0.000965762
*CONN
*I *8610:A I *D sky130_fd_sc_hd__buf_1
*I *8609:X O *D sky130_fd_sc_hd__and2_1
*CAP
1 *8610:A 0.000337561
2 *8609:X 0.000337561
3 *8610:A *311:110 5.72004e-05
4 *8610:A *602:14 0
5 *285:102 *8610:A 0.00023344
*RES
1 *8609:X *8610:A 12.39 
*END

*D_NET *290 0.000816426
*CONN
*I *8612:A I *D sky130_fd_sc_hd__clkbuf_1
*I *8611:X O *D sky130_fd_sc_hd__and2_1
*CAP
1 *8612:A 0.000314232
2 *8611:X 0.000314232
3 *8612:A *407:8 8.87196e-05
4 *8612:A *605:8 4.61744e-05
5 *8611:B *8612:A 5.30673e-05
*RES
1 *8611:X *8612:A 11.79 
*END

*D_NET *291 0.000962689
*CONN
*I *8614:A I *D sky130_fd_sc_hd__buf_1
*I *8613:X O *D sky130_fd_sc_hd__and2_1
*CAP
1 *8614:A 0.000364877
2 *8613:X 0.000364877
3 *8614:A *400:8 2.97561e-05
4 *8614:A *612:20 0.000203178
*RES
1 *8613:X *8614:A 12.705 
*END

*D_NET *292 0.00153811
*CONN
*I *8616:A I *D sky130_fd_sc_hd__clkbuf_2
*I *8615:X O *D sky130_fd_sc_hd__and2_1
*CAP
1 *8616:A 0.00030527
2 *8615:X 0.00030527
3 *8616:A *8697:A0 0.00061982
4 *285:42 *8616:A 0.000307753
*RES
1 *8615:X *8616:A 13.74 
*END

*D_NET *293 0.0017793
*CONN
*I *8618:A I *D sky130_fd_sc_hd__buf_1
*I *8617:X O *D sky130_fd_sc_hd__and2_1
*CAP
1 *8618:A 0.000647324
2 *8617:X 0.000647324
3 *8618:A *8736:A 9.27326e-05
4 *8618:A *8848:CLK 2.75229e-05
5 *8618:A *8850:CLK 7.52228e-05
6 *8618:A *585:40 4.38278e-05
7 *8595:A *8618:A 7.06865e-05
8 *8848:D *8618:A 0.000174654
*RES
1 *8617:X *8618:A 16.14 
*END

*D_NET *294 0.000742332
*CONN
*I *8620:A I *D sky130_fd_sc_hd__buf_1
*I *8619:X O *D sky130_fd_sc_hd__and2_1
*CAP
1 *8620:A 0.000238752
2 *8619:X 0.000238752
3 *8620:A *407:8 0.000124895
4 *8620:A *451:20 0
5 *8620:A *477:20 0.000139933
*RES
1 *8619:X *8620:A 11.115 
*END

*D_NET *295 0.00081885
*CONN
*I *8622:A I *D sky130_fd_sc_hd__buf_1
*I *8621:X O *D sky130_fd_sc_hd__and2_1
*CAP
1 *8622:A 0.000344336
2 *8621:X 0.000344336
3 *8622:A *333:91 7.23602e-05
4 *8622:A *405:12 3.11149e-05
5 *285:32 *8622:A 2.67022e-05
*RES
1 *8621:X *8622:A 12 
*END

*D_NET *296 0.0760619
*CONN
*I *8632:B I *D sky130_fd_sc_hd__and2_1
*I *8636:B I *D sky130_fd_sc_hd__and2_1
*I *8626:B I *D sky130_fd_sc_hd__and2_1
*I *8634:B I *D sky130_fd_sc_hd__and2_1
*I *8640:B I *D sky130_fd_sc_hd__and2_1
*I *8628:B I *D sky130_fd_sc_hd__and2_1
*I *8624:B I *D sky130_fd_sc_hd__and2_1
*I *8630:B I *D sky130_fd_sc_hd__and2_1
*I *8638:B I *D sky130_fd_sc_hd__and2_1
*I *8642:B I *D sky130_fd_sc_hd__and2_1
*I *8623:X O *D sky130_fd_sc_hd__clkbuf_8
*CAP
1 *8632:B 0
2 *8636:B 9.73191e-06
3 *8626:B 0
4 *8634:B 0.000109788
5 *8640:B 0
6 *8628:B 0.00239963
7 *8624:B 3.55506e-05
8 *8630:B 0.00193937
9 *8638:B 0
10 *8642:B 0.00281082
11 *8623:X 0
12 *296:149 0.00392315
13 *296:143 0.004274
14 *296:139 0.00167098
15 *296:120 0.00314456
16 *296:118 0.00208908
17 *296:102 0.000150488
18 *296:96 0.000394161
19 *296:80 0.00340266
20 *296:63 0.00153356
21 *296:57 0.00384134
22 *296:55 0.00342034
23 *296:51 0.000153065
24 *296:42 0.00366012
25 *296:29 0.00285674
26 *296:14 0.00369057
27 *296:6 0.00201574
28 *8630:B *430:75 0.000739436
29 *8634:B *8635:A 6.97202e-05
30 *8636:B *434:27 4.82863e-05
31 *8636:B *596:12 4.82863e-05
32 *8642:B *8642:A 8.8266e-05
33 *296:14 *8673:A 0
34 *296:14 *430:12 0.001408
35 *296:29 *8639:A 0.000392136
36 *296:29 *430:12 0.000280687
37 *296:29 *430:25 0.000399107
38 *296:42 *8638:A 0.000497676
39 *296:42 *430:25 0.00221188
40 *296:42 *607:22 0.00174888
41 *296:55 *8586:B 0
42 *296:55 *510:20 3.33149e-05
43 *296:57 *8586:B 9.56677e-06
44 *296:57 *8626:A 0
45 *296:57 *8818:RESET_B 0.000131772
46 *296:57 *9072:A 0.000172055
47 *296:57 *311:159 0
48 *296:57 *311:163 0
49 *296:57 *488:10 0.000133453
50 *296:57 *510:20 0.000651471
51 *296:57 *510:36 0.00485631
52 *296:57 *557:18 0
53 *296:63 *8625:A 3.68828e-05
54 *296:63 *8641:A 0.000133925
55 *296:63 *8666:A0 0.000119756
56 *296:63 *8666:A1 2.10134e-05
57 *296:63 *8846:RESET_B 5.07419e-05
58 *296:63 *9072:A 0.00011852
59 *296:63 *557:18 0
60 *296:80 *8775:A 9.02898e-05
61 *296:80 *402:12 0.000525688
62 *296:80 *510:48 0.000174294
63 *296:96 *8586:B 0
64 *296:96 *8594:A 0.000210151
65 *296:96 *510:20 0.000125634
66 *296:102 *8635:A 2.75145e-05
67 *296:118 *8594:A 0.000154853
68 *296:118 *8617:A 0.000180682
69 *296:118 *8850:CLK 1.65192e-05
70 *296:118 *430:123 0
71 *296:118 *510:20 0.00015527
72 *296:120 *8637:A 7.4027e-05
73 *296:120 *8714:A 7.4027e-05
74 *296:120 *8752:A 0.000141606
75 *296:120 *8815:CLK 0.000130721
76 *296:120 *388:117 0.000305467
77 *296:120 *388:130 0.000195932
78 *296:120 *430:123 8.64418e-05
79 *296:120 *430:125 0.00261234
80 *296:120 *475:10 0.000296094
81 *296:120 *507:25 0.00239283
82 *296:120 *510:20 0.00120652
83 *296:139 *8739:A1 7.00889e-06
84 *296:139 *8740:A 1.37328e-05
85 *296:139 *8844:RESET_B 9.53428e-06
86 *296:139 *430:125 0.00162053
87 *296:139 *430:135 0.000137157
88 *296:139 *480:22 8.58196e-05
89 *296:139 *507:25 0.00109262
90 *296:139 *509:84 0
91 *296:139 *509:88 0.000467068
92 *296:143 *8844:RESET_B 2.65337e-05
93 *296:143 *509:88 1.12578e-05
94 *296:143 *509:100 0.000254892
95 *296:149 *8658:A1 2.67022e-05
96 *296:149 *509:100 0.000673874
97 *8595:A *296:118 0.000196582
98 *8597:A *296:139 0.000164874
99 *8601:A *296:118 1.7635e-05
100 *8832:D *296:139 0.000118467
101 *8844:D *296:143 1.0263e-05
102 *8849:D *296:80 2.38055e-05
103 *275:34 *296:29 0
*RES
1 *8623:X *296:6 3.6 
2 *296:6 *296:14 23.06 
3 *296:14 *8642:B 43.795 
4 *296:6 *296:29 23.015 
5 *296:29 *8638:B 1.6 
6 *296:29 *296:42 41.805 
7 *296:42 *8630:B 31.72 
8 *296:42 *296:51 2 
9 *296:51 *296:55 1.3875 
10 *296:55 *296:57 81.2175 
11 *296:57 *296:63 9.005 
12 *296:63 *8624:B 2.215 
13 *296:63 *296:80 19.6525 
14 *296:80 *8628:B 37.7575 
15 *296:57 *8640:B 3.6 
16 *296:51 *296:96 2.655 
17 *296:96 *296:102 2.81 
18 *296:102 *8634:B 3.43 
19 *296:102 *8626:B 1.6 
20 *296:96 *296:118 6.5475 
21 *296:118 *296:120 67.2975 
22 *296:120 *8636:B 4.05 
23 *296:120 *296:139 43.655 
24 *296:139 *296:143 7.1025 
25 *296:143 *296:149 48.4175 
26 *296:149 *8632:B 3.6 
*END

*D_NET *297 0.00125766
*CONN
*I *8625:A I *D sky130_fd_sc_hd__buf_1
*I *8624:X O *D sky130_fd_sc_hd__and2_1
*CAP
1 *8625:A 0.000182716
2 *8624:X 0.000182716
3 *8625:A *8666:A0 3.64998e-06
4 *8625:A *8667:A 0.000149905
5 *8625:A *8798:RESET_B 0.000195476
6 *8625:A *8845:CLK 0.000193801
7 *8625:A *8846:RESET_B 4.82863e-05
8 *8625:A *576:22 0.000105925
9 *8798:D *8625:A 0.000158297
10 *296:63 *8625:A 3.68828e-05
*RES
1 *8624:X *8625:A 12.75 
*END

*D_NET *298 0.00190714
*CONN
*I *8627:A I *D sky130_fd_sc_hd__clkbuf_2
*I *8626:X O *D sky130_fd_sc_hd__and2_1
*CAP
1 *8627:A 0.000366371
2 *8626:X 0.000366371
3 *8627:A *8635:A 0.000552248
4 *8627:A *412:14 2.10433e-05
5 *8627:A *442:45 0.000198867
6 *8627:A *511:62 0.000120655
7 *8627:A *560:8 0.000160933
8 *8627:A *585:40 0.000120655
*RES
1 *8626:X *8627:A 16.965 
*END

*D_NET *299 0.000797804
*CONN
*I *8629:A I *D sky130_fd_sc_hd__clkbuf_1
*I *8628:X O *D sky130_fd_sc_hd__and2_1
*CAP
1 *8629:A 0.000153675
2 *8628:X 0.000153675
3 *8629:A *559:16 0.000309804
4 *8629:A *600:6 0.00018065
*RES
1 *8628:X *8629:A 11.55 
*END

*D_NET *300 0.000849571
*CONN
*I *8631:A I *D sky130_fd_sc_hd__dlymetal6s2s_1
*I *8630:X O *D sky130_fd_sc_hd__and2_1
*CAP
1 *8631:A 0.00031765
2 *8630:X 0.00031765
3 *8631:A *430:75 0.000214272
*RES
1 *8630:X *8631:A 11.79 
*END

*D_NET *301 0.000227144
*CONN
*I *8633:A I *D sky130_fd_sc_hd__clkbuf_1
*I *8632:X O *D sky130_fd_sc_hd__and2_1
*CAP
1 *8633:A 3.52678e-05
2 *8632:X 3.52678e-05
3 *8633:A *9002:A 3.00381e-05
4 *8633:A *570:20 0.00012657
*RES
1 *8632:X *8633:A 4.34 
*END

*D_NET *302 0.00172705
*CONN
*I *8635:A I *D sky130_fd_sc_hd__clkbuf_2
*I *8634:X O *D sky130_fd_sc_hd__and2_1
*CAP
1 *8635:A 0.000491065
2 *8634:X 0.000491065
3 *8635:A *442:45 9.54399e-05
4 *8627:A *8635:A 0.000552248
5 *8634:B *8635:A 6.97202e-05
6 *296:102 *8635:A 2.75145e-05
*RES
1 *8634:X *8635:A 14.295 
*END

*D_NET *303 0.000765881
*CONN
*I *8637:A I *D sky130_fd_sc_hd__buf_1
*I *8636:X O *D sky130_fd_sc_hd__and2_1
*CAP
1 *8637:A 0.000308914
2 *8636:X 0.000308914
3 *8637:A *430:125 7.4027e-05
4 *296:120 *8637:A 7.4027e-05
*RES
1 *8636:X *8637:A 12.15 
*END

*D_NET *304 0.00069515
*CONN
*I *8639:A I *D sky130_fd_sc_hd__dlymetal6s2s_1
*I *8638:X O *D sky130_fd_sc_hd__and2_1
*CAP
1 *8639:A 7.02196e-05
2 *8638:X 7.02196e-05
3 *8639:A *430:25 0.000162575
4 *296:29 *8639:A 0.000392136
*RES
1 *8638:X *8639:A 6.755 
*END

*D_NET *305 0.000609279
*CONN
*I *8641:A I *D sky130_fd_sc_hd__dlymetal6s2s_1
*I *8640:X O *D sky130_fd_sc_hd__and2_1
*CAP
1 *8641:A 0.000132662
2 *8640:X 0.000132662
3 *8641:A *8666:A1 6.77417e-05
4 *8641:A *9072:A 1.73877e-05
5 *8641:A *416:20 0.0001249
6 *8641:A *557:18 0
7 *296:63 *8641:A 0.000133925
*RES
1 *8640:X *8641:A 10.755 
*END

*D_NET *306 0.000569298
*CONN
*I *8643:A I *D sky130_fd_sc_hd__buf_1
*I *8642:X O *D sky130_fd_sc_hd__and2_1
*CAP
1 *8643:A 0.000183895
2 *8642:X 0.000183895
3 *8643:A *589:14 0.000201508
*RES
1 *8642:X *8643:A 10.665 
*END

*D_NET *307 0.00178408
*CONN
*I *8645:A I *D sky130_fd_sc_hd__clkbuf_2
*I *8644:X O *D sky130_fd_sc_hd__and2_1
*CAP
1 *8645:A 0.0006052
2 *8644:X 0.0006052
3 *8645:A *8757:A 0.000308713
4 *8645:A *311:36 0.00012718
5 *8645:A *321:14 9.17274e-05
6 *8645:A *614:10 0
7 *8644:B *8645:A 4.60584e-05
*RES
1 *8644:X *8645:A 15.33 
*END

*D_NET *308 0.000633356
*CONN
*I *8647:A I *D sky130_fd_sc_hd__buf_1
*I *8646:X O *D sky130_fd_sc_hd__and2_1
*CAP
1 *8647:A 0.000244086
2 *8646:X 0.000244086
3 *275:91 *8647:A 0.000145184
*RES
1 *8646:X *8647:A 10.755 
*END

*D_NET *309 0.000715098
*CONN
*I *8649:A I *D sky130_fd_sc_hd__clkbuf_2
*I *8648:X O *D sky130_fd_sc_hd__and2_1
*CAP
1 *8649:A 0.000184394
2 *8648:X 0.000184394
3 *8649:A *553:6 6.90876e-05
4 *8649:A *553:12 0.000277223
*RES
1 *8648:X *8649:A 6.755 
*END

*D_NET *310 0.00287068
*CONN
*I *8672:A I *D sky130_fd_sc_hd__buf_8
*I *8651:A I *D sky130_fd_sc_hd__buf_6
*I *8757:A I *D sky130_fd_sc_hd__clkbuf_8
*I *8650:X O *D sky130_fd_sc_hd__or3b_2
*CAP
1 *8672:A 0
2 *8651:A 0.000139211
3 *8757:A 0.000126602
4 *8650:X 0.000115254
5 *310:12 0.000330533
6 *310:10 0.000179974
7 *8651:A *8682:A0 0.000266113
8 *8651:A *418:8 0.00012657
9 *8757:A *366:8 1.34503e-05
10 *8757:A *512:14 8.0494e-05
11 *310:10 *8650:C_N 3.64998e-06
12 *310:10 *8873:A 1.9415e-05
13 *310:10 *512:14 6.65187e-05
14 *310:12 *512:14 0.000100544
15 *8644:B *8757:A 0.000272978
16 *8645:A *8757:A 0.000308713
17 *275:22 *8651:A 0.000411483
18 *275:24 *8757:A 9.14049e-05
19 *275:78 *8757:A 7.32599e-05
20 *275:78 *310:10 4.19797e-05
21 *275:78 *310:12 0.000102531
*RES
1 *8650:X *310:10 5.775 
2 *310:10 *310:12 2.145 
3 *310:12 *8757:A 8.355 
4 *310:12 *8651:A 9.24 
5 *310:10 *8672:A 3.6 
*END

*D_NET *311 0.0593222
*CONN
*I *8656:S I *D sky130_fd_sc_hd__mux2_1
*I *8654:A I *D sky130_fd_sc_hd__inv_2
*I *8652:S I *D sky130_fd_sc_hd__mux2_1
*I *8666:S I *D sky130_fd_sc_hd__mux2_1
*I *8670:S I *D sky130_fd_sc_hd__mux2_1
*I *8662:S I *D sky130_fd_sc_hd__mux2_1
*I *8658:S I *D sky130_fd_sc_hd__mux2_1
*I *8664:S I *D sky130_fd_sc_hd__mux2_1
*I *8660:S I *D sky130_fd_sc_hd__mux2_1
*I *8668:S I *D sky130_fd_sc_hd__mux2_1
*I *8651:X O *D sky130_fd_sc_hd__buf_6
*CAP
1 *8656:S 0.00179308
2 *8654:A 0
3 *8652:S 2.11403e-05
4 *8666:S 0
5 *8670:S 0.000160882
6 *8662:S 1.96054e-05
7 *8658:S 0.000346361
8 *8664:S 2.08101e-05
9 *8660:S 0.000126766
10 *8668:S 0
11 *8651:X 0.00010158
12 *311:163 0.000692828
13 *311:159 0.00351836
14 *311:157 0.00335175
15 *311:149 0.000568739
16 *311:114 0.00179752
17 *311:110 0.00675055
18 *311:99 0.00674054
19 *311:86 0.00163728
20 *311:78 0.0013032
21 *311:64 0.00213133
22 *311:58 0.00335865
23 *311:36 0.00310814
24 *311:14 0.00265332
25 *8652:S *8652:A1 4.66108e-05
26 *8652:S *8773:A 8.49205e-05
27 *8656:S *393:18 0.000273878
28 *8656:S *394:27 0.000564139
29 *8656:S *489:63 0.000186549
30 *8656:S *489:65 0.000548787
31 *8656:S *612:20 0.00042877
32 *8658:S *8658:A1 7.35729e-05
33 *8658:S *8664:A1 1.61831e-05
34 *8658:S *8794:CLK 0
35 *8658:S *8794:RESET_B 0
36 *8658:S *9046:A 0
37 *8658:S *386:65 0
38 *8660:S *529:8 0
39 *8660:S *602:14 0
40 *8662:S *387:39 3.74161e-05
41 *8664:S *8664:A1 0
42 *8670:S *8666:A0 0.000353534
43 *8670:S *8798:CLK 5.30673e-05
44 *8670:S *435:28 5.78185e-05
45 *8670:S *537:20 0.000141323
46 *8670:S *576:22 1.82563e-05
47 *311:14 *8580:B_N 8.57024e-05
48 *311:14 *408:16 7.23602e-05
49 *311:14 *613:8 0
50 *311:36 *8682:A0 0.000266729
51 *311:36 *8758:A1 8.09131e-05
52 *311:36 *8791:CLK 8.49205e-05
53 *311:36 *366:8 9.38124e-05
54 *311:36 *489:63 7.96104e-06
55 *311:36 *614:10 9.92913e-05
56 *311:58 *8682:A0 0.000631294
57 *311:58 *8682:A1 0.000202056
58 *311:58 *8716:A1 5.21706e-05
59 *311:58 *8726:S 0.00024985
60 *311:58 *8821:RESET_B 0.000108388
61 *311:58 *8826:RESET_B 6.02811e-05
62 *311:58 *366:24 0.000520979
63 *311:58 *388:70 0.000120647
64 *311:58 *448:22 0
65 *311:58 *489:8 8.53113e-06
66 *311:58 *489:41 0.000186523
67 *311:64 *383:112 0.000107425
68 *311:64 *388:113 0.0011073
69 *311:78 *8694:A 4.0415e-05
70 *311:78 *8697:A0 0
71 *311:78 *355:12 0.000642594
72 *311:86 *8662:A0 0.000121023
73 *311:86 *8668:A1 0
74 *311:86 *8694:A 0
75 *311:86 *8796:RESET_B 0.000203776
76 *311:86 *387:39 0.000386309
77 *311:86 *462:8 5.0751e-05
78 *311:86 *462:10 0
79 *311:86 *532:10 0
80 *311:99 *8668:A1 0.0001249
81 *311:99 *458:23 0.00174755
82 *311:110 *8862:A 0.000126782
83 *311:110 *529:8 0
84 *311:110 *602:8 0
85 *311:110 *602:14 0
86 *311:114 *8664:A1 0.000168213
87 *311:149 *355:8 0.000180345
88 *311:149 *355:60 4.36573e-06
89 *311:149 *383:10 3.99395e-05
90 *311:149 *385:76 8.44359e-05
91 *311:149 *385:93 0.000120829
92 *311:157 *8850:CLK 1.88602e-05
93 *311:157 *355:8 3.32412e-05
94 *311:157 *385:65 3.16621e-05
95 *311:157 *385:76 0.000156263
96 *311:157 *510:20 0
97 *311:157 *576:24 0.000401393
98 *311:159 *8626:A 0.00322521
99 *311:159 *510:20 4.11744e-05
100 *311:159 *576:24 0
101 *311:159 *595:14 0.001833
102 *311:163 *8666:A0 5.39961e-05
103 *311:163 *8667:A 1.73877e-05
104 *311:163 *9072:A 0
105 *311:163 *576:22 0
106 *311:163 *576:24 0.000268682
107 *8579:A *8656:S 0.0001249
108 *8579:A *311:14 3.86607e-05
109 *8579:A *311:36 0
110 *8610:A *311:110 5.72004e-05
111 *8617:B *8652:S 2.55502e-05
112 *8645:A *311:36 0.00012718
113 *8791:D *311:36 4.7101e-05
114 *8792:D *8656:S 3.52139e-06
115 *8792:D *311:36 0.000430534
116 *8798:D *8670:S 0.000309035
117 *8798:D *311:163 0.000127366
118 *8816:D *311:159 6.55328e-05
119 *8825:D *311:58 9.14049e-05
120 *8839:D *311:64 0.000159741
121 *8859:A *311:58 0.000133731
122 *275:24 *311:36 0.000126122
123 *275:30 *311:36 3.34164e-05
124 *275:78 *311:36 6.37495e-05
125 *296:57 *311:159 0
126 *296:57 *311:163 0
*RES
1 *8651:X *311:14 7.625 
2 *311:14 *311:36 22.045 
3 *311:36 *311:58 47.84 
4 *311:58 *311:64 15.405 
5 *311:64 *311:78 17.005 
6 *311:78 *311:86 11.74 
7 *311:86 *8668:S 1.6 
8 *311:86 *311:99 30.425 
9 *311:99 *8660:S 5.49 
10 *311:99 *311:110 88.335 
11 *311:110 *311:114 22.46 
12 *311:114 *8664:S 1.96 
13 *311:114 *8658:S 11.225 
14 *311:78 *8662:S 2.05 
15 *311:64 *311:149 6.695 
16 *311:149 *311:157 7.2825 
17 *311:157 *311:159 75.975 
18 *311:159 *311:163 11.2575 
19 *311:163 *8670:S 9.96 
20 *311:163 *8666:S 3.6 
21 *311:149 *8652:S 4.395 
22 *311:36 *8654:A 1.6 
23 *311:14 *8656:S 38.36 
*END

*D_NET *312 0.00290044
*CONN
*I *8653:A I *D sky130_fd_sc_hd__clkbuf_1
*I *8652:X O *D sky130_fd_sc_hd__mux2_1
*CAP
1 *8653:A 0.000937142
2 *8652:X 0.000937142
3 *8653:A *617:DIODE 0.000124895
4 *8653:A *8697:S 0.000138544
5 *8653:A *8796:CLK 5.86036e-05
6 *8653:A *333:29 0.000129177
7 *8653:A *333:31 0.000210861
8 *8653:A *385:103 4.21757e-05
9 *8653:A *387:39 0
10 *8653:A *477:18 6.87475e-05
11 *8653:A *487:26 0
12 *8593:A *8653:A 2.92496e-05
13 *8617:B *8653:A 0.000152134
14 *8819:D *8653:A 4.82863e-05
15 *8848:D *8653:A 4.18603e-06
16 *8859:A *8653:A 1.92979e-05
17 *285:46 *8653:A 0
18 *285:50 *8653:A 0
*RES
1 *8652:X *8653:A 22.26 
*END

*D_NET *313 0.000589972
*CONN
*I *8657:A I *D sky130_fd_sc_hd__clkbuf_1
*I *8656:X O *D sky130_fd_sc_hd__mux2_1
*CAP
1 *8657:A 0.00014847
2 *8656:X 0.00014847
3 *8657:A *8656:A1 0
4 *8657:A *539:12 0.000293032
5 *8613:B *8657:A 0
*RES
1 *8656:X *8657:A 10.62 
*END

*D_NET *314 0.000324538
*CONN
*I *8659:A I *D sky130_fd_sc_hd__clkbuf_1
*I *8658:X O *D sky130_fd_sc_hd__mux2_1
*CAP
1 *8659:A 9.21025e-05
2 *8658:X 9.21025e-05
3 *8659:A *8658:A0 7.7449e-05
4 *8659:A *8794:CLK 6.28843e-05
*RES
1 *8658:X *8659:A 9.285 
*END

*D_NET *315 0.000150538
*CONN
*I *8661:A I *D sky130_fd_sc_hd__clkbuf_1
*I *8660:X O *D sky130_fd_sc_hd__mux2_1
*CAP
1 *8661:A 4.83703e-05
2 *8660:X 4.83703e-05
3 *8661:A *8660:A1 3.26889e-05
4 *8661:A *404:16 2.11084e-05
*RES
1 *8660:X *8661:A 4.265 
*END

*D_NET *316 0.00054014
*CONN
*I *8663:A I *D sky130_fd_sc_hd__clkbuf_1
*I *8662:X O *D sky130_fd_sc_hd__mux2_1
*CAP
1 *8663:A 0.000163202
2 *8662:X 0.000163202
3 *8663:A *8694:A 0.000175074
4 *8663:A *8796:RESET_B 0
5 *8796:D *8663:A 3.86607e-05
*RES
1 *8662:X *8663:A 10.875 
*END

*D_NET *317 0.000599328
*CONN
*I *8665:A I *D sky130_fd_sc_hd__clkbuf_1
*I *8664:X O *D sky130_fd_sc_hd__mux2_1
*CAP
1 *8665:A 0.000261504
2 *8664:X 0.000261504
3 *8665:A *386:65 7.63204e-05
*RES
1 *8664:X *8665:A 10.665 
*END

*D_NET *318 0.000973163
*CONN
*I *8667:A I *D sky130_fd_sc_hd__clkbuf_1
*I *8666:X O *D sky130_fd_sc_hd__mux2_1
*CAP
1 *8667:A 0.000179304
2 *8666:X 0.000179304
3 *8667:A *8640:A 8.65961e-05
4 *8667:A *576:22 0.000229203
5 *8625:A *8667:A 0.000149905
6 *8798:D *8667:A 0.000131463
7 *311:163 *8667:A 1.73877e-05
*RES
1 *8666:X *8667:A 11.79 
*END

*D_NET *319 0.000599057
*CONN
*I *8669:A I *D sky130_fd_sc_hd__clkbuf_1
*I *8668:X O *D sky130_fd_sc_hd__mux2_1
*CAP
1 *8669:A 0.000183688
2 *8668:X 0.000183688
3 *8669:A *8697:A0 9.42331e-05
4 *8669:A *8796:CLK 4.99619e-05
5 *8669:A *8799:RESET_B 1.34594e-05
6 *8669:A *395:8 7.4027e-05
*RES
1 *8668:X *8669:A 10.875 
*END

*D_NET *320 0.000906343
*CONN
*I *8671:A I *D sky130_fd_sc_hd__clkbuf_1
*I *8670:X O *D sky130_fd_sc_hd__mux2_1
*CAP
1 *8671:A 0.000213708
2 *8670:X 0.000213708
3 *8671:A *8624:A 4.82863e-05
4 *8671:A *8670:A0 2.34602e-05
5 *8671:A *8768:S 0.000193977
6 *8671:A *8798:CLK 2.11084e-05
7 *8671:A *402:12 0.000192094
*RES
1 *8670:X *8671:A 12.9 
*END

*D_NET *321 0.0850404
*CONN
*I *8778:S I *D sky130_fd_sc_hd__mux2_1
*I *8782:S I *D sky130_fd_sc_hd__mux2_1
*I *8788:S I *D sky130_fd_sc_hd__mux2_1
*I *8780:S I *D sky130_fd_sc_hd__mux2_1
*I *8673:A I *D sky130_fd_sc_hd__buf_4
*I *8715:A I *D sky130_fd_sc_hd__clkbuf_8
*I *8736:A I *D sky130_fd_sc_hd__buf_6
*I *8694:A I *D sky130_fd_sc_hd__clkbuf_8
*I *8786:S I *D sky130_fd_sc_hd__mux2_1
*I *8784:S I *D sky130_fd_sc_hd__mux2_1
*I *8672:X O *D sky130_fd_sc_hd__buf_8
*CAP
1 *8778:S 0.00158982
2 *8782:S 6.86795e-05
3 *8788:S 2.08101e-05
4 *8780:S 0
5 *8673:A 0.000656117
6 *8715:A 0
7 *8736:A 0.000152191
8 *8694:A 0.000611389
9 *8786:S 0.0016747
10 *8784:S 0.00126156
11 *8672:X 0
12 *321:154 0.00751752
13 *321:152 0.00818002
14 *321:142 0.00367217
15 *321:132 0.00489884
16 *321:126 0.00357389
17 *321:56 0.00490928
18 *321:48 0.00508174
19 *321:46 0.00322751
20 *321:42 0.00169217
21 *321:34 0.00392399
22 *321:20 0.00358251
23 *321:14 0.00244597
24 *321:4 0.00115994
25 *8673:A *478:8 0.000629846
26 *8694:A *8662:A1 3.59997e-05
27 *8694:A *8697:A0 0
28 *8694:A *8796:RESET_B 0
29 *8694:A *401:10 0
30 *8694:A *458:21 7.04021e-05
31 *8694:A *532:10 0.000759851
32 *8694:A *535:10 0
33 *8736:A *333:54 4.58725e-05
34 *8736:A *576:24 4.91505e-05
35 *8778:S *8873:A 0.00179746
36 *8778:S *516:20 0.00297869
37 *8782:S *8782:A1 2.7919e-05
38 *8782:S *497:16 0.000108886
39 *8784:S *9000:A 0
40 *8784:S *384:18 0
41 *8784:S *384:94 0
42 *8786:S *384:94 0.00380477
43 *321:14 *8578:B_N 0
44 *321:14 *8650:A 1.22676e-05
45 *321:14 *8650:B 3.98213e-05
46 *321:14 *8791:RESET_B 0
47 *321:14 *8792:CLK 0
48 *321:14 *8792:RESET_B 0
49 *321:14 *389:93 4.43682e-05
50 *321:14 *389:106 9.70988e-05
51 *321:14 *430:8 8.7152e-06
52 *321:14 *512:14 0
53 *321:14 *614:10 0
54 *321:14 *614:25 0
55 *321:20 *8692:A1 0.000524322
56 *321:20 *389:93 0.000998443
57 *321:34 *8692:A0 0.000690867
58 *321:34 *8692:A1 0.000196376
59 *321:34 *333:54 2.46089e-05
60 *321:34 *344:18 9.80032e-06
61 *321:34 *389:93 0.000196376
62 *321:34 *412:14 0.000200388
63 *321:34 *472:12 0
64 *321:34 *541:14 4.90406e-05
65 *321:34 *576:24 7.06865e-05
66 *321:34 *602:16 0.00347491
67 *321:48 *8860:A 0.000386212
68 *321:48 *383:26 0.00037614
69 *321:48 *462:10 0
70 *321:48 *532:10 0.00248699
71 *321:126 *8650:A 5.65627e-05
72 *321:126 *8792:RESET_B 4.19967e-05
73 *321:126 *8853:RESET_B 5.4003e-05
74 *321:126 *8873:A 0.000123225
75 *321:126 *408:16 0
76 *321:126 *437:26 4.58257e-05
77 *321:126 *516:20 5.83121e-06
78 *321:126 *516:22 7.10578e-05
79 *321:126 *568:24 0.000197269
80 *321:126 *613:29 5.30673e-05
81 *321:132 *8853:RESET_B 0
82 *321:132 *391:20 0.000473208
83 *321:132 *391:22 0.00122384
84 *321:132 *391:28 6.28687e-05
85 *321:132 *408:16 0
86 *321:132 *408:18 0
87 *321:132 *563:10 5.16348e-05
88 *321:142 *8783:A 0.000166123
89 *321:142 *8788:A1 0.000161829
90 *321:142 *8853:RESET_B 0
91 *321:142 *497:16 0.000467068
92 *321:152 *8788:A1 3.00381e-05
93 *321:152 *366:99 0
94 *321:154 *8780:A1 5.83121e-06
95 *8583:A *321:14 8.65961e-05
96 *8618:A *8736:A 9.27326e-05
97 *8645:A *321:14 9.17274e-05
98 *8663:A *8694:A 0.000175074
99 *8848:D *8736:A 9.52646e-05
100 *8848:D *321:42 0.000607455
101 *8853:D *321:142 3.64998e-06
102 *275:30 *321:14 0
103 *275:34 *8673:A 0.000459134
104 *275:91 *321:142 0
105 *285:42 *8694:A 0
106 *296:14 *8673:A 0
107 *311:78 *8694:A 4.0415e-05
108 *311:86 *8694:A 0
*RES
1 *8672:X *321:4 1.6 
2 *321:4 *321:14 19.33 
3 *321:14 *321:20 14.37 
4 *321:20 *321:34 49.26 
5 *321:34 *321:42 13.955 
6 *321:42 *321:46 3.485 
7 *321:46 *321:48 68.7 
8 *321:48 *321:56 31.345 
9 *321:56 *8784:S 24.105 
10 *321:56 *8786:S 43.035 
11 *321:42 *8694:A 20.24 
12 *321:34 *8736:A 6.855 
13 *321:20 *8715:A 1.6 
14 *321:14 *8673:A 23.3 
15 *321:4 *321:126 8.86 
16 *321:126 *321:132 44.65 
17 *321:132 *321:142 48.19 
18 *321:142 *321:152 13.435 
19 *321:152 *321:154 110.505 
20 *321:154 *8780:S 1.6 
21 *321:142 *8788:S 1.96 
22 *321:132 *8782:S 3.1 
23 *321:126 *8778:S 46.9 
*END

*D_NET *322 0.0368936
*CONN
*I *8686:S I *D sky130_fd_sc_hd__mux2_1
*I *8678:S I *D sky130_fd_sc_hd__mux2_1
*I *8676:S I *D sky130_fd_sc_hd__mux2_1
*I *8682:S I *D sky130_fd_sc_hd__mux2_1
*I *8690:S I *D sky130_fd_sc_hd__mux2_1
*I *8692:S I *D sky130_fd_sc_hd__mux2_1
*I *8680:S I *D sky130_fd_sc_hd__mux2_1
*I *8674:S I *D sky130_fd_sc_hd__mux2_1
*I *8688:S I *D sky130_fd_sc_hd__mux2_1
*I *8684:S I *D sky130_fd_sc_hd__mux2_1
*I *8673:X O *D sky130_fd_sc_hd__buf_4
*CAP
1 *8686:S 0.0014061
2 *8678:S 0.00136407
3 *8676:S 0
4 *8682:S 0.000220342
5 *8690:S 9.43307e-05
6 *8692:S 6.78365e-05
7 *8680:S 0
8 *8674:S 1.45426e-05
9 *8688:S 0
10 *8684:S 0.000481978
11 *8673:X 0
12 *322:98 0.00348642
13 *322:87 0.00299724
14 *322:83 0.00432434
15 *322:63 0.000542417
16 *322:52 0.000814773
17 *322:43 0.000580139
18 *322:16 0.00151969
19 *322:14 0.00182282
20 *322:10 0.00111215
21 *322:8 0.00125009
22 *322:4 0.00292002
23 *8674:S *8675:A 4.82863e-05
24 *8678:S *8678:A0 1.61831e-05
25 *8678:S *8678:A1 4.99619e-05
26 *8678:S *8679:A 6.96579e-05
27 *8682:S *8770:A1 1.73877e-05
28 *8682:S *8770:S 0.000106648
29 *8682:S *486:21 7.24801e-05
30 *8682:S *591:14 0
31 *8684:S *8685:A 0
32 *8684:S *403:10 0
33 *8684:S *435:12 0.000116853
34 *8684:S *512:49 0
35 *8686:S *8686:A1 3.00381e-05
36 *8690:S *8690:A1 3.45679e-05
37 *8690:S *8691:A 8.65961e-05
38 *8690:S *423:16 0.000184866
39 *8690:S *511:26 3.64998e-06
40 *8692:S *344:8 0.000385327
41 *8692:S *389:93 0.000385327
42 *322:10 *8770:A0 0.000437013
43 *322:10 *8801:RESET_B 0.00107296
44 *322:14 *8770:A0 1.53986e-05
45 *322:14 *8801:RESET_B 0.000203168
46 *322:14 *389:10 0.000856129
47 *322:14 *389:18 0.000261618
48 *322:14 *389:55 4.5783e-05
49 *322:14 *403:10 0.00064907
50 *322:14 *439:8 0
51 *322:16 *389:18 0.00197917
52 *322:16 *403:10 0
53 *322:43 *8770:A0 8.26527e-05
54 *322:43 *8801:RESET_B 0.00020613
55 *322:52 *8770:A0 0.000564631
56 *322:52 *8801:RESET_B 0.000187759
57 *322:52 *439:8 0
58 *322:52 *511:110 0.0011092
59 *322:63 *8690:A1 0
60 *322:63 *8770:A0 0.0001077
61 *322:63 *8770:S 9.50342e-06
62 *322:63 *439:8 0
63 *322:63 *454:31 0
64 *322:63 *511:26 0
65 *322:87 *8613:A 0.0018382
66 *322:98 *8613:A 8.63188e-05
67 *322:98 *391:41 0
68 *8613:B *322:98 0
69 *8801:D *8674:S 2.49909e-05
70 *8801:D *322:14 0.000160651
71 *8802:D *322:87 0.000248247
72 *8833:D *322:14 0.000120186
*RES
1 *8673:X *322:4 1.6 
2 *322:4 *322:8 14.525 
3 *322:8 *322:10 12.345 
4 *322:10 *322:14 26.2725 
5 *322:14 *322:16 25.1325 
6 *322:16 *8684:S 11.865 
7 *322:16 *8688:S 3.6 
8 *322:10 *8674:S 4.05 
9 *322:8 *322:43 2.4 
10 *322:43 *8680:S 3.6 
11 *322:43 *322:52 16.425 
12 *322:52 *8692:S 7.155 
13 *322:52 *322:63 4.185 
14 *322:63 *8690:S 6.465 
15 *322:63 *8682:S 7.785 
16 *322:4 *322:83 30.465 
17 *322:83 *322:87 24.8 
18 *322:87 *8676:S 3.6 
19 *322:87 *322:98 36.53 
20 *322:98 *8678:S 22.75 
21 *322:83 *8686:S 22.75 
*END

*D_NET *323 0.000718131
*CONN
*I *8675:A I *D sky130_fd_sc_hd__clkbuf_1
*I *8674:X O *D sky130_fd_sc_hd__mux2_1
*CAP
1 *8675:A 0.000211894
2 *8674:X 0.000211894
3 *8675:A *8674:A1 0.000134938
4 *8675:A *538:12 9.91257e-05
5 *8674:S *8675:A 4.82863e-05
6 *8801:D *8675:A 1.19928e-05
*RES
1 *8674:X *8675:A 7.715 
*END

*D_NET *324 0.000868382
*CONN
*I *8677:A I *D sky130_fd_sc_hd__clkbuf_1
*I *8676:X O *D sky130_fd_sc_hd__mux2_1
*CAP
1 *8677:A 0.000119092
2 *8676:X 0.000119092
3 *8677:A *8676:A0 9.91257e-05
4 *8677:A *8676:A1 9.36617e-05
5 *8677:A *423:16 0.00043741
*RES
1 *8676:X *8677:A 7.715 
*END

*D_NET *325 0.000514664
*CONN
*I *8679:A I *D sky130_fd_sc_hd__clkbuf_1
*I *8678:X O *D sky130_fd_sc_hd__mux2_1
*CAP
1 *8679:A 0.00019193
2 *8678:X 0.00019193
3 *8679:A *8803:CLK 9.50342e-06
4 *8679:A *8823:RESET_B 5.16418e-05
5 *8678:S *8679:A 6.96579e-05
*RES
1 *8678:X *8679:A 10.065 
*END

*D_NET *326 0.000275916
*CONN
*I *8681:A I *D sky130_fd_sc_hd__clkbuf_1
*I *8680:X O *D sky130_fd_sc_hd__mux2_1
*CAP
1 *8681:A 0.000137958
2 *8680:X 0.000137958
*RES
1 *8680:X *8681:A 5.3 
*END

*D_NET *327 0.000940762
*CONN
*I *8683:A I *D sky130_fd_sc_hd__clkbuf_1
*I *8682:X O *D sky130_fd_sc_hd__mux2_1
*CAP
1 *8683:A 0.000215152
2 *8682:X 0.000215152
3 *8683:A *8682:A1 0.000211423
4 *8683:A *434:21 0.000185411
5 *8683:A *454:31 0.000113623
*RES
1 *8682:X *8683:A 12.105 
*END

*D_NET *328 0.000847149
*CONN
*I *8685:A I *D sky130_fd_sc_hd__clkbuf_1
*I *8684:X O *D sky130_fd_sc_hd__mux2_1
*CAP
1 *8685:A 0.000281309
2 *8684:X 0.000281309
3 *8685:A *8688:A0 0
4 *8685:A *344:138 0.000185405
5 *8685:A *435:26 9.91257e-05
6 *8685:A *512:49 0
7 *8684:S *8685:A 0
*RES
1 *8684:X *8685:A 12.105 
*END

*D_NET *329 0.000621624
*CONN
*I *8687:A I *D sky130_fd_sc_hd__clkbuf_1
*I *8686:X O *D sky130_fd_sc_hd__mux2_1
*CAP
1 *8687:A 0.000284764
2 *8686:X 0.000284764
3 *8687:A *8807:CLK 0
4 *8687:A *8807:RESET_B 0
5 *8807:D *8687:A 5.20968e-05
*RES
1 *8686:X *8687:A 12.075 
*END

*D_NET *330 0.00082116
*CONN
*I *8689:A I *D sky130_fd_sc_hd__clkbuf_1
*I *8688:X O *D sky130_fd_sc_hd__mux2_1
*CAP
1 *8689:A 0.000390701
2 *8688:X 0.000390701
3 *8689:A *8688:A0 3.97585e-05
*RES
1 *8688:X *8689:A 12.045 
*END

*D_NET *331 0.00131134
*CONN
*I *8691:A I *D sky130_fd_sc_hd__clkbuf_1
*I *8690:X O *D sky130_fd_sc_hd__mux2_1
*CAP
1 *8691:A 0.000262927
2 *8690:X 0.000262927
3 *8691:A *8724:A1 1.37328e-05
4 *8691:A *8770:A1 4.99619e-05
5 *8691:A *8771:A 0.000169276
6 *8691:A *423:12 0.000373367
7 *8691:A *423:16 2.59835e-05
8 *8691:A *511:26 0
9 *8691:A *511:44 6.65725e-05
10 *8690:S *8691:A 8.65961e-05
*RES
1 *8690:X *8691:A 10.265 
*END

*D_NET *332 0.000508666
*CONN
*I *8693:A I *D sky130_fd_sc_hd__clkbuf_1
*I *8692:X O *D sky130_fd_sc_hd__mux2_1
*CAP
1 *8693:A 0.000145754
2 *8692:X 0.000145754
3 *8693:A *388:28 7.4027e-05
4 *8693:A *597:12 4.05358e-05
5 *8810:D *8693:A 0.000102594
*RES
1 *8692:X *8693:A 10.17 
*END

*D_NET *333 0.0395098
*CONN
*I *8707:S I *D sky130_fd_sc_hd__mux2_1
*I *8699:S I *D sky130_fd_sc_hd__mux2_1
*I *8703:S I *D sky130_fd_sc_hd__mux2_1
*I *8695:S I *D sky130_fd_sc_hd__mux2_1
*I *8713:S I *D sky130_fd_sc_hd__mux2_1
*I *8701:S I *D sky130_fd_sc_hd__mux2_1
*I *8705:S I *D sky130_fd_sc_hd__mux2_1
*I *8709:S I *D sky130_fd_sc_hd__mux2_1
*I *8697:S I *D sky130_fd_sc_hd__mux2_1
*I *8711:S I *D sky130_fd_sc_hd__mux2_1
*I *8694:X O *D sky130_fd_sc_hd__clkbuf_8
*CAP
1 *8707:S 0
2 *8699:S 0.00126628
3 *8703:S 0.000391894
4 *8695:S 0
5 *8713:S 9.16676e-05
6 *8701:S 0.000119369
7 *8705:S 0
8 *8709:S 0.000450935
9 *8697:S 6.93325e-05
10 *8711:S 1.88809e-05
11 *8694:X 5.43937e-05
12 *333:157 0.00358435
13 *333:155 0.00444556
14 *333:142 0.00583322
15 *333:118 0.000892343
16 *333:112 0.00520085
17 *333:95 0.000957147
18 *333:91 0.00202435
19 *333:54 0.00225275
20 *333:31 0.00196753
21 *333:29 0.000399311
22 *333:16 0.000517189
23 *333:8 0.000800258
24 *8697:S *8697:A0 5.83121e-06
25 *8697:S *8697:A1 4.82863e-05
26 *8697:S *8698:A 9.80943e-06
27 *8697:S *424:10 8.65905e-05
28 *8697:S *477:18 7.17811e-05
29 *8699:S *8699:A0 8.696e-05
30 *8699:S *8700:A 4.94457e-05
31 *8701:S *8701:A0 4.66826e-05
32 *8701:S *8702:A 1.67131e-05
33 *8701:S *437:50 1.5573e-05
34 *8703:S *8695:A0 0.000158066
35 *8703:S *8703:A1 0.000385338
36 *8703:S *8711:A0 1.61831e-05
37 *8703:S *8753:A1 0.000206319
38 *8703:S *366:99 0.000378968
39 *8703:S *394:27 0.000146408
40 *8709:S *8710:A 0.000116716
41 *8709:S *8818:CLK 0.000343914
42 *8709:S *402:12 0
43 *8709:S *450:18 0.0004266
44 *8709:S *481:12 4.41506e-05
45 *8709:S *576:24 0.000186506
46 *8711:S *8711:A0 5.4155e-06
47 *8713:S *8713:A0 1.83756e-05
48 *8713:S *355:81 1.94636e-05
49 *333:8 *8796:RESET_B 7.35729e-05
50 *333:16 *8711:A0 2.30292e-05
51 *333:16 *8711:A1 0.000201903
52 *333:16 *487:26 8.05681e-05
53 *333:29 *8711:A0 2.75145e-05
54 *333:29 *387:39 0
55 *333:29 *477:18 6.98149e-05
56 *333:31 *477:18 0.000111814
57 *333:54 *8705:A0 2.66935e-05
58 *333:54 *8818:CLK 4.44927e-05
59 *333:54 *355:8 0.000229893
60 *333:54 *355:12 0.000136745
61 *333:54 *402:10 0
62 *333:54 *402:12 0.000572996
63 *333:54 *445:20 0
64 *333:54 *576:24 8.597e-05
65 *333:91 *8621:A 0
66 *333:91 *387:69 4.75576e-05
67 *333:91 *487:26 0.000342109
68 *333:95 *483:12 0.000819293
69 *333:112 *483:12 0.000163175
70 *333:118 *8695:A0 8.8266e-05
71 *333:118 *8695:A1 1.34594e-05
72 *333:118 *8713:A0 0
73 *333:118 *8868:A 0
74 *333:118 *355:81 0
75 *333:118 *394:27 0.00012657
76 *333:118 *446:23 0
77 *333:142 *355:81 0
78 *333:142 *355:90 0
79 *333:142 *446:23 0
80 *333:155 *8621:A 0
81 *333:155 *487:26 0.000659063
82 *333:157 *8862:A 0.000228891
83 *8605:B *8713:S 5.02217e-05
84 *8605:B *333:142 0
85 *8622:A *333:91 7.23602e-05
86 *8653:A *8697:S 0.000138544
87 *8653:A *333:29 0.000129177
88 *8653:A *333:31 0.000210861
89 *8736:A *333:54 4.58725e-05
90 *8790:D *8701:S 2.8185e-05
91 *8813:D *8699:S 2.937e-05
92 *8818:D *8709:S 0.000102272
93 *8819:D *333:29 0.000178439
94 *8839:D *8703:S 4.82863e-05
95 *285:22 *8713:S 4.35348e-05
96 *285:26 *8713:S 7.00889e-06
97 *285:32 *333:91 0
98 *285:42 *333:16 0
99 *321:34 *333:54 2.46089e-05
*RES
1 *8694:X *333:8 4.74 
2 *333:8 *333:16 7.625 
3 *333:16 *8711:S 1.96 
4 *333:16 *333:29 6.38 
5 *333:29 *333:31 2.655 
6 *333:31 *8697:S 6.03 
7 *333:31 *333:54 37.96 
8 *333:54 *8709:S 16.08 
9 *333:54 *8705:S 3.6 
10 *333:29 *8701:S 5.805 
11 *333:8 *333:91 9.795 
12 *333:91 *333:95 14.87 
13 *333:95 *8713:S 8.03 
14 *333:95 *333:112 4.52 
15 *333:112 *333:118 11.15 
16 *333:118 *8695:S 1.6 
17 *333:118 *8703:S 15.785 
18 *333:112 *333:142 76.095 
19 *333:142 *8699:S 22.68 
20 *333:91 *333:155 20.975 
21 *333:155 *333:157 52.89 
22 *333:157 *8707:S 1.6 
*END

*D_NET *334 0.00101438
*CONN
*I *8696:A I *D sky130_fd_sc_hd__clkbuf_1
*I *8695:X O *D sky130_fd_sc_hd__mux2_1
*CAP
1 *8696:A 0.00044886
2 *8695:X 0.00044886
3 *8696:A *8815:CLK 2.39233e-05
4 *8696:A *8868:A 0
5 *8696:A *446:23 0
6 *8815:D *8696:A 9.2741e-05
*RES
1 *8695:X *8696:A 12.84 
*END

*D_NET *335 0.00458503
*CONN
*I *8698:A I *D sky130_fd_sc_hd__clkbuf_1
*I *8697:X O *D sky130_fd_sc_hd__mux2_1
*CAP
1 *8698:A 0.00148487
2 *8697:X 0.00148487
3 *8698:A *8697:A0 0.00016063
4 *8698:A *8697:A1 0.000275656
5 *8698:A *8754:A 6.71327e-05
6 *8698:A *8776:A0 6.97118e-05
7 *8698:A *8776:A1 0.000158072
8 *8698:A *8812:RESET_B 7.00685e-05
9 *8698:A *448:22 0
10 *8698:A *476:8 0.000301265
11 *8595:A *8698:A 0.000459377
12 *8697:S *8698:A 9.80943e-06
13 *8812:D *8698:A 4.35717e-05
*RES
1 *8697:X *8698:A 27.885 
*END

*D_NET *336 0.000162329
*CONN
*I *8700:A I *D sky130_fd_sc_hd__clkbuf_1
*I *8699:X O *D sky130_fd_sc_hd__mux2_1
*CAP
1 *8700:A 5.64417e-05
2 *8699:X 5.64417e-05
3 *8699:S *8700:A 4.94457e-05
*RES
1 *8699:X *8700:A 4.265 
*END

*D_NET *337 0.000819012
*CONN
*I *8702:A I *D sky130_fd_sc_hd__clkbuf_1
*I *8701:X O *D sky130_fd_sc_hd__mux2_1
*CAP
1 *8702:A 0.00022674
2 *8701:X 0.00022674
3 *8702:A *8711:A1 6.71803e-06
4 *8702:A *387:39 8.88715e-05
5 *8702:A *451:18 2.01541e-05
6 *8701:S *8702:A 1.67131e-05
7 *8790:D *8702:A 0.000228889
8 *285:42 *8702:A 4.18603e-06
*RES
1 *8701:X *8702:A 12.33 
*END

*D_NET *338 0.00150593
*CONN
*I *8704:A I *D sky130_fd_sc_hd__clkbuf_1
*I *8703:X O *D sky130_fd_sc_hd__mux2_1
*CAP
1 *8704:A 0.000446178
2 *8703:X 0.000446178
3 *8704:A *8753:A1 4.18603e-06
4 *8704:A *8754:A 0.000253949
5 *8704:A *437:50 0.00026007
6 *8704:A *476:8 9.53671e-05
*RES
1 *8703:X *8704:A 16.11 
*END

*D_NET *339 0.000891364
*CONN
*I *8706:A I *D sky130_fd_sc_hd__clkbuf_1
*I *8705:X O *D sky130_fd_sc_hd__mux2_1
*CAP
1 *8706:A 0.000379087
2 *8705:X 0.000379087
3 *8706:A *402:12 2.87867e-05
4 *8706:A *445:22 7.4027e-05
5 *8816:D *8706:A 3.03775e-05
*RES
1 *8705:X *8706:A 13.185 
*END

*D_NET *340 0.00057498
*CONN
*I *8708:A I *D sky130_fd_sc_hd__clkbuf_1
*I *8707:X O *D sky130_fd_sc_hd__mux2_1
*CAP
1 *8708:A 0.00020999
2 *8707:X 0.00020999
3 *8708:A *8707:A0 8.5841e-05
4 *8708:A *386:19 3.04982e-05
5 *8817:D *8708:A 3.86607e-05
*RES
1 *8707:X *8708:A 10.665 
*END

*D_NET *341 0.000253478
*CONN
*I *8710:A I *D sky130_fd_sc_hd__clkbuf_1
*I *8709:X O *D sky130_fd_sc_hd__mux2_1
*CAP
1 *8710:A 6.83812e-05
2 *8709:X 6.83812e-05
3 *8709:S *8710:A 0.000116716
*RES
1 *8709:X *8710:A 4.61 
*END

*D_NET *342 0.00220684
*CONN
*I *8712:A I *D sky130_fd_sc_hd__clkbuf_1
*I *8711:X O *D sky130_fd_sc_hd__mux2_1
*CAP
1 *8712:A 0.000612881
2 *8711:X 0.000612881
3 *8712:A *8711:A0 7.60965e-05
4 *8712:A *8711:A1 5.36281e-05
5 *8712:A *8753:A0 0.000426206
6 *8712:A *387:39 0
7 *8712:A *387:50 0
8 *8712:A *508:118 0
9 *8819:D *8712:A 0.000425142
*RES
1 *8711:X *8712:A 19.08 
*END

*D_NET *343 0.00082217
*CONN
*I *8714:A I *D sky130_fd_sc_hd__clkbuf_1
*I *8713:X O *D sky130_fd_sc_hd__mux2_1
*CAP
1 *8714:A 0.000337058
2 *8713:X 0.000337058
3 *8714:A *507:25 7.4027e-05
4 *296:120 *8714:A 7.4027e-05
*RES
1 *8713:X *8714:A 12.585 
*END

*D_NET *344 0.0504401
*CONN
*I *8722:S I *D sky130_fd_sc_hd__mux2_1
*I *8728:S I *D sky130_fd_sc_hd__mux2_1
*I *8718:S I *D sky130_fd_sc_hd__mux2_1
*I *8734:S I *D sky130_fd_sc_hd__mux2_1
*I *8732:S I *D sky130_fd_sc_hd__mux2_1
*I *8720:S I *D sky130_fd_sc_hd__mux2_1
*I *8730:S I *D sky130_fd_sc_hd__mux2_1
*I *8716:S I *D sky130_fd_sc_hd__mux2_1
*I *8726:S I *D sky130_fd_sc_hd__mux2_1
*I *8724:S I *D sky130_fd_sc_hd__mux2_1
*I *8715:X O *D sky130_fd_sc_hd__clkbuf_8
*CAP
1 *8722:S 0.000228259
2 *8728:S 0.000111671
3 *8718:S 0
4 *8734:S 0.000644853
5 *8732:S 0
6 *8720:S 0
7 *8730:S 0.000278547
8 *8716:S 0
9 *8726:S 0.000109061
10 *8724:S 1.86412e-05
11 *8715:X 0.000254226
12 *344:138 0.00199724
13 *344:130 0.00401397
14 *344:128 0.00235666
15 *344:109 0.00249505
16 *344:101 0.00296097
17 *344:88 0.00486401
18 *344:86 0.00486401
19 *344:84 0.00193484
20 *344:59 0.00133244
21 *344:46 0.000300264
22 *344:29 0.000396669
23 *344:18 0.00089977
24 *344:8 0.000918193
25 *8722:S *8688:A0 0.000335177
26 *8722:S *8824:RESET_B 8.78813e-05
27 *8722:S *388:8 0
28 *8722:S *439:24 0.000161204
29 *8722:S *472:28 1.12851e-05
30 *8722:S *472:30 0.000177849
31 *8724:S *8724:A1 0.000124895
32 *8724:S *423:12 0.000124895
33 *8726:S *8716:A1 0.000123122
34 *8726:S *8726:A1 0.000241483
35 *8726:S *8821:RESET_B 4.66108e-05
36 *8726:S *8826:RESET_B 0
37 *8728:S *8728:A0 0.000179728
38 *8728:S *8824:RESET_B 4.80285e-05
39 *8728:S *565:14 8.09157e-06
40 *8730:S *8711:A0 1.85674e-05
41 *8730:S *8716:A0 0
42 *8730:S *8718:A1 4.99619e-05
43 *8730:S *8719:A 0.000120655
44 *8730:S *8727:A 9.88199e-05
45 *8730:S *8730:A0 4.18603e-06
46 *8730:S *526:34 5.39961e-05
47 *8734:S *8732:A1 0.000125293
48 *8734:S *8734:A0 8.8266e-05
49 *8734:S *8735:A 0.00012657
50 *8734:S *8747:S 0.00210646
51 *8734:S *8878:A 2.75145e-05
52 *344:8 *389:93 3.63745e-05
53 *344:18 *8692:A0 0.000289063
54 *344:18 *8726:A0 0
55 *344:18 *389:93 2.49909e-05
56 *344:18 *541:14 0
57 *344:29 *8726:A0 0
58 *344:29 *8805:CLK 0
59 *344:29 *8821:RESET_B 0.000133928
60 *344:29 *483:10 2.97004e-06
61 *344:46 *8716:A1 2.34423e-05
62 *344:46 *483:10 5.5554e-05
63 *344:59 *8718:A1 0.000146408
64 *344:59 *8719:A 0.000629345
65 *344:59 *8727:A 0
66 *344:59 *8822:RESET_B 0.000275362
67 *344:59 *483:10 0.000102637
68 *344:84 *8716:A0 0.0017879
69 *344:84 *526:34 0.00139534
70 *344:88 *8720:A0 5.30673e-05
71 *344:88 *8721:A 4.82919e-05
72 *344:101 *390:14 0.001418
73 *344:101 *526:34 0.000157341
74 *344:109 *8878:A 6.44417e-05
75 *344:109 *390:14 0.000228477
76 *344:109 *390:38 0.00113357
77 *344:109 *390:79 8.13754e-05
78 *344:109 *526:32 0
79 *344:109 *597:10 0
80 *344:130 *8770:A0 0
81 *344:130 *389:61 0.00165534
82 *344:130 *389:76 0.00100801
83 *344:130 *389:93 0.000178333
84 *344:130 *453:12 1.67619e-05
85 *344:130 *453:14 0.00118387
86 *344:130 *454:31 8.17776e-05
87 *344:130 *556:12 0
88 *344:138 *8688:A0 0
89 *344:138 *8824:RESET_B 0.000179027
90 *344:138 *389:18 0
91 *344:138 *453:14 0.0013145
92 *344:138 *512:49 0
93 *344:138 *556:12 0
94 *344:138 *565:14 0.000127476
95 *8685:A *344:138 0.000185405
96 *8692:S *344:8 0.000385327
97 *8806:D *344:138 0
98 *8821:D *344:29 0.000154253
99 *8821:D *344:46 0.000104287
100 *8824:D *8722:S 4.82863e-05
101 *8825:D *344:29 0
102 *311:58 *8726:S 0.00024985
103 *321:34 *344:18 9.80032e-06
*RES
1 *8715:X *344:8 6.205 
2 *344:8 *344:18 12.11 
3 *344:18 *8724:S 4.74 
4 *344:18 *344:29 4.185 
5 *344:29 *8726:S 7.98 
6 *344:29 *344:46 1.89 
7 *344:46 *8716:S 3.6 
8 *344:46 *344:59 9.965 
9 *344:59 *8730:S 10.94 
10 *344:59 *344:84 30.665 
11 *344:84 *344:86 2 
12 *344:86 *344:88 72.21 
13 *344:88 *8720:S 1.6 
14 *344:84 *344:101 24.8925 
15 *344:101 *344:109 42.8975 
16 *344:109 *8732:S 1.6 
17 *344:109 *8734:S 20.68 
18 *344:59 *8718:S 1.6 
19 *344:8 *344:128 2 
20 *344:128 *344:130 56.9325 
21 *344:130 *344:138 36.8225 
22 *344:138 *8728:S 4.465 
23 *344:138 *8722:S 12.755 
*END

*D_NET *345 0.000796324
*CONN
*I *8717:A I *D sky130_fd_sc_hd__clkbuf_1
*I *8716:X O *D sky130_fd_sc_hd__mux2_1
*CAP
1 *8717:A 0.000164321
2 *8716:X 0.000164321
3 *8717:A *8719:A 0.000198051
4 *8717:A *437:50 0.000200543
5 *8822:D *8717:A 6.90876e-05
*RES
1 *8716:X *8717:A 7.715 
*END

*D_NET *346 0.00248589
*CONN
*I *8719:A I *D sky130_fd_sc_hd__clkbuf_1
*I *8718:X O *D sky130_fd_sc_hd__mux2_1
*CAP
1 *8719:A 0.000487109
2 *8718:X 0.000487109
3 *8719:A *8716:A0 0.000288957
4 *8719:A *437:50 3.99879e-05
5 *8717:A *8719:A 0.000198051
6 *8730:S *8719:A 0.000120655
7 *8822:D *8719:A 0.00023468
8 *344:59 *8719:A 0.000629345
*RES
1 *8718:X *8719:A 19.86 
*END

*D_NET *347 0.000163925
*CONN
*I *8721:A I *D sky130_fd_sc_hd__clkbuf_1
*I *8720:X O *D sky130_fd_sc_hd__mux2_1
*CAP
1 *8721:A 5.78166e-05
2 *8720:X 5.78166e-05
3 *344:88 *8721:A 4.82919e-05
*RES
1 *8720:X *8721:A 4.265 
*END

*D_NET *348 0.000233702
*CONN
*I *8723:A I *D sky130_fd_sc_hd__clkbuf_1
*I *8722:X O *D sky130_fd_sc_hd__mux2_1
*CAP
1 *8723:A 7.39998e-05
2 *8722:X 7.39998e-05
3 *8723:A *8729:A 0
4 *8723:A *472:28 8.57024e-05
*RES
1 *8722:X *8723:A 4.61 
*END

*D_NET *349 0.000346098
*CONN
*I *8725:A I *D sky130_fd_sc_hd__clkbuf_1
*I *8724:X O *D sky130_fd_sc_hd__mux2_1
*CAP
1 *8725:A 0.000127989
2 *8724:X 0.000127989
3 *8725:A *423:12 4.99619e-05
4 *8725:A *472:12 0
5 *8725:A *489:41 1.22762e-05
6 *8825:D *8725:A 2.7881e-05
*RES
1 *8724:X *8725:A 9.285 
*END

*D_NET *350 0.00269064
*CONN
*I *8727:A I *D sky130_fd_sc_hd__clkbuf_1
*I *8726:X O *D sky130_fd_sc_hd__mux2_1
*CAP
1 *8727:A 0.000699105
2 *8726:X 0.000699105
3 *8727:A *8711:A0 0.000350569
4 *8727:A *8716:A0 3.35901e-05
5 *8727:A *8716:A1 0.000276192
6 *8727:A *8730:A0 0
7 *8727:A *8730:A1 0
8 *8727:A *8821:RESET_B 2.7441e-05
9 *8727:A *8826:RESET_B 3.00381e-05
10 *8730:S *8727:A 9.88199e-05
11 *8822:D *8727:A 0.000293025
12 *8825:D *8727:A 0.000148194
13 *8826:D *8727:A 3.45588e-05
14 *344:59 *8727:A 0
*RES
1 *8726:X *8727:A 21.54 
*END

*D_NET *351 0.00100105
*CONN
*I *8729:A I *D sky130_fd_sc_hd__clkbuf_1
*I *8728:X O *D sky130_fd_sc_hd__mux2_1
*CAP
1 *8729:A 0.000376844
2 *8728:X 0.000376844
3 *8729:A *8728:A1 5.72433e-05
4 *8729:A *472:14 0
5 *8729:A *472:28 0.00012657
6 *8729:A *495:16 6.35535e-05
7 *8723:A *8729:A 0
*RES
1 *8728:X *8729:A 13.35 
*END

*D_NET *352 0.00172596
*CONN
*I *8731:A I *D sky130_fd_sc_hd__clkbuf_1
*I *8730:X O *D sky130_fd_sc_hd__mux2_1
*CAP
1 *8731:A 0.000200467
2 *8730:X 0.000200467
3 *8731:A *8745:A1 0.000160658
4 *8731:A *383:162 0.000116416
5 *8731:A *388:70 3.96653e-05
6 *8731:A *388:113 3.00381e-05
7 *8731:A *472:12 0.000350222
8 *8731:A *489:41 0.000124007
9 *8826:D *8731:A 0.000504022
*RES
1 *8730:X *8731:A 14.67 
*END

*D_NET *353 0.000544659
*CONN
*I *8733:A I *D sky130_fd_sc_hd__clkbuf_1
*I *8732:X O *D sky130_fd_sc_hd__mux2_1
*CAP
1 *8733:A 7.50745e-05
2 *8732:X 7.50745e-05
3 *8733:A *8732:A0 0.000138791
4 *8733:A *355:115 0.000255719
*RES
1 *8732:X *8733:A 5.99 
*END

*D_NET *354 0.000291067
*CONN
*I *8735:A I *D sky130_fd_sc_hd__clkbuf_1
*I *8734:X O *D sky130_fd_sc_hd__mux2_1
*CAP
1 *8735:A 8.22486e-05
2 *8734:X 8.22486e-05
3 *8734:S *8735:A 0.00012657
*RES
1 *8734:X *8735:A 4.955 
*END

*D_NET *355 0.0690339
*CONN
*I *8745:S I *D sky130_fd_sc_hd__mux2_1
*I *8741:S I *D sky130_fd_sc_hd__mux2_1
*I *8753:S I *D sky130_fd_sc_hd__mux2_1
*I *8747:S I *D sky130_fd_sc_hd__mux2_1
*I *8739:S I *D sky130_fd_sc_hd__mux2_1
*I *8751:S I *D sky130_fd_sc_hd__mux2_1
*I *8755:S I *D sky130_fd_sc_hd__mux2_1
*I *8737:S I *D sky130_fd_sc_hd__mux2_1
*I *8743:S I *D sky130_fd_sc_hd__mux2_1
*I *8749:S I *D sky130_fd_sc_hd__mux2_1
*I *615:DIODE I *D sky130_fd_sc_hd__diode_2
*I *8736:X O *D sky130_fd_sc_hd__buf_6
*CAP
1 *8745:S 0
2 *8741:S 0.00168172
3 *8753:S 0
4 *8747:S 0.0018551
5 *8739:S 2.03684e-05
6 *8751:S 0
7 *8755:S 0
8 *8737:S 3.76639e-05
9 *8743:S 0
10 *8749:S 0
11 *615:DIODE 0.000205877
12 *8736:X 0.000244945
13 *355:141 0.00575822
14 *355:139 0.00518486
15 *355:126 0.00111704
16 *355:115 0.00322614
17 *355:94 0.00153226
18 *355:90 0.00285199
19 *355:81 0.00348751
20 *355:73 0.0010373
21 *355:60 0.00088152
22 *355:41 0.00169326
23 *355:32 0.00190708
24 *355:14 0.000221725
25 *355:12 0.00548386
26 *355:10 0.00521653
27 *355:8 0.00087422
28 *615:DIODE *8750:A 0.000161204
29 *8739:S *8739:A0 8.8266e-05
30 *8739:S *8739:A1 2.0514e-05
31 *8739:S *480:22 0.0001249
32 *8741:S *8741:A1 1.83847e-05
33 *8741:S *8742:A 0.00012657
34 *8747:S *8732:A0 4.40446e-05
35 *8747:S *8732:A1 2.50602e-05
36 *8747:S *8734:A0 0.000614703
37 *8747:S *571:28 0.000600478
38 *355:8 *445:20 0
39 *355:8 *576:24 4.94326e-05
40 *355:12 *8750:A 0.000543682
41 *355:14 *8750:A 4.82863e-05
42 *355:32 *8749:A1 1.94805e-05
43 *355:32 *8837:RESET_B 6.64979e-05
44 *355:32 *9059:A 0.000134871
45 *355:32 *474:16 2.46089e-05
46 *355:32 *506:12 0.000112123
47 *355:32 *509:52 6.65717e-05
48 *355:41 *8780:A1 0.000273702
49 *355:41 *9059:A 0.000591639
50 *355:41 *9075:A 0.000654265
51 *355:41 *479:20 0
52 *355:41 *509:52 2.96297e-05
53 *355:41 *575:8 0.00236422
54 *355:60 *8652:A1 0
55 *355:60 *8755:A1 7.26629e-05
56 *355:60 *8790:RESET_B 6.94543e-05
57 *355:60 *8811:RESET_B 5.11025e-05
58 *355:60 *383:10 3.79595e-05
59 *355:60 *385:93 0
60 *355:60 *385:101 0
61 *355:60 *445:20 0
62 *355:60 *507:25 0
63 *355:60 *508:29 7.465e-05
64 *355:73 *8753:A0 0.000219333
65 *355:73 *8753:A1 2.11084e-05
66 *355:73 *8754:A 0.00023468
67 *355:73 *507:25 0
68 *355:73 *508:118 0
69 *355:73 *509:12 0.000162325
70 *355:73 *548:34 5.33874e-05
71 *355:81 *8713:A0 0.000163185
72 *355:81 *430:125 0.000559671
73 *355:81 *578:12 0.000225836
74 *355:90 *578:12 0.00224585
75 *355:94 *578:10 7.4924e-05
76 *355:94 *578:12 5.53249e-06
77 *355:115 *8732:A0 0.00107393
78 *355:115 *8763:A 0
79 *355:115 *8764:S 0.00027059
80 *355:115 *578:10 5.84989e-05
81 *355:126 *8753:A1 1.61831e-05
82 *355:126 *8754:A 4.82919e-05
83 *355:139 *8713:A0 0.00124279
84 *355:139 *8753:A1 1.12578e-05
85 *355:139 *8754:A 0.000842419
86 *355:139 *513:46 3.09164e-05
87 *355:141 *8828:RESET_B 0.00011379
88 *355:141 *8835:CLK 0
89 *355:141 *388:74 0
90 *355:141 *498:12 0
91 *355:141 *513:46 0.000199953
92 *8605:B *355:81 0.000990528
93 *8608:A *355:32 0
94 *8713:S *355:81 1.94636e-05
95 *8733:A *355:115 0.000255719
96 *8734:S *8747:S 0.00210646
97 *8811:D *355:60 0.000160651
98 *8828:D *355:141 0.000117825
99 *8829:D *355:115 2.75145e-05
100 *8833:D *8741:S 9.2741e-05
101 *8836:D *8747:S 0.000198939
102 *8843:D *355:115 5.05521e-05
103 *285:112 *355:12 0.00428375
104 *311:78 *355:12 0.000642594
105 *311:149 *355:8 0.000180345
106 *311:149 *355:60 4.36573e-06
107 *311:157 *355:8 3.32412e-05
108 *333:54 *355:8 0.000229893
109 *333:54 *355:12 0.000136745
110 *333:118 *355:81 0
111 *333:142 *355:81 0
112 *333:142 *355:90 0
*RES
1 *8736:X *355:8 9.57 
2 *355:8 *355:10 2 
3 *355:10 *355:12 98.085 
4 *355:12 *355:14 0.45 
5 *355:14 *615:DIODE 5.515 
6 *355:14 *8749:S 1.6 
7 *355:12 *355:32 7.97 
8 *355:32 *8743:S 3.6 
9 *355:32 *355:41 49.065 
10 *355:41 *8737:S 4.05 
11 *355:8 *355:60 11.16 
12 *355:60 *8755:S 3.6 
13 *355:60 *355:73 8.645 
14 *355:73 *355:81 25.19 
15 *355:81 *8751:S 3.6 
16 *355:81 *355:90 61.3725 
17 *355:90 *355:94 2.7825 
18 *355:94 *8739:S 4.74 
19 *355:94 *355:115 31.985 
20 *355:115 *8747:S 38.635 
21 *355:73 *355:126 0.45 
22 *355:126 *8753:S 1.6 
23 *355:126 *355:139 28.01 
24 *355:139 *355:141 67.17 
25 *355:141 *8741:S 28.545 
26 *355:139 *8745:S 3.6 
*END

*D_NET *356 0.000988027
*CONN
*I *8738:A I *D sky130_fd_sc_hd__clkbuf_1
*I *8737:X O *D sky130_fd_sc_hd__mux2_1
*CAP
1 *8738:A 0.00029802
2 *8737:X 0.00029802
3 *8738:A *8737:A1 0.000146525
4 *8738:A *501:27 0.000179922
5 *8738:A *603:8 0
6 *8831:D *8738:A 6.55406e-05
*RES
1 *8737:X *8738:A 12.705 
*END

*D_NET *357 0.000265072
*CONN
*I *8740:A I *D sky130_fd_sc_hd__clkbuf_1
*I *8739:X O *D sky130_fd_sc_hd__mux2_1
*CAP
1 *8740:A 6.81523e-05
2 *8739:X 6.81523e-05
3 *8740:A *8739:A1 0.000115035
4 *8740:A *480:22 0
5 *296:139 *8740:A 1.37328e-05
*RES
1 *8739:X *8740:A 4.61 
*END

*D_NET *358 0.000291067
*CONN
*I *8742:A I *D sky130_fd_sc_hd__clkbuf_1
*I *8741:X O *D sky130_fd_sc_hd__mux2_1
*CAP
1 *8742:A 8.22486e-05
2 *8741:X 8.22486e-05
3 *8741:S *8742:A 0.00012657
*RES
1 *8741:X *8742:A 4.955 
*END

*D_NET *359 0.00160953
*CONN
*I *8744:A I *D sky130_fd_sc_hd__clkbuf_1
*I *8743:X O *D sky130_fd_sc_hd__mux2_1
*CAP
1 *8744:A 0.000519923
2 *8743:X 0.000519923
3 *8744:A *404:14 0.000533416
4 *8608:A *8744:A 2.46089e-05
5 *8834:D *8744:A 1.16578e-05
*RES
1 *8743:X *8744:A 14.67 
*END

*D_NET *360 0.00085526
*CONN
*I *8746:A I *D sky130_fd_sc_hd__clkbuf_1
*I *8745:X O *D sky130_fd_sc_hd__mux2_1
*CAP
1 *8746:A 0.000253492
2 *8745:X 0.000253492
3 *8746:A *8711:A0 1.17309e-05
4 *8746:A *8835:CLK 0.000253675
5 *8746:A *513:46 3.64998e-06
6 *8835:D *8746:A 7.92202e-05
*RES
1 *8745:X *8746:A 12.315 
*END

*D_NET *361 0.000162983
*CONN
*I *8748:A I *D sky130_fd_sc_hd__clkbuf_1
*I *8747:X O *D sky130_fd_sc_hd__mux2_1
*CAP
1 *8748:A 5.17433e-05
2 *8747:X 5.17433e-05
3 *8748:A *571:28 5.94962e-05
*RES
1 *8747:X *8748:A 4.265 
*END

*D_NET *362 0.00216423
*CONN
*I *8750:A I *D sky130_fd_sc_hd__clkbuf_1
*I *8749:X O *D sky130_fd_sc_hd__mux2_1
*CAP
1 *8750:A 0.000559917
2 *8749:X 0.000559917
3 *8750:A *474:16 0.000237249
4 *615:DIODE *8750:A 0.000161204
5 *8604:A *8750:A 0
6 *8608:A *8750:A 0
7 *8837:D *8750:A 5.39718e-05
8 *355:12 *8750:A 0.000543682
9 *355:14 *8750:A 4.82863e-05
*RES
1 *8749:X *8750:A 18.675 
*END

*D_NET *363 0.000977812
*CONN
*I *8752:A I *D sky130_fd_sc_hd__clkbuf_1
*I *8751:X O *D sky130_fd_sc_hd__mux2_1
*CAP
1 *8752:A 0.000347299
2 *8751:X 0.000347299
3 *8752:A *430:125 0.000141606
4 *296:120 *8752:A 0.000141606
*RES
1 *8751:X *8752:A 13.08 
*END

*D_NET *364 0.00415138
*CONN
*I *8754:A I *D sky130_fd_sc_hd__clkbuf_1
*I *8753:X O *D sky130_fd_sc_hd__mux2_1
*CAP
1 *8754:A 0.00121931
2 *8753:X 0.00121931
3 *8754:A *8753:A1 0
4 *8754:A *366:99 0
5 *8754:A *388:113 4.82919e-05
6 *8754:A *448:22 0.000218004
7 *8754:A *476:8 0
8 *8698:A *8754:A 6.71327e-05
9 *8704:A *8754:A 0.000253949
10 *355:73 *8754:A 0.00023468
11 *355:126 *8754:A 4.82919e-05
12 *355:139 *8754:A 0.000842419
*RES
1 *8753:X *8754:A 30.615 
*END

*D_NET *365 0.000200316
*CONN
*I *8756:A I *D sky130_fd_sc_hd__clkbuf_1
*I *8755:X O *D sky130_fd_sc_hd__mux2_1
*CAP
1 *8756:A 7.4882e-05
2 *8755:X 7.4882e-05
3 *8756:A *441:18 5.05521e-05
*RES
1 *8755:X *8756:A 4.61 
*END

*D_NET *366 0.0537046
*CONN
*I *8758:S I *D sky130_fd_sc_hd__mux2_1
*I *8770:S I *D sky130_fd_sc_hd__mux2_1
*I *8776:S I *D sky130_fd_sc_hd__mux2_1
*I *8762:S I *D sky130_fd_sc_hd__mux2_1
*I *8764:S I *D sky130_fd_sc_hd__mux2_1
*I *8760:S I *D sky130_fd_sc_hd__mux2_1
*I *8766:S I *D sky130_fd_sc_hd__mux2_1
*I *8774:S I *D sky130_fd_sc_hd__mux2_1
*I *8768:S I *D sky130_fd_sc_hd__mux2_1
*I *8772:S I *D sky130_fd_sc_hd__mux2_1
*I *8757:X O *D sky130_fd_sc_hd__clkbuf_8
*CAP
1 *8758:S 0.00025939
2 *8770:S 4.30936e-05
3 *8776:S 0
4 *8762:S 0
5 *8764:S 0.00119255
6 *8760:S 0
7 *8766:S 0.0006338
8 *8774:S 4.10464e-05
9 *8768:S 0.00102456
10 *8772:S 1.17533e-05
11 *8757:X 0.000202128
12 *366:107 0.00133976
13 *366:99 0.00412749
14 *366:90 0.00416488
15 *366:51 0.00184875
16 *366:49 0.00231548
17 *366:45 0.00234736
18 *366:32 0.00170913
19 *366:26 0.00043315
20 *366:24 0.00257204
21 *366:18 0.00319835
22 *366:8 0.00104474
23 *8758:S *8758:A1 4.99619e-05
24 *8758:S *8841:CLK 0.000105597
25 *8758:S *391:68 9.64556e-05
26 *8758:S *437:26 0.0001249
27 *8758:S *568:24 2.96426e-05
28 *8764:S *8732:A0 1.10808e-05
29 *8764:S *8764:A1 4.40446e-05
30 *8764:S *8765:A 0
31 *8764:S *8832:CLK 0.00043551
32 *8764:S *8843:RESET_B 7.06865e-05
33 *8764:S *446:23 0.000112123
34 *8764:S *570:24 2.8585e-06
35 *8766:S *8877:A 0
36 *8766:S *406:12 0.000134509
37 *8766:S *476:8 0
38 *8766:S *560:8 0.000308703
39 *8766:S *600:6 3.56312e-05
40 *8768:S *8798:CLK 0.000157968
41 *8768:S *402:12 0
42 *8768:S *435:28 0.000541304
43 *8768:S *606:14 0.000275443
44 *8770:S *8770:A1 6.10014e-05
45 *8772:S *8850:CLK 4.82863e-05
46 *8772:S *423:12 2.75145e-05
47 *8774:S *8774:A0 1.14192e-05
48 *8774:S *8774:A1 4.89395e-05
49 *8774:S *8775:A 1.22325e-05
50 *8774:S *600:6 1.07593e-05
51 *366:8 *489:63 0.000275553
52 *366:18 *8759:A 7.04675e-05
53 *366:18 *8847:RESET_B 0.000142233
54 *366:18 *486:8 0.000180997
55 *366:18 *489:41 8.60332e-05
56 *366:18 *489:63 8.49205e-05
57 *366:24 *8776:A1 0.00018548
58 *366:24 *8777:A 4.66108e-05
59 *366:24 *8847:CLK 0.000232111
60 *366:24 *486:8 4.80285e-05
61 *366:24 *489:41 0.000433002
62 *366:32 *8760:A0 0
63 *366:32 *8777:A 0.000137578
64 *366:32 *8850:CLK 3.57349e-05
65 *366:32 *423:12 0.000216793
66 *366:32 *476:8 1.07797e-05
67 *366:32 *511:62 3.45679e-05
68 *366:45 *442:45 0.00130469
69 *366:45 *442:47 0
70 *366:45 *487:12 5.21627e-05
71 *366:45 *511:72 0.000159957
72 *366:45 *557:20 0
73 *366:45 *610:26 0.00328667
74 *366:49 *442:47 0
75 *366:49 *557:18 0.00243924
76 *366:49 *557:20 0.000894866
77 *366:49 *610:16 0.00398354
78 *366:51 *8774:A1 7.99484e-05
79 *366:51 *8885:A 0.000262308
80 *366:51 *600:6 3.15088e-05
81 *366:90 *8760:A1 3.16707e-06
82 *366:90 *476:8 0.000113851
83 *366:90 *479:12 8.67666e-06
84 *366:99 *8703:A1 5.10957e-05
85 *366:99 *8753:A1 5.43129e-05
86 *366:99 *8760:A0 8.68042e-06
87 *366:99 *8760:A1 4.55864e-06
88 *366:99 *8838:CLK 0
89 *366:99 *8839:RESET_B 0.000139238
90 *366:99 *446:23 0.00429252
91 *366:107 *8739:A0 9.92397e-05
92 *366:107 *446:23 0.000197652
93 *366:107 *480:12 8.23457e-05
94 *8644:B *366:8 7.41221e-05
95 *8671:A *8768:S 0.000193977
96 *8682:S *8770:S 0.000106648
97 *8703:S *366:99 0.000378968
98 *8754:A *366:99 0
99 *8757:A *366:8 1.34503e-05
100 *8800:D *8768:S 0.00015997
101 *8812:D *366:32 8.53113e-06
102 *8812:D *366:90 0.000289298
103 *8825:D *366:24 0.000162311
104 *8839:D *366:90 0.000115464
105 *8839:D *366:99 0.000165002
106 *8843:D *8764:S 1.17309e-05
107 *8845:D *8766:S 9.30717e-05
108 *311:36 *366:8 9.38124e-05
109 *311:58 *366:24 0.000520979
110 *321:152 *366:99 0
111 *322:63 *8770:S 9.50342e-06
112 *355:115 *8764:S 0.00027059
*RES
1 *8757:X *366:8 5.86 
2 *366:8 *366:18 9.915 
3 *366:18 *366:24 33.6 
4 *366:24 *366:26 2 
5 *366:26 *366:32 7.445 
6 *366:32 *8772:S 2.05 
7 *366:32 *366:45 45.6125 
8 *366:45 *366:49 47.8775 
9 *366:49 *366:51 9.765 
10 *366:51 *8768:S 27.95 
11 *366:51 *8774:S 3.01 
12 *366:49 *8766:S 16.565 
13 *366:26 *366:90 4.635 
14 *366:90 *8760:S 3.6 
15 *366:90 *366:99 94.0125 
16 *366:99 *366:107 5.5775 
17 *366:107 *8764:S 21.5 
18 *366:107 *8762:S 1.6 
19 *366:24 *8776:S 1.6 
20 *366:18 *8770:S 6.98 
21 *366:8 *8758:S 11.18 
*END

*D_NET *367 0.000850744
*CONN
*I *8759:A I *D sky130_fd_sc_hd__clkbuf_1
*I *8758:X O *D sky130_fd_sc_hd__mux2_1
*CAP
1 *8759:A 0.000215136
2 *8758:X 0.000215136
3 *8759:A *8841:CLK 0.000135759
4 *8759:A *391:68 0.00012849
5 *8759:A *489:41 8.57563e-05
6 *366:18 *8759:A 7.04675e-05
*RES
1 *8758:X *8759:A 11.52 
*END

*D_NET *368 0.00139463
*CONN
*I *8761:A I *D sky130_fd_sc_hd__clkbuf_1
*I *8760:X O *D sky130_fd_sc_hd__mux2_1
*CAP
1 *8761:A 0.000292912
2 *8760:X 0.000292912
3 *8761:A *388:113 0.000229541
4 *8761:A *437:50 0.000173117
5 *8761:A *479:12 0.000254151
6 *8812:D *8761:A 0.000131489
7 *8842:D *8761:A 2.05056e-05
*RES
1 *8760:X *8761:A 13.185 
*END

*D_NET *369 0.000659505
*CONN
*I *8763:A I *D sky130_fd_sc_hd__clkbuf_1
*I *8762:X O *D sky130_fd_sc_hd__mux2_1
*CAP
1 *8763:A 0.000260899
2 *8762:X 0.000260899
3 *8763:A *8843:RESET_B 0
4 *8763:A *446:23 0
5 *8763:A *480:22 8.8266e-05
6 *8763:A *578:10 0
7 *8843:D *8763:A 4.94404e-05
8 *355:115 *8763:A 0
*RES
1 *8762:X *8763:A 11.415 
*END

*D_NET *370 0.00035596
*CONN
*I *8765:A I *D sky130_fd_sc_hd__clkbuf_1
*I *8764:X O *D sky130_fd_sc_hd__mux2_1
*CAP
1 *8765:A 9.6378e-05
2 *8764:X 9.6378e-05
3 *8765:A *8764:A0 0.000163204
4 *8764:S *8765:A 0
*RES
1 *8764:X *8765:A 5.3 
*END

*D_NET *371 0.00133909
*CONN
*I *8767:A I *D sky130_fd_sc_hd__clkbuf_1
*I *8766:X O *D sky130_fd_sc_hd__mux2_1
*CAP
1 *8767:A 0.00033439
2 *8766:X 0.00033439
3 *8767:A *8877:A 0.000271308
4 *8767:A *442:47 0
5 *8767:A *610:16 0.000398999
*RES
1 *8766:X *8767:A 14.415 
*END

*D_NET *372 0.000200316
*CONN
*I *8769:A I *D sky130_fd_sc_hd__clkbuf_1
*I *8768:X O *D sky130_fd_sc_hd__mux2_1
*CAP
1 *8769:A 5.75981e-05
2 *8768:X 5.75981e-05
3 *8769:A *435:28 5.05521e-05
4 *8769:A *485:24 3.45679e-05
*RES
1 *8768:X *8769:A 4.61 
*END

*D_NET *373 0.000414758
*CONN
*I *8771:A I *D sky130_fd_sc_hd__clkbuf_1
*I *8770:X O *D sky130_fd_sc_hd__mux2_1
*CAP
1 *8771:A 7.84685e-05
2 *8770:X 7.84685e-05
3 *8771:A *511:44 4.82863e-05
4 *8691:A *8771:A 0.000169276
5 *8847:D *8771:A 4.02591e-05
*RES
1 *8770:X *8771:A 5.3 
*END

*D_NET *374 0.00215877
*CONN
*I *8773:A I *D sky130_fd_sc_hd__clkbuf_1
*I *8772:X O *D sky130_fd_sc_hd__mux2_1
*CAP
1 *8773:A 0.000280623
2 *8772:X 0.000280623
3 *8773:A *8652:A1 1.46828e-05
4 *8773:A *423:12 0.00086442
5 *8773:A *487:24 0.00030615
6 *8617:B *8773:A 0.000327355
7 *8652:S *8773:A 8.49205e-05
*RES
1 *8772:X *8773:A 12.89 
*END

*D_NET *375 0.000956117
*CONN
*I *8775:A I *D sky130_fd_sc_hd__clkbuf_1
*I *8774:X O *D sky130_fd_sc_hd__mux2_1
*CAP
1 *8775:A 0.000172536
2 *8774:X 0.000172536
3 *8775:A *8774:A0 2.69217e-05
4 *8775:A *477:34 0.000197124
5 *8775:A *606:14 0.000197124
6 *8774:S *8775:A 1.22325e-05
7 *8849:D *8775:A 8.73525e-05
8 *296:80 *8775:A 9.02898e-05
*RES
1 *8774:X *8775:A 12.255 
*END

*D_NET *376 0.00124927
*CONN
*I *8777:A I *D sky130_fd_sc_hd__clkbuf_1
*I *8776:X O *D sky130_fd_sc_hd__mux2_1
*CAP
1 *8777:A 0.000280995
2 *8776:X 0.000280995
3 *8777:A *8760:A0 0
4 *8777:A *8776:A1 9.80032e-06
5 *8777:A *476:8 0.00027064
6 *8777:A *511:62 2.46089e-05
7 *8812:D *8777:A 0.000198046
8 *366:24 *8777:A 4.66108e-05
9 *366:32 *8777:A 0.000137578
*RES
1 *8776:X *8777:A 13.5 
*END

*D_NET *377 0.000367837
*CONN
*I *8779:A I *D sky130_fd_sc_hd__clkbuf_1
*I *8778:X O *D sky130_fd_sc_hd__mux2_1
*CAP
1 *8779:A 0.000113252
2 *8778:X 0.000113252
3 *8779:A *547:16 8.8266e-05
4 *8779:A *568:24 5.30673e-05
*RES
1 *8778:X *8779:A 9.48 
*END

*D_NET *378 0.000843817
*CONN
*I *8781:A I *D sky130_fd_sc_hd__clkbuf_1
*I *8780:X O *D sky130_fd_sc_hd__mux2_1
*CAP
1 *8781:A 0.000291626
2 *8780:X 0.000291626
3 *8781:A *8780:A0 5.27885e-05
4 *8781:A *8780:A1 0.000107241
5 *8781:A *9075:A 6.18754e-05
6 *8781:A *479:20 0
7 *8852:D *8781:A 3.86607e-05
*RES
1 *8780:X *8781:A 12.45 
*END

*D_NET *379 0.000735632
*CONN
*I *8783:A I *D sky130_fd_sc_hd__clkbuf_1
*I *8782:X O *D sky130_fd_sc_hd__mux2_1
*CAP
1 *8783:A 0.000268463
2 *8782:X 0.000268463
3 *8783:A *8853:RESET_B 0
4 *8783:A *391:12 3.25831e-05
5 *275:91 *8783:A 0
6 *321:142 *8783:A 0.000166123
*RES
1 *8782:X *8783:A 11.355 
*END

*D_NET *380 0.000865062
*CONN
*I *8785:A I *D sky130_fd_sc_hd__clkbuf_1
*I *8784:X O *D sky130_fd_sc_hd__mux2_1
*CAP
1 *8785:A 0.000260785
2 *8784:X 0.000260785
3 *8785:A *9077:A 9.47454e-05
4 *8785:A *435:28 0.000248747
*RES
1 *8784:X *8785:A 12.585 
*END

*D_NET *381 0.00103422
*CONN
*I *8787:A I *D sky130_fd_sc_hd__clkbuf_1
*I *8786:X O *D sky130_fd_sc_hd__mux2_1
*CAP
1 *8787:A 0.000375149
2 *8786:X 0.000375149
3 *8787:A *8855:RESET_B 0
4 *8787:A *445:30 0.000257223
5 *8787:A *605:8 2.67022e-05
*RES
1 *8786:X *8787:A 13.035 
*END

*D_NET *382 0.000380506
*CONN
*I *8789:A I *D sky130_fd_sc_hd__clkbuf_1
*I *8788:X O *D sky130_fd_sc_hd__mux2_1
*CAP
1 *8789:A 0.000190253
2 *8788:X 0.000190253
3 *8789:A *542:8 0
*RES
1 *8788:X *8789:A 10.08 
*END

*D_NET *383 0.0583746
*CONN
*I *8866:A I *D sky130_fd_sc_hd__clkbuf_16
*I *8867:A I *D sky130_fd_sc_hd__clkbuf_16
*I *8865:A I *D sky130_fd_sc_hd__clkbuf_16
*I *8864:A I *D sky130_fd_sc_hd__clkbuf_16
*I *8863:A I *D sky130_fd_sc_hd__clkbuf_16
*I *8862:A I *D sky130_fd_sc_hd__clkbuf_16
*I *8861:A I *D sky130_fd_sc_hd__clkbuf_16
*I *8860:A I *D sky130_fd_sc_hd__clkbuf_16
*I *8859:X O *D sky130_fd_sc_hd__clkbuf_16
*CAP
1 *8866:A 0.00068133
2 *8867:A 0.00147246
3 *8865:A 0.0031334
4 *8864:A 3.47138e-05
5 *8863:A 0
6 *8862:A 0.00282808
7 *8861:A 3.02023e-05
8 *8860:A 0.00246446
9 *8859:X 1.65759e-05
10 *383:162 0.00597428
11 *383:124 0.00487015
12 *383:112 0.00698662
13 *383:76 0.0068698
14 *383:26 0.004512
15 *383:14 0.00667098
16 *383:10 0.00209259
17 *8860:A *450:20 0.000263128
18 *8860:A *462:10 0.000587489
19 *8862:A *9036:A 0
20 *8862:A *509:28 0.000327286
21 *8862:A *529:8 0.000146568
22 *8865:A *388:8 0.000174694
23 *8865:A *472:14 0
24 *8865:A *541:14 0.00065299
25 *8865:A *600:10 0.000304618
26 *8867:A *540:8 1.79536e-05
27 *383:14 *479:18 0.00051199
28 *383:26 *532:10 0.000186493
29 *383:76 *387:71 0.000375437
30 *383:76 *398:10 0
31 *383:76 *401:10 0.000286247
32 *383:112 *479:18 0.000444449
33 *383:124 *472:14 0.000287479
34 *8648:B *8865:A 0
35 *8731:A *383:162 0.000116416
36 *8859:A *383:14 0.000565662
37 *8859:A *383:112 0.00318467
38 *311:64 *383:112 0.000107425
39 *311:110 *8862:A 0.000126782
40 *311:149 *383:10 3.99395e-05
41 *321:48 *8860:A 0.000386212
42 *321:48 *383:26 0.00037614
43 *333:157 *8862:A 0.000228891
44 *355:60 *383:10 3.79595e-05
*RES
1 *8859:X *383:10 4.5875 
2 *383:10 *383:14 2.3734 
3 *383:14 *383:26 9.36017 
4 *383:26 *8860:A 20.035 
5 *383:26 *8861:A 2.05 
6 *383:14 *383:76 16.1389 
7 *383:76 *8862:A 17.0564 
8 *383:76 *8863:A 1.6 
9 *383:10 *383:112 5.345 
10 *383:112 *383:124 7.55817 
11 *383:124 *8864:A 2.05 
12 *383:124 *8865:A 21.1874 
13 *383:112 *383:162 9.3404 
14 *383:162 *8867:A 11.8878 
15 *383:162 *8866:A 6.57417 
*END

*D_NET *384 0.0300471
*CONN
*I *8855:CLK I *D sky130_fd_sc_hd__dfrtp_1
*I *8845:CLK I *D sky130_fd_sc_hd__dfrtp_1
*I *8800:CLK I *D sky130_fd_sc_hd__dfrtp_2
*I *8849:CLK I *D sky130_fd_sc_hd__dfrtp_1
*I *8798:CLK I *D sky130_fd_sc_hd__dfrtp_1
*I *8846:CLK I *D sky130_fd_sc_hd__dfrtp_1
*I *8854:CLK I *D sky130_fd_sc_hd__dfrtp_1
*I *8860:X O *D sky130_fd_sc_hd__clkbuf_16
*CAP
1 *8855:CLK 0.000367929
2 *8845:CLK 0.000349736
3 *8800:CLK 0
4 *8849:CLK 0.000386119
5 *8798:CLK 0.00027938
6 *8846:CLK 0
7 *8854:CLK 0.000345036
8 *8860:X 0.00147743
9 *384:94 0.00251447
10 *384:42 0.000665499
11 *384:40 0.00103171
12 *384:33 0.000921579
13 *384:18 0.00168806
14 *384:14 0.0047274
15 *8798:CLK *8624:A 0.000185398
16 *8798:CLK *8670:A0 0
17 *8798:CLK *435:28 0.000645776
18 *8798:CLK *477:34 7.16263e-05
19 *8798:CLK *537:20 3.54025e-05
20 *8845:CLK *8798:RESET_B 0.000152975
21 *8845:CLK *406:12 1.83756e-05
22 *8845:CLK *439:26 0.000577375
23 *8845:CLK *463:10 3.21052e-05
24 *8849:CLK *8624:A 0.000125153
25 *8849:CLK *451:20 0
26 *8849:CLK *477:34 0.000358066
27 *8854:CLK *8854:RESET_B 0.000484893
28 *8854:CLK *439:26 0.000778353
29 *8855:CLK *8786:A0 2.16833e-05
30 *8855:CLK *8786:A1 0.000131791
31 *8855:CLK *9079:A 0.000444564
32 *384:14 *445:28 0.00226313
33 *384:14 *462:10 0.000772872
34 *384:33 *8854:RESET_B 0.000622782
35 *384:33 *439:26 0.00134807
36 *384:40 *8846:RESET_B 8.07616e-05
37 *384:40 *8854:RESET_B 0.000236847
38 *384:40 *439:26 0.00118711
39 *384:40 *485:14 3.09179e-05
40 *384:94 *8786:A0 0.00038879
41 *8625:A *8845:CLK 0.000193801
42 *8670:S *8798:CLK 5.30673e-05
43 *8671:A *8798:CLK 2.11084e-05
44 *8768:S *8798:CLK 0.000157968
45 *8784:S *384:18 0
46 *8784:S *384:94 0
47 *8786:S *384:94 0.00380477
48 *8800:D *8845:CLK 6.71882e-05
*RES
1 *8860:X *384:14 43.72 
2 *384:14 *384:18 20.21 
3 *384:18 *8854:CLK 12.52 
4 *384:18 *384:33 12.54 
5 *384:33 *8846:CLK 1.6 
6 *384:33 *384:40 18.39 
7 *384:40 *384:42 2 
8 *384:42 *8798:CLK 12.435 
9 *384:42 *8849:CLK 12.165 
10 *384:40 *8800:CLK 1.6 
11 *384:40 *8845:CLK 11.02 
12 *384:14 *384:94 45.965 
13 *384:94 *8855:CLK 10.33 
*END

*D_NET *385 0.0150242
*CONN
*I *8790:CLK I *D sky130_fd_sc_hd__dfrtp_4
*I *8811:CLK I *D sky130_fd_sc_hd__dfrtp_4
*I *8819:CLK I *D sky130_fd_sc_hd__dfrtp_4
*I *8796:CLK I *D sky130_fd_sc_hd__dfrtp_4
*I *8812:CLK I *D sky130_fd_sc_hd__dfrtp_2
*I *8848:CLK I *D sky130_fd_sc_hd__dfrtp_2
*I *8850:CLK I *D sky130_fd_sc_hd__dfrtp_4
*I *8816:CLK I *D sky130_fd_sc_hd__dfrtp_4
*I *8818:CLK I *D sky130_fd_sc_hd__dfrtp_1
*I *8861:X O *D sky130_fd_sc_hd__clkbuf_16
*CAP
1 *8790:CLK 0
2 *8811:CLK 5.96852e-05
3 *8819:CLK 0
4 *8796:CLK 0.000469744
5 *8812:CLK 0
6 *8848:CLK 1.17375e-05
7 *8850:CLK 0.000511783
8 *8816:CLK 6.83692e-05
9 *8818:CLK 0.000108685
10 *8861:X 0.000118784
11 *385:103 0.00054927
12 *385:101 0.000343645
13 *385:93 0.000647266
14 *385:76 0.000598682
15 *385:65 0.000192195
16 *385:42 0.00227509
17 *385:14 0.000476395
18 *385:10 0.00215683
19 *8796:CLK *8697:A0 0.000131472
20 *8796:CLK *8799:RESET_B 0.000174203
21 *8796:CLK *458:8 0.000113255
22 *8811:CLK *477:18 0.000100544
23 *8816:CLK *8705:A1 0.000122331
24 *8818:CLK *402:12 0.000160185
25 *8850:CLK *423:12 2.59926e-05
26 *8850:CLK *430:123 0.000229904
27 *8850:CLK *487:24 0.000197264
28 *8850:CLK *585:40 8.88715e-05
29 *385:10 *477:20 0.000163012
30 *385:14 *8705:A1 4.82863e-05
31 *385:42 *477:18 0
32 *385:42 *477:20 0.00196318
33 *385:65 *510:20 0
34 *385:76 *487:24 0.000112123
35 *385:76 *510:20 0
36 *385:93 *8652:A1 8.97701e-05
37 *385:93 *437:50 0.000203112
38 *385:93 *445:16 1.09923e-05
39 *385:93 *445:20 0
40 *385:101 *8790:RESET_B 0
41 *385:101 *445:16 0.000130134
42 *385:101 *477:18 3.37099e-05
43 *385:101 *508:29 0
44 *8593:A *385:42 5.28163e-05
45 *8595:A *8850:CLK 0.000100109
46 *8595:A *385:76 5.76565e-05
47 *8595:A *385:93 3.05295e-05
48 *8618:A *8848:CLK 2.75229e-05
49 *8618:A *8850:CLK 7.52228e-05
50 *8653:A *8796:CLK 5.86036e-05
51 *8653:A *385:103 4.21757e-05
52 *8669:A *8796:CLK 4.99619e-05
53 *8709:S *8818:CLK 0.000343914
54 *8772:S *8850:CLK 4.82863e-05
55 *8796:D *8796:CLK 0.000160675
56 *8814:D *8796:CLK 0.000134922
57 *8814:D *385:101 9.02259e-05
58 *8814:D *385:103 0.000155436
59 *8819:D *8811:CLK 0.000181376
60 *8819:D *385:103 6.97034e-05
61 *8848:D *8848:CLK 4.82919e-05
62 *8848:D *8850:CLK 0.000101477
63 *285:50 *385:10 0
64 *285:50 *385:42 0
65 *296:118 *8850:CLK 1.65192e-05
66 *311:149 *385:76 8.44359e-05
67 *311:149 *385:93 0.000120829
68 *311:157 *8850:CLK 1.88602e-05
69 *311:157 *385:65 3.16621e-05
70 *311:157 *385:76 0.000156263
71 *333:54 *8818:CLK 4.44927e-05
72 *355:60 *385:93 0
73 *355:60 *385:101 0
74 *366:32 *8850:CLK 3.57349e-05
*RES
1 *8861:X *385:10 5.94 
2 *385:10 *385:14 5.9 
3 *385:14 *8818:CLK 10.04 
4 *385:14 *8816:CLK 3.1 
5 *385:10 *385:42 25.976 
6 *385:42 *8850:CLK 17.2675 
7 *385:42 *385:65 0.4875 
8 *385:65 *8848:CLK 4.05 
9 *385:65 *385:76 3.93 
10 *385:76 *8812:CLK 3.6 
11 *385:76 *385:93 11.41 
12 *385:93 *385:101 6.08 
13 *385:101 *385:103 2.52 
14 *385:103 *8796:CLK 12.055 
15 *385:103 *8819:CLK 1.6 
16 *385:101 *8811:CLK 7.745 
17 *385:93 *8790:CLK 3.6 
*END

*D_NET *386 0.0254178
*CONN
*I *8794:CLK I *D sky130_fd_sc_hd__dfrtp_1
*I *8797:CLK I *D sky130_fd_sc_hd__dfrtp_1
*I *8852:CLK I *D sky130_fd_sc_hd__dfrtp_1
*I *8831:CLK I *D sky130_fd_sc_hd__dfrtp_1
*I *8834:CLK I *D sky130_fd_sc_hd__dfrtp_1
*I *8837:CLK I *D sky130_fd_sc_hd__dfrtp_1
*I *8817:CLK I *D sky130_fd_sc_hd__dfrtp_1
*I *8862:X O *D sky130_fd_sc_hd__clkbuf_16
*CAP
1 *8794:CLK 0.000224213
2 *8797:CLK 0
3 *8852:CLK 0
4 *8831:CLK 0.000198539
5 *8834:CLK 0
6 *8837:CLK 3.74035e-05
7 *8817:CLK 0.000132579
8 *8862:X 6.91192e-05
9 *386:65 0.00316748
10 *386:33 0.00100261
11 *386:31 0.00116375
12 *386:29 0.00271671
13 *386:19 0.00620792
14 *386:8 0.000749636
15 *8794:CLK *8658:A0 0
16 *8817:CLK *9036:A 0
17 *8817:CLK *470:12 0
18 *8817:CLK *509:28 0
19 *8831:CLK *429:22 0.000899676
20 *8831:CLK *441:24 0.000890173
21 *8837:CLK *427:16 0.000189426
22 *8837:CLK *506:20 0.000189426
23 *386:8 *8707:A0 3.03775e-05
24 *386:19 *470:12 0
25 *386:29 *491:8 8.61242e-05
26 *386:33 *427:16 0.00126017
27 *386:33 *427:18 1.46216e-05
28 *386:33 *429:22 0.00241132
29 *386:33 *441:24 0.0031442
30 *386:33 *506:20 0.000155176
31 *386:65 *533:16 0
32 *8658:S *8794:CLK 0
33 *8658:S *386:65 0
34 *8659:A *8794:CLK 6.28843e-05
35 *8665:A *386:65 7.63204e-05
36 *8708:A *386:19 3.04982e-05
37 *8817:D *8817:CLK 0.000180675
38 *8817:D *386:19 7.23602e-05
39 *8852:D *386:29 1.86482e-05
40 *8890:A *386:33 0
41 *8955:A *386:33 3.57702e-05
*RES
1 *8862:X *386:8 4.395 
2 *386:8 *8817:CLK 6.255 
3 *386:8 *386:19 9.54 
4 *386:19 *386:29 40.7 
5 *386:29 *386:31 2 
6 *386:31 *386:33 42.69 
7 *386:33 *8837:CLK 5.745 
8 *386:33 *8834:CLK 3.6 
9 *386:31 *8831:CLK 13.905 
10 *386:29 *8852:CLK 1.6 
11 *386:19 *386:65 49.32 
12 *386:65 *8797:CLK 3.6 
13 *386:65 *8794:CLK 7.53 
*END

*D_NET *387 0.0261766
*CONN
*I *8799:CLK I *D sky130_fd_sc_hd__dfrtp_2
*I *8844:CLK I *D sky130_fd_sc_hd__dfrtp_1
*I *8820:CLK I *D sky130_fd_sc_hd__dfrtp_4
*I *8840:CLK I *D sky130_fd_sc_hd__dfrtp_4
*I *8795:CLK I *D sky130_fd_sc_hd__dfrtp_2
*I *8863:X O *D sky130_fd_sc_hd__clkbuf_16
*CAP
1 *8799:CLK 0
2 *8844:CLK 0
3 *8820:CLK 0
4 *8840:CLK 0
5 *8795:CLK 0.000847918
6 *8863:X 0.00147192
7 *387:71 0.00345457
8 *387:69 0.00376354
9 *387:50 0.000626592
10 *387:39 0.00163781
11 *387:27 0.00191289
12 *387:10 0.00291254
13 *8795:CLK *8795:RESET_B 0.000221639
14 *8795:CLK *455:8 0.000338839
15 *8795:CLK *479:18 0.000115733
16 *387:10 *398:10 0
17 *387:27 *8795:RESET_B 0.00169024
18 *387:27 *479:18 0.000313417
19 *387:39 *8795:RESET_B 9.05875e-05
20 *387:39 *401:8 5.70959e-05
21 *387:39 *462:8 3.55438e-05
22 *387:39 *487:26 0.000563898
23 *387:50 *8838:RESET_B 0
24 *387:50 *487:26 0.000712626
25 *387:50 *508:118 0
26 *387:69 *8621:A 3.68596e-05
27 *387:69 *452:12 9.09197e-05
28 *387:69 *483:12 8.8196e-05
29 *387:71 *401:10 0.00396873
30 *8653:A *387:39 0
31 *8662:S *387:39 3.74161e-05
32 *8702:A *387:39 8.88715e-05
33 *8712:A *387:39 0
34 *8712:A *387:50 0
35 *8795:D *8795:CLK 1.7386e-05
36 *8819:D *387:39 0
37 *8820:D *387:50 3.68682e-05
38 *285:26 *387:69 0.000234685
39 *311:86 *387:39 0.000386309
40 *333:29 *387:39 0
41 *333:91 *387:69 4.75576e-05
42 *383:76 *387:71 0.000375437
*RES
1 *8863:X *387:10 29.42 
2 *387:10 *8795:CLK 14.785 
3 *387:10 *387:27 15.285 
4 *387:27 *387:39 23.63 
5 *387:39 *8840:CLK 3.6 
6 *387:39 *387:50 10.265 
7 *387:50 *8820:CLK 1.6 
8 *387:50 *387:69 11.835 
9 *387:69 *387:71 80.175 
10 *387:71 *8844:CLK 3.6 
11 *387:27 *8799:CLK 1.6 
*END

*D_NET *388 0.0287212
*CONN
*I *8805:CLK I *D sky130_fd_sc_hd__dfrtp_4
*I *8821:CLK I *D sky130_fd_sc_hd__dfrtp_4
*I *8826:CLK I *D sky130_fd_sc_hd__dfrtp_4
*I *8842:CLK I *D sky130_fd_sc_hd__dfrtp_4
*I *8815:CLK I *D sky130_fd_sc_hd__dfrtp_1
*I *8839:CLK I *D sky130_fd_sc_hd__dfrtp_2
*I *8814:CLK I *D sky130_fd_sc_hd__dfrtp_4
*I *8825:CLK I *D sky130_fd_sc_hd__dfrtp_4
*I *8828:CLK I *D sky130_fd_sc_hd__dfrtp_2
*I *8835:CLK I *D sky130_fd_sc_hd__dfrtp_4
*I *8847:CLK I *D sky130_fd_sc_hd__dfrtp_1
*I *8809:CLK I *D sky130_fd_sc_hd__dfrtp_4
*I *8824:CLK I *D sky130_fd_sc_hd__dfrtp_1
*I *8827:CLK I *D sky130_fd_sc_hd__dfrtp_1
*I *8864:X O *D sky130_fd_sc_hd__clkbuf_16
*CAP
1 *8805:CLK 0.000209364
2 *8821:CLK 3.55506e-05
3 *8826:CLK 0
4 *8842:CLK 0
5 *8815:CLK 0.000110209
6 *8839:CLK 7.92683e-05
7 *8814:CLK 4.9966e-05
8 *8825:CLK 0.000227103
9 *8828:CLK 0
10 *8835:CLK 0.000172628
11 *8847:CLK 0.000108355
12 *8809:CLK 2.11983e-05
13 *8824:CLK 0
14 *8827:CLK 0.000176275
15 *8864:X 0
16 *388:130 0.000245323
17 *388:117 0.000224518
18 *388:113 0.00102028
19 *388:80 0.000530526
20 *388:74 0.000679334
21 *388:70 0.0013412
22 *388:60 0.000847736
23 *388:54 0.000693225
24 *388:39 0.000256143
25 *388:28 0.00129061
26 *388:10 0.000176275
27 *388:8 0.00442159
28 *388:6 0.00442159
29 *388:4 0.00113859
30 *8805:CLK *8724:A1 0.000308646
31 *8805:CLK *8726:A0 6.06043e-05
32 *8805:CLK *8821:RESET_B 0
33 *8805:CLK *483:10 0
34 *8809:CLK *585:40 4.82919e-05
35 *8814:CLK *445:16 8.23457e-05
36 *8815:CLK *430:125 0.000138551
37 *8825:CLK *8730:A0 7.22354e-05
38 *8825:CLK *8745:A1 4.44927e-05
39 *8825:CLK *8835:RESET_B 5.6361e-05
40 *8825:CLK *472:8 0.000110875
41 *8825:CLK *472:12 9.30787e-05
42 *8825:CLK *513:46 0
43 *8827:CLK *8827:RESET_B 0.00019735
44 *8827:CLK *8845:RESET_B 0.000194661
45 *8827:CLK *435:26 0.000329317
46 *8827:CLK *439:24 4.60061e-05
47 *8827:CLK *495:8 0.000201508
48 *8835:CLK *437:50 0.000115521
49 *8839:CLK *8711:A0 0.00019076
50 *8839:CLK *508:27 1.56428e-05
51 *8847:CLK *453:8 4.82919e-05
52 *8847:CLK *489:41 7.60034e-05
53 *388:8 *8728:A1 0
54 *388:8 *8806:CLK 0
55 *388:8 *8824:RESET_B 0
56 *388:8 *541:14 0
57 *388:8 *553:16 0
58 *388:28 *8726:A0 0.000572455
59 *388:28 *453:12 0
60 *388:28 *453:14 0
61 *388:28 *553:16 0.000607123
62 *388:28 *597:12 0.000164487
63 *388:39 *8724:A1 0.000159269
64 *388:39 *8726:A0 0.000348059
65 *388:39 *597:12 4.8837e-05
66 *388:54 *8724:A1 5.33085e-05
67 *388:54 *8726:A0 4.31106e-05
68 *388:60 *489:41 0.000251123
69 *388:70 *8826:RESET_B 8.53113e-06
70 *388:70 *472:12 0
71 *388:70 *489:41 0.000116433
72 *388:74 *472:12 0.000224599
73 *388:74 *498:12 7.9774e-05
74 *388:80 *8828:RESET_B 0.000192118
75 *388:80 *437:50 1.29925e-05
76 *388:80 *498:10 3.1835e-05
77 *388:113 *479:12 2.30292e-05
78 *388:113 *489:41 0.000537212
79 *388:117 *430:123 0.000155944
80 *388:117 *508:27 8.53113e-06
81 *388:130 *430:123 1.38481e-05
82 *388:130 *430:125 2.10433e-05
83 *388:130 *508:27 0.000160658
84 *8693:A *388:28 7.4027e-05
85 *8696:A *8815:CLK 2.39233e-05
86 *8722:S *388:8 0
87 *8731:A *388:70 3.96653e-05
88 *8731:A *388:113 3.00381e-05
89 *8746:A *8835:CLK 0.000253675
90 *8754:A *388:113 4.82919e-05
91 *8761:A *388:113 0.000229541
92 *8804:D *388:28 6.74079e-05
93 *8809:D *388:39 4.05358e-05
94 *8814:D *8814:CLK 4.41506e-05
95 *8821:D *388:60 0.000124895
96 *8824:D *388:8 2.03578e-05
97 *8825:D *388:70 2.92712e-05
98 *8828:D *388:113 0.000117373
99 *8842:D *388:113 0.000234385
100 *8859:A *388:113 0.000335082
101 *8865:A *388:8 0.000174694
102 *296:120 *8815:CLK 0.000130721
103 *296:120 *388:117 0.000305467
104 *296:120 *388:130 0.000195932
105 *311:58 *388:70 0.000120647
106 *311:64 *388:113 0.0011073
107 *344:29 *8805:CLK 0
108 *355:141 *8835:CLK 0
109 *355:141 *388:74 0
110 *366:24 *8847:CLK 0.000232111
*RES
1 *8864:X *388:4 1.6 
2 *388:4 *388:6 2 
3 *388:6 *388:8 72.78 
4 *388:8 *388:10 2 
5 *388:10 *8827:CLK 8.605 
6 *388:10 *8824:CLK 1.6 
7 *388:4 *388:28 25.22 
8 *388:28 *8809:CLK 4.05 
9 *388:28 *388:39 4.185 
10 *388:39 *8847:CLK 6.75 
11 *388:39 *388:54 0.615 
12 *388:54 *388:60 8.33 
13 *388:60 *388:70 9.985 
14 *388:70 *388:74 4.655 
15 *388:74 *388:80 6.77 
16 *388:80 *8835:CLK 9.68 
17 *388:80 *8828:CLK 1.6 
18 *388:74 *8825:CLK 8.445 
19 *388:70 *388:113 24.255 
20 *388:113 *388:117 5.675 
21 *388:117 *8814:CLK 4.755 
22 *388:117 *388:130 2.4 
23 *388:130 *8839:CLK 5.445 
24 *388:130 *8815:CLK 6.405 
25 *388:113 *8842:CLK 1.6 
26 *388:70 *8826:CLK 1.6 
27 *388:60 *8821:CLK 2.215 
28 *388:54 *8805:CLK 7.725 
*END

*D_NET *389 0.0368095
*CONN
*I *8801:CLK I *D sky130_fd_sc_hd__dfrtp_1
*I *8851:CLK I *D sky130_fd_sc_hd__dfrtp_1
*I *8807:CLK I *D sky130_fd_sc_hd__dfrtp_1
*I *8802:CLK I *D sky130_fd_sc_hd__dfrtp_2
*I *8792:CLK I *D sky130_fd_sc_hd__dfrtp_1
*I *8810:CLK I *D sky130_fd_sc_hd__dfrtp_2
*I *8804:CLK I *D sky130_fd_sc_hd__dfrtp_4
*I *8833:CLK I *D sky130_fd_sc_hd__dfrtp_1
*I *8808:CLK I *D sky130_fd_sc_hd__dfrtp_1
*I *8806:CLK I *D sky130_fd_sc_hd__dfrtp_2
*I *8865:X O *D sky130_fd_sc_hd__clkbuf_16
*CAP
1 *8801:CLK 0
2 *8851:CLK 0.000386176
3 *8807:CLK 0.0010586
4 *8802:CLK 0
5 *8792:CLK 0.00024803
6 *8810:CLK 0
7 *8804:CLK 0.000238931
8 *8833:CLK 0
9 *8808:CLK 2.0132e-05
10 *8806:CLK 0.000525959
11 *8865:X 0.00121702
12 *389:117 0.00243909
13 *389:106 0.00279973
14 *389:93 0.00284897
15 *389:76 0.00103414
16 *389:61 0.000944663
17 *389:55 0.000610872
18 *389:18 0.00181192
19 *389:10 0.00168347
20 *389:8 0.00177842
21 *8792:CLK *8791:RESET_B 0.000157179
22 *8792:CLK *512:14 0.000177897
23 *8806:CLK *8688:A0 0.000466447
24 *8807:CLK *8686:A0 0
25 *8807:CLK *612:12 0.00100522
26 *8851:CLK *612:12 0.000582993
27 *389:10 *556:12 0.000852472
28 *389:18 *512:45 6.43169e-05
29 *389:18 *556:12 0.000702866
30 *389:55 *556:12 9.37275e-05
31 *389:55 *589:16 9.27326e-05
32 *389:61 *453:14 0.00165464
33 *389:61 *589:16 0.00011577
34 *389:76 *453:12 0.000119901
35 *389:76 *453:14 0.00078154
36 *389:93 *453:12 8.88532e-05
37 *389:106 *412:14 0.000669783
38 *389:117 *8802:RESET_B 0.000918288
39 *389:117 *412:14 0.000433268
40 *8583:A *389:93 5.05521e-05
41 *8687:A *8807:CLK 0
42 *8692:S *389:93 0.000385327
43 *8801:D *389:55 6.51854e-05
44 *8802:D *389:117 5.63214e-05
45 *8808:D *8806:CLK 7.01132e-05
46 *8808:D *389:18 4.41356e-05
47 *275:30 *8792:CLK 0.000131845
48 *321:14 *8792:CLK 0
49 *321:14 *389:93 4.43682e-05
50 *321:14 *389:106 9.70988e-05
51 *321:20 *389:93 0.000998443
52 *321:34 *389:93 0.000196376
53 *322:14 *389:10 0.000856129
54 *322:14 *389:18 0.000261618
55 *322:14 *389:55 4.5783e-05
56 *322:16 *389:18 0.00197917
57 *344:8 *389:93 3.63745e-05
58 *344:18 *389:93 2.49909e-05
59 *344:130 *389:61 0.00165534
60 *344:130 *389:76 0.00100801
61 *344:130 *389:93 0.000178333
62 *344:138 *389:18 0
63 *388:8 *8806:CLK 0
*RES
1 *8865:X *389:8 16.47 
2 *389:8 *389:10 17.19 
3 *389:10 *389:18 34.85 
4 *389:18 *8806:CLK 15.95 
5 *389:18 *8808:CLK 1.96 
6 *389:10 *8833:CLK 3.6 
7 *389:8 *389:55 5.675 
8 *389:55 *389:61 22.805 
9 *389:61 *8804:CLK 6.84 
10 *389:61 *389:76 11.58 
11 *389:76 *8810:CLK 3.6 
12 *389:76 *389:93 21.965 
13 *389:93 *8792:CLK 11.57 
14 *389:93 *389:106 27.705 
15 *389:106 *8802:CLK 1.6 
16 *389:106 *389:117 21.785 
17 *389:117 *8807:CLK 24.645 
18 *389:117 *8851:CLK 11.865 
19 *389:55 *8801:CLK 1.6 
*END

*D_NET *390 0.0273583
*CONN
*I *8830:CLK I *D sky130_fd_sc_hd__dfrtp_1
*I *8829:CLK I *D sky130_fd_sc_hd__dfrtp_1
*I *8813:CLK I *D sky130_fd_sc_hd__dfrtp_1
*I *8843:CLK I *D sky130_fd_sc_hd__dfrtp_2
*I *8832:CLK I *D sky130_fd_sc_hd__dfrtp_1
*I *8856:CLK I *D sky130_fd_sc_hd__dfrtp_1
*I *8838:CLK I *D sky130_fd_sc_hd__dfrtp_2
*I *8866:X O *D sky130_fd_sc_hd__clkbuf_16
*CAP
1 *8830:CLK 0.000211944
2 *8829:CLK 0.000208567
3 *8813:CLK 0
4 *8843:CLK 0
5 *8832:CLK 0.000207526
6 *8856:CLK 0
7 *8838:CLK 0.00210553
8 *8866:X 0
9 *390:79 0.000597157
10 *390:54 0.00166085
11 *390:44 0.00240724
12 *390:38 0.00247318
13 *390:14 0.00456089
14 *390:6 0.00379797
15 *8829:CLK *8829:RESET_B 1.81788e-05
16 *8829:CLK *514:141 0.000294985
17 *8829:CLK *551:36 0.000273114
18 *8830:CLK *8829:RESET_B 1.08758e-05
19 *8830:CLK *9082:A 0.00133552
20 *8830:CLK *499:6 4.99619e-05
21 *8830:CLK *514:127 0.00124355
22 *8830:CLK *551:36 2.18022e-05
23 *8832:CLK *8732:A0 0.000119756
24 *8832:CLK *570:24 0.000251483
25 *8838:CLK *8751:A0 0.000959007
26 *8838:CLK *8751:A1 8.45551e-05
27 *8838:CLK *8838:RESET_B 0.000157375
28 *8838:CLK *509:18 4.5677e-05
29 *390:14 *497:12 7.81978e-05
30 *390:14 *526:34 0
31 *390:38 *526:32 0
32 *390:38 *526:34 0
33 *390:44 *8813:RESET_B 0.000155397
34 *390:44 *9032:A 8.03844e-05
35 *390:54 *430:135 0.000289004
36 *390:54 *578:10 0.000289004
37 *390:79 *526:32 0
38 *8764:S *8832:CLK 0.00043551
39 *8813:D *390:44 1.41095e-05
40 *8829:D *8829:CLK 1.0263e-05
41 *8856:D *390:14 4.82919e-05
42 *344:101 *390:14 0.001418
43 *344:109 *390:14 0.000228477
44 *344:109 *390:38 0.00113357
45 *344:109 *390:79 8.13754e-05
46 *366:99 *8838:CLK 0
*RES
1 *8866:X *390:6 3.6 
2 *390:6 *390:14 41.735 
3 *390:14 *8838:CLK 34.97 
4 *390:14 *8856:CLK 1.6 
5 *390:6 *390:38 30.705 
6 *390:38 *390:44 13.07 
7 *390:44 *390:54 27.46 
8 *390:54 *8832:CLK 8.605 
9 *390:54 *8843:CLK 1.6 
10 *390:44 *8813:CLK 1.6 
11 *390:38 *390:79 4.28 
12 *390:79 *8829:CLK 7.93 
13 *390:79 *8830:CLK 14.815 
*END

*D_NET *391 0.0454296
*CONN
*I *8857:A I *D sky130_fd_sc_hd__buf_2
*I *8836:CLK I *D sky130_fd_sc_hd__dfrtp_1
*I *8853:CLK I *D sky130_fd_sc_hd__dfrtp_1
*I *8823:CLK I *D sky130_fd_sc_hd__dfrtp_1
*I *8822:CLK I *D sky130_fd_sc_hd__dfrtp_1
*I *8791:CLK I *D sky130_fd_sc_hd__dfrtp_1
*I *8841:CLK I *D sky130_fd_sc_hd__dfrtp_1
*I *8803:CLK I *D sky130_fd_sc_hd__dfrtp_1
*I *8793:CLK I *D sky130_fd_sc_hd__dfrtp_1
*I *8867:X O *D sky130_fd_sc_hd__clkbuf_16
*CAP
1 *8857:A 0.00219846
2 *8836:CLK 0
3 *8853:CLK 0
4 *8823:CLK 0.00123644
5 *8822:CLK 0.00160811
6 *8791:CLK 2.18567e-05
7 *8841:CLK 0.000293819
8 *8803:CLK 0.00156917
9 *8793:CLK 0
10 *8867:X 0.000201104
11 *391:127 0.00229836
12 *391:123 0.00284369
13 *391:68 0.000636445
14 *391:66 0.00285506
15 *391:41 0.00283217
16 *391:28 0.00205009
17 *391:22 0.0027912
18 *391:20 0.00322871
19 *391:12 0.00138728
20 *391:8 0.00341783
21 *8803:CLK *8823:RESET_B 7.34286e-05
22 *8803:CLK *514:93 5.30478e-05
23 *8803:CLK *545:16 1.97985e-05
24 *8822:CLK *8711:A0 0.000110641
25 *8822:CLK *492:16 0.000672971
26 *8823:CLK *545:16 0.00178901
27 *8841:CLK *8644:A 0.00015997
28 *8841:CLK *8758:A1 0
29 *8841:CLK *8847:RESET_B 0
30 *8841:CLK *423:16 0.000246215
31 *8841:CLK *511:26 0.000123826
32 *8857:A *8836:RESET_B 1.53577e-05
33 *8857:A *9058:A 0.00210222
34 *8857:A *514:99 0.000119964
35 *8857:A *514:113 8.02217e-05
36 *391:12 *8853:RESET_B 0
37 *391:12 *563:10 0
38 *391:20 *8853:RESET_B 5.23585e-05
39 *391:20 *408:18 0
40 *391:20 *563:10 0.000183036
41 *391:22 *408:18 0
42 *391:28 *408:18 0
43 *391:28 *514:55 0.000279787
44 *391:41 *8656:A1 0.00014368
45 *391:41 *392:16 0.0011414
46 *391:41 *514:55 0.000161271
47 *391:41 *539:12 0
48 *391:66 *8758:A0 0.000191582
49 *391:66 *394:27 0.00114718
50 *391:68 *8758:A0 0.000148381
51 *391:123 *514:113 0.000294705
52 *391:123 *551:20 0.000166343
53 *391:123 *563:10 0
54 *391:127 *514:113 0.000165742
55 *391:127 *551:20 0.000372983
56 *8613:B *391:28 0.00118271
57 *8613:B *391:41 0.000228241
58 *8679:A *8803:CLK 9.50342e-06
59 *8758:S *8841:CLK 0.000105597
60 *8758:S *391:68 9.64556e-05
61 *8759:A *8841:CLK 0.000135759
62 *8759:A *391:68 0.00012849
63 *8783:A *391:12 3.25831e-05
64 *8791:D *8791:CLK 4.80285e-05
65 *8823:D *8803:CLK 1.7386e-05
66 *8841:D *8841:CLK 7.10578e-05
67 *8853:D *391:20 4.40446e-05
68 *275:78 *391:68 0
69 *285:20 *391:66 0
70 *311:36 *8791:CLK 8.49205e-05
71 *321:132 *391:20 0.000473208
72 *321:132 *391:22 0.00122384
73 *321:132 *391:28 6.28687e-05
74 *322:98 *391:41 0
*RES
1 *8867:X *391:8 5.775 
2 *391:8 *391:12 9.755 
3 *391:12 *391:20 18.35 
4 *391:20 *391:22 25.095 
5 *391:22 *391:28 21.425 
6 *391:28 *8793:CLK 1.6 
7 *391:28 *391:41 33.76 
8 *391:41 *8803:CLK 27.695 
9 *391:22 *391:66 18.265 
10 *391:66 *391:68 6.99 
11 *391:68 *8841:CLK 11.43 
12 *391:68 *8791:CLK 4.395 
13 *391:66 *8822:CLK 23.985 
14 *391:20 *8823:CLK 42.345 
15 *391:12 *8853:CLK 1.6 
16 *391:8 *391:123 49.7375 
17 *391:123 *391:127 4.0875 
18 *391:127 *8836:CLK 1.6 
19 *391:127 *8857:A 35.9 
*END

*D_NET *392 0.0153255
*CONN
*I *8656:A0 I *D sky130_fd_sc_hd__mux2_1
*I *8887:X O *D sky130_fd_sc_hd__buf_1
*CAP
1 *8656:A0 0
2 *8887:X 0.00113793
3 *392:16 0.00510241
4 *392:14 0.00624034
5 *392:14 *545:10 4.40899e-05
6 *392:14 *548:20 0.000806647
7 *392:14 *571:28 0.000852679
8 *392:16 *539:8 0
9 *392:16 *539:12 0
10 *391:41 *392:16 0.0011414
*RES
1 *8887:X *392:14 32.545 
2 *392:14 *392:16 91.395 
3 *392:16 *8656:A0 3.6 
*END

*D_NET *393 0.0310411
*CONN
*I *8695:A0 I *D sky130_fd_sc_hd__mux2_1
*I *8888:X O *D sky130_fd_sc_hd__clkbuf_2
*CAP
1 *8695:A0 0.000820539
2 *8888:X 0.00103072
3 *393:18 0.00278251
4 *393:14 0.00196197
5 *393:12 0.0063193
6 *393:10 0.00735001
7 *8695:A0 *8695:A1 3.00381e-05
8 *8695:A0 *394:27 0.00101109
9 *393:10 *604:8 0.00130887
10 *393:10 *610:14 0.000122004
11 *393:12 *489:65 0
12 *393:12 *514:55 0
13 *393:12 *536:12 0.00219658
14 *393:18 *394:27 0.00541632
15 paddr[23] *393:10 9.73618e-05
16 *8656:S *393:18 0.000273878
17 *8703:S *8695:A0 0.000158066
18 *8978:A *393:10 7.35813e-05
19 *333:118 *8695:A0 8.8266e-05
*RES
1 *8888:X *393:10 24.42 
2 *393:10 *393:12 111.795 
3 *393:12 *393:14 2 
4 *393:14 *393:18 49.6275 
5 *393:18 *8695:A0 19.4725 
*END

*D_NET *394 0.0238464
*CONN
*I *8870:A I *D sky130_fd_sc_hd__buf_4
*I *8875:A I *D sky130_fd_sc_hd__clkbuf_4
*I *8889:X O *D sky130_fd_sc_hd__clkbuf_2
*CAP
1 *8870:A 3.33099e-05
2 *8875:A 8.79206e-05
3 *8889:X 0.000168731
4 *394:27 0.00590366
5 *394:25 0.00607126
6 *394:8 0.00045756
7 *8870:A *441:18 9.53428e-06
8 *8875:A *547:16 0.00019637
9 *8875:A *568:24 7.00889e-06
10 *394:8 *8778:A1 0.000100057
11 *394:8 *9053:A 5.20968e-05
12 *394:8 *418:20 0.000183738
13 *394:8 *423:22 0.000174057
14 *394:8 *490:10 6.23119e-05
15 *394:25 *8778:A1 5.89043e-05
16 *394:25 *8851:RESET_B 7.21296e-06
17 *394:25 *418:20 4.77817e-05
18 *394:25 *418:28 0.000618958
19 *394:25 *514:24 0.000379306
20 *394:25 *514:78 0.000164679
21 *394:27 *8695:A1 7.5919e-05
22 *394:27 *8869:A 4.08514e-05
23 *394:27 *441:18 0.000344454
24 *394:27 *509:6 3.09179e-05
25 *394:27 *509:12 0.000133095
26 *394:27 *510:6 2.49909e-05
27 *8656:S *394:27 0.000564139
28 *8695:A0 *394:27 0.00101109
29 *8703:S *394:27 0.000146408
30 *333:118 *394:27 0.00012657
31 *391:66 *394:27 0.00114718
32 *393:18 *394:27 0.00541632
*RES
1 *8889:X *394:8 9.315 
2 *394:8 *8875:A 5.43 
3 *394:8 *394:25 10.31 
4 *394:25 *394:27 109.47 
5 *394:27 *8870:A 2.215 
*END

*D_NET *395 0.0139968
*CONN
*I *8987:A I *D sky130_fd_sc_hd__clkbuf_4
*I *8585:X O *D sky130_fd_sc_hd__buf_1
*CAP
1 *8987:A 3.64759e-05
2 *8585:X 0
3 *395:8 0.00471182
4 *395:6 0.00467534
5 *8987:A *502:31 0.000239813
6 *8987:A *526:26 8.96017e-05
7 *395:8 *8668:A1 0.000281174
8 *395:8 *8796:RESET_B 0
9 *395:8 *8799:RESET_B 4.19967e-05
10 *395:8 *405:12 0.000162325
11 *395:8 *462:10 0.000183242
12 *395:8 *535:10 0.00341267
13 m_rdata[0] *8987:A 8.8266e-05
14 *8669:A *395:8 7.4027e-05
*RES
1 *8585:X *395:6 3.6 
2 *395:6 *395:8 103.635 
3 *395:8 *8987:A 5.775 
*END

*D_NET *396 0.0161972
*CONN
*I *8988:A I *D sky130_fd_sc_hd__clkbuf_4
*I *8606:X O *D sky130_fd_sc_hd__buf_1
*CAP
1 *8988:A 0
2 *8606:X 0.00317251
3 *396:10 0.00452146
4 *396:8 0.00769397
5 *396:8 *515:12 0.00080926
*RES
1 *8606:X *396:8 40.1875 
2 *396:8 *396:10 63.0675 
3 *396:10 *8988:A 1.6 
*END

*D_NET *397 0.0131376
*CONN
*I *8989:A I *D sky130_fd_sc_hd__clkbuf_4
*I *8608:X O *D sky130_fd_sc_hd__buf_1
*CAP
1 *8989:A 0.000431418
2 *8608:X 0
3 *397:8 0.00453081
4 *397:6 0.00409939
5 *397:8 *8831:RESET_B 0.000497709
6 *397:8 *458:33 0
7 *397:8 *509:52 0.00145971
8 *397:8 *509:66 0.000520066
9 *397:8 *575:8 0.0015774
10 m_rdata[11] *8989:A 2.11084e-05
*RES
1 *8608:X *397:6 3.6 
2 *397:6 *397:8 93.435 
3 *397:8 *8989:A 9.915 
*END

*D_NET *398 0.0136151
*CONN
*I *8990:A I *D sky130_fd_sc_hd__clkbuf_4
*I *8610:X O *D sky130_fd_sc_hd__buf_1
*CAP
1 *8990:A 0
2 *8610:X 0.000636237
3 *398:10 0.00567139
4 *398:8 0.00630763
5 *398:8 *441:20 0.000999874
6 *398:10 *9019:A 0
7 *383:76 *398:10 0
8 *387:10 *398:10 0
*RES
1 *8610:X *398:8 12.675 
2 *398:8 *398:10 93.435 
3 *398:10 *8990:A 3.6 
*END

*D_NET *399 0.00405004
*CONN
*I *8991:A I *D sky130_fd_sc_hd__clkbuf_4
*I *8612:X O *D sky130_fd_sc_hd__clkbuf_1
*CAP
1 *8991:A 0.0011468
2 *8612:X 0.0011468
3 *8991:A *538:12 0.00159647
4 *8991:A *605:8 0.000141599
5 m_rdata[13] *8991:A 1.83756e-05
*RES
1 *8612:X *8991:A 33.78 
*END

*D_NET *400 0.0153577
*CONN
*I *8992:A I *D sky130_fd_sc_hd__clkbuf_4
*I *8614:X O *D sky130_fd_sc_hd__buf_1
*CAP
1 *8992:A 0.00159133
2 *8614:X 0
3 *400:8 0.00636195
4 *400:6 0.00477062
5 *8992:A *9058:A 0.000809902
6 *8992:A *548:20 0.000388784
7 *8992:A *571:28 7.4027e-05
8 *8992:A *608:14 0.00127788
9 m_rdata[14] *8992:A 3.72916e-05
10 pwdata[11] *8992:A 1.61831e-05
11 *8614:A *400:8 2.97561e-05
12 *8982:A *8992:A 0
*RES
1 *8614:X *400:6 3.6 
2 *400:6 *400:8 78.7425 
3 *400:8 *8992:A 39.6225 
*END

*D_NET *401 0.0352279
*CONN
*I *8993:A I *D sky130_fd_sc_hd__clkbuf_4
*I *8616:X O *D sky130_fd_sc_hd__clkbuf_2
*CAP
1 *8993:A 0.0017014
2 *8616:X 0.000100646
3 *401:14 0.00443604
4 *401:12 0.00273464
5 *401:10 0.00276394
6 *401:8 0.00286458
7 *8993:A *501:27 0
8 *8993:A *526:20 0.00100076
9 *8993:A *594:12 0.000142388
10 *401:10 *8621:A 0.00379294
11 *401:10 *8662:A1 3.39064e-05
12 *401:10 *8697:A0 9.37731e-05
13 *401:10 *458:21 7.25122e-05
14 *401:10 *587:18 0.0020679
15 *401:14 *9019:A 0.00179825
16 *401:14 *552:12 0.00614964
17 *401:14 *594:12 0.00031139
18 *8694:A *401:10 0
19 *8844:D *401:10 7.23533e-05
20 *8902:A *8993:A 0.000143266
21 *8968:A *8993:A 2.30292e-05
22 *285:32 *401:10 0.00037839
23 *285:42 *401:10 0.000234073
24 *383:76 *401:10 0.000286247
25 *387:39 *401:8 5.70959e-05
26 *387:71 *401:10 0.00396873
*RES
1 *8616:X *401:8 5.085 
2 *401:8 *401:10 99.81 
3 *401:10 *401:12 2 
4 *401:12 *401:14 73.4175 
5 *401:14 *8993:A 28.1375 
*END

*D_NET *402 0.0134363
*CONN
*I *8994:A I *D sky130_fd_sc_hd__clkbuf_4
*I *8618:X O *D sky130_fd_sc_hd__buf_1
*CAP
1 *8994:A 0.000111065
2 *8618:X 0.000401807
3 *402:12 0.00499822
4 *402:10 0.00528896
5 *8994:A *8666:A0 0.000275553
6 *402:10 *445:20 0.000638052
7 *402:12 *8705:A0 7.23533e-05
8 *402:12 *8800:RESET_B 0
9 *402:12 *445:22 0
10 *402:12 *463:10 6.99988e-05
11 *402:12 *463:14 0.000100536
12 *402:12 *510:48 0
13 *402:12 *576:22 0
14 *402:12 *576:24 0
15 *402:12 *606:12 0
16 *402:12 *606:14 0
17 *8671:A *402:12 0.000192094
18 *8706:A *402:12 2.87867e-05
19 *8709:S *402:12 0
20 *8768:S *402:12 0
21 *8818:CLK *402:12 0.000160185
22 *8958:A *402:12 0
23 *296:80 *402:12 0.000525688
24 *333:54 *402:10 0
25 *333:54 *402:12 0.000572996
*RES
1 *8618:X *402:10 11.8725 
2 *402:10 *402:12 89.3775 
3 *402:12 *8994:A 6.12 
*END

*D_NET *403 0.0169011
*CONN
*I *8995:A I *D sky130_fd_sc_hd__clkbuf_4
*I *8620:X O *D sky130_fd_sc_hd__buf_1
*CAP
1 *8995:A 0
2 *8620:X 0.00448353
3 *403:10 0.00220016
4 *403:8 0.00220016
5 *403:6 0.00448353
6 *403:10 *8684:A0 0.000116158
7 *403:10 *438:10 0.000181006
8 *403:10 *439:8 0.00252196
9 *403:10 *464:8 0
10 *8684:S *403:10 0
11 *8833:D *403:10 6.55328e-05
12 *322:14 *403:10 0.00064907
13 *322:16 *403:10 0
*RES
1 *8620:X *403:6 49.315 
2 *403:6 *403:8 2 
3 *403:8 *403:10 56.715 
4 *403:10 *8995:A 3.6 
*END

*D_NET *404 0.0202529
*CONN
*I *8697:A0 I *D sky130_fd_sc_hd__mux2_1
*I *8890:X O *D sky130_fd_sc_hd__buf_1
*CAP
1 *8697:A0 0.00112861
2 *8890:X 0.00053573
3 *404:16 0.00796713
4 *404:14 0.00737426
5 *8697:A0 *8799:RESET_B 0.0003412
6 *8697:A0 *424:10 0.000130903
7 *8697:A0 *458:8 0.00015896
8 *404:14 *8743:A0 3.38041e-05
9 *404:14 *458:31 1.08758e-05
10 *404:14 *506:20 0.000419392
11 *404:16 *8660:A0 0.000115474
12 *404:16 *8660:A1 3.99879e-05
13 *8608:A *404:14 4.80285e-05
14 *8616:A *8697:A0 0.00061982
15 *8661:A *404:16 2.11084e-05
16 *8669:A *8697:A0 9.42331e-05
17 *8694:A *8697:A0 0
18 *8697:S *8697:A0 5.83121e-06
19 *8698:A *8697:A0 0.00016063
20 *8744:A *404:14 0.000533416
21 *8796:CLK *8697:A0 0.000131472
22 *285:42 *8697:A0 0.000288308
23 *311:78 *8697:A0 0
24 *401:10 *8697:A0 9.37731e-05
*RES
1 *8890:X *404:14 16.505 
2 *404:14 *404:16 75.315 
3 *404:16 *8697:A0 26.3 
*END

*D_NET *405 0.0142832
*CONN
*I *8996:A I *D sky130_fd_sc_hd__clkbuf_4
*I *8622:X O *D sky130_fd_sc_hd__buf_1
*CAP
1 *8996:A 0
2 *8622:X 0.000527955
3 *405:14 0.00630711
4 *405:12 0.00683506
5 *405:12 *535:10 8.78735e-05
6 *405:14 *8753:A0 0.000285123
7 m_rdata[18] *405:14 4.66108e-05
8 *8622:A *405:12 3.11149e-05
9 *395:8 *405:12 0.000162325
*RES
1 *8622:X *405:12 12.77 
2 *405:12 *405:14 87.735 
3 *405:14 *8996:A 1.6 
*END

*D_NET *406 0.0159936
*CONN
*I *8997:A I *D sky130_fd_sc_hd__clkbuf_4
*I *8625:X O *D sky130_fd_sc_hd__buf_1
*CAP
1 *8997:A 9.40626e-05
2 *8625:X 0.000656806
3 *406:14 0.00434192
4 *406:12 0.00490466
5 *406:12 *8845:RESET_B 7.81924e-05
6 *406:12 *8877:A 2.75538e-05
7 *406:12 *439:26 1.29866e-05
8 *406:12 *484:14 0.000112123
9 *406:12 *560:8 4.11112e-05
10 *406:14 *8688:A0 0.00259404
11 *406:14 *9005:A 0.00061221
12 *406:14 *9047:A 1.19928e-05
13 *406:14 *9061:A 7.53903e-05
14 *406:14 *9086:A 7.67345e-05
15 *406:14 *574:8 0.000959895
16 *406:14 *576:22 0.00101921
17 m_rdata[17] *406:14 1.54878e-05
18 paddr[19] *406:14 1.86482e-05
19 *8766:S *406:12 0.000134509
20 *8845:CLK *406:12 1.83756e-05
21 *8845:D *406:12 0.000187738
*RES
1 *8625:X *406:12 15.17 
2 *406:12 *406:14 56.685 
3 *406:14 *8997:A 6.725 
*END

*D_NET *407 0.0240225
*CONN
*I *8998:A I *D sky130_fd_sc_hd__clkbuf_4
*I *8587:X O *D sky130_fd_sc_hd__clkbuf_2
*CAP
1 *8998:A 0
2 *8587:X 2.08101e-05
3 *407:12 0.00357294
4 *407:10 0.00357294
5 *407:8 0.00514521
6 *407:6 0.00516602
7 *8587:A *407:8 1.7386e-05
8 *8611:B *407:8 0.00189991
9 *8612:A *407:8 8.87196e-05
10 *8620:A *407:8 0.000124895
11 *8855:D *407:12 0
12 *8962:A *407:12 0
13 *285:56 *407:8 0.00441369
*RES
1 *8587:X *407:6 1.96 
2 *407:6 *407:8 91.875 
3 *407:8 *407:10 2 
4 *407:10 *407:12 59.01 
5 *407:12 *8998:A 3.6 
*END

*D_NET *408 0.0251411
*CONN
*I *8999:A I *D sky130_fd_sc_hd__clkbuf_4
*I *8627:X O *D sky130_fd_sc_hd__clkbuf_2
*CAP
1 *8999:A 0
2 *8627:X 0.000856387
3 *408:18 0.00581065
4 *408:16 0.00680568
5 *408:12 0.0039263
6 *408:8 0.00378766
7 *408:8 *412:14 0.000131613
8 *408:8 *585:40 0.00181538
9 *408:12 *512:26 0.000183094
10 *408:12 *585:22 0.000158524
11 *408:12 *585:40 0.00132956
12 *408:16 *8582:C 0.000102523
13 *408:16 *8792:RESET_B 0
14 *408:16 *469:10 0
15 *408:16 *489:63 7.96104e-06
16 *408:16 *613:12 4.47458e-05
17 *408:16 *613:29 1.7396e-05
18 *408:18 *8782:A1 7.75325e-05
19 *408:18 *469:10 0
20 *408:18 *551:20 0
21 *408:18 *563:10 0
22 *8579:A *408:16 9.29751e-06
23 *273:8 *408:16 4.47938e-06
24 *311:14 *408:16 7.23602e-05
25 *321:126 *408:16 0
26 *321:132 *408:16 0
27 *321:132 *408:18 0
28 *391:20 *408:18 0
29 *391:22 *408:18 0
30 *391:28 *408:18 0
*RES
1 *8627:X *408:8 18.4525 
2 *408:8 *408:12 39.1925 
3 *408:12 *408:16 15.5025 
4 *408:16 *408:18 96.4275 
5 *408:18 *8999:A 3.6 
*END

*D_NET *409 0.00216898
*CONN
*I *9000:A I *D sky130_fd_sc_hd__clkbuf_4
*I *8629:X O *D sky130_fd_sc_hd__clkbuf_1
*CAP
1 *9000:A 0.000754745
2 *8629:X 0.000754745
3 *9000:A *9048:A 0.000124895
4 *9000:A *9077:A 0.000117875
5 *9000:A *451:40 0.000123225
6 *9000:A *455:10 0
7 *9000:A *510:116 0.000136877
8 *9000:A *559:16 0.000156622
9 *8784:S *9000:A 0
*RES
1 *8629:X *9000:A 20.655 
*END

*D_NET *410 0.0164127
*CONN
*I *9001:A I *D sky130_fd_sc_hd__clkbuf_4
*I *8631:X O *D sky130_fd_sc_hd__dlymetal6s2s_1
*CAP
1 *9001:A 9.95425e-05
2 *8631:X 0
3 *410:8 0.00547756
4 *410:6 0.00537802
5 *9001:A *502:31 0.00062029
6 *9001:A *526:26 0.0003691
7 *410:8 *8584:A 0
8 *410:8 *8584:B 0
9 *410:8 *8764:A0 0
10 *410:8 *430:75 0
11 *410:8 *546:8 0.00446817
12 m_rdata[22] *410:8 0
*RES
1 *8631:X *410:6 3.6 
2 *410:6 *410:8 114.345 
3 *410:8 *9001:A 9.225 
*END

*D_NET *411 0.000638045
*CONN
*I *9002:A I *D sky130_fd_sc_hd__clkbuf_4
*I *8633:X O *D sky130_fd_sc_hd__clkbuf_1
*CAP
1 *9002:A 0.000295912
2 *8633:X 0.000295912
3 *9002:A *570:20 1.61831e-05
4 *9002:A *594:12 0
5 *8633:A *9002:A 3.00381e-05
*RES
1 *8633:X *9002:A 11.67 
*END

*D_NET *412 0.0379047
*CONN
*I *9003:A I *D sky130_fd_sc_hd__buf_2
*I *616:DIODE I *D sky130_fd_sc_hd__diode_2
*I *8635:X O *D sky130_fd_sc_hd__clkbuf_2
*CAP
1 *9003:A 0
2 *616:DIODE 9.54152e-05
3 *8635:X 0.00996036
4 *412:40 0.00100592
5 *412:26 0.00207843
6 *412:14 0.0111283
7 *412:14 *8802:RESET_B 0.00042248
8 *412:14 *465:23 0.000460926
9 *412:14 *560:8 1.92979e-05
10 *412:14 *602:16 0.000218314
11 *412:26 *8678:A1 3.64998e-06
12 *412:26 *9053:A 0
13 *412:26 *423:22 0.000203681
14 *412:26 *490:10 0
15 *412:26 *492:12 0.00128943
16 *412:26 *585:16 0.000364012
17 *412:26 *585:20 0.00269703
18 *412:40 *8678:A0 0.0010159
19 *412:40 *9008:A 0.000428482
20 *412:40 *418:28 0.000751658
21 *412:40 *423:22 0.00223304
22 *412:40 *514:78 0.000185398
23 *412:40 *530:18 0.000874672
24 m_rdata[24] *412:40 0.000108647
25 paddr[10] *412:40 6.06649e-05
26 paddr[29] *412:14 0
27 paddr[30] *412:40 1.92979e-05
28 penable *412:14 7.46883e-05
29 psel *412:40 1.88656e-05
30 pwdata[28] *412:40 0.000106344
31 *8627:A *412:14 2.10433e-05
32 *8889:A *412:26 0.000265799
33 *8900:A *412:26 4.13879e-05
34 *8921:A *412:26 0.000125877
35 *8923:A *412:26 0.000152503
36 *8935:A *412:26 1.87784e-05
37 *8965:A *412:40 1.93834e-05
38 *321:34 *412:14 0.000200388
39 *389:106 *412:14 0.000669783
40 *389:117 *412:14 0.000433268
41 *408:8 *412:14 0.000131613
*RES
1 *8635:X *412:14 22.467 
2 *412:14 *412:26 44.1775 
3 *412:26 *412:40 42.935 
4 *412:40 *616:DIODE 2.74 
5 *412:40 *9003:A 1.6 
*END

*D_NET *413 0.0145983
*CONN
*I *9004:A I *D sky130_fd_sc_hd__clkbuf_4
*I *8637:X O *D sky130_fd_sc_hd__buf_1
*CAP
1 *9004:A 0.0015445
2 *8637:X 5.9363e-05
3 *413:12 0.00717331
4 *413:10 0.00568818
5 *413:10 *507:25 0
6 *413:10 *509:84 0.000118527
7 m_rdata[25] *9004:A 1.4399e-05
*RES
1 *8637:X *413:10 6.98 
2 *413:10 *413:12 83.4225 
3 *413:12 *9004:A 22.2475 
*END

*D_NET *414 0.0196081
*CONN
*I *9005:A I *D sky130_fd_sc_hd__clkbuf_4
*I *8639:X O *D sky130_fd_sc_hd__dlymetal6s2s_1
*CAP
1 *9005:A 0.000631684
2 *8639:X 0
3 *414:8 0.00342193
4 *414:6 0.00279024
5 *9005:A *9050:A 0.000610919
6 *9005:A *9063:A 0.000316415
7 *9005:A *9086:A 8.65905e-05
8 *9005:A *574:8 0.00092416
9 *9005:A *610:14 0.000350314
10 *414:8 *8644:A 0
11 *414:8 *8741:A0 0.00346565
12 *414:8 *9086:A 0.00195762
13 *414:8 *421:10 0.000226293
14 *414:8 *464:8 7.27402e-06
15 *414:8 *505:8 9.87616e-05
16 *414:8 *512:30 0.0032224
17 *414:8 *512:32 0.000495228
18 *414:8 *512:45 0.000139843
19 *414:8 *600:10 0
20 m_rdata[19] *9005:A 6.65267e-05
21 m_rdata[26] *9005:A 0.000165698
22 paddr[8] *9005:A 1.83847e-05
23 *406:14 *9005:A 0.00061221
*RES
1 *8639:X *414:6 3.6 
2 *414:6 *414:8 89.61 
3 *414:8 *9005:A 25.905 
*END

*D_NET *415 0.00115892
*CONN
*I *8658:A0 I *D sky130_fd_sc_hd__mux2_1
*I *8891:X O *D sky130_fd_sc_hd__clkbuf_1
*CAP
1 *8658:A0 0.000540735
2 *8891:X 0.000540735
3 *8659:A *8658:A0 7.7449e-05
4 *8794:CLK *8658:A0 0
*RES
1 *8891:X *8658:A0 15.78 
*END

*D_NET *416 0.0220641
*CONN
*I *9006:A I *D sky130_fd_sc_hd__clkbuf_4
*I *8641:X O *D sky130_fd_sc_hd__dlymetal6s2s_1
*CAP
1 *9006:A 0
2 *8641:X 0.000922613
3 *416:36 0.00409642
4 *416:28 0.00566435
5 *416:20 0.00249054
6 *416:20 *8666:A1 0.000161529
7 *416:20 *9030:A 0.000338599
8 *416:20 *9072:A 0
9 *416:20 *448:20 0.00191237
10 *416:20 *495:16 0.00293487
11 *416:20 *531:14 0.000565493
12 *416:20 *537:20 0.000248453
13 *416:20 *557:14 7.9642e-06
14 *416:20 *557:18 0.000160715
15 *416:28 *9030:A 0.000138126
16 *416:28 *448:16 0.00123806
17 *416:28 *531:14 0.000235568
18 *416:28 *537:20 0.000423637
19 *416:36 *448:16 0.000163872
20 *416:36 *554:16 0
21 *416:36 *610:14 0.000217105
22 m_rdata[27] *416:36 0
23 m_rdata[28] *416:36 0
24 pwdata[24] *416:20 0
25 *8641:A *416:20 0.0001249
26 *8931:A *416:20 1.88663e-05
27 *8932:A *416:36 0
28 *8934:A *416:20 0
*RES
1 *8641:X *416:20 46.455 
2 *416:20 *416:28 32.7525 
3 *416:28 *416:36 49.5625 
4 *416:36 *9006:A 1.6 
*END

*D_NET *417 0.00766967
*CONN
*I *9007:A I *D sky130_fd_sc_hd__buf_2
*I *8643:X O *D sky130_fd_sc_hd__buf_1
*CAP
1 *9007:A 0
2 *8643:X 8.76197e-05
3 *417:10 0.00361041
4 *417:8 0.00369803
5 *417:8 *589:14 5.07419e-05
6 *417:10 *9009:A 7.70938e-05
7 *417:10 *558:10 0.000141599
8 *8932:A *417:10 4.18603e-06
*RES
1 *8643:X *417:8 4.74 
2 *417:8 *417:10 60.795 
3 *417:10 *9007:A 3.6 
*END

*D_NET *418 0.0280026
*CONN
*I *9008:A I *D sky130_fd_sc_hd__buf_2
*I *8645:X O *D sky130_fd_sc_hd__clkbuf_2
*CAP
1 *9008:A 0.000872773
2 *8645:X 0.000297639
3 *418:28 0.00203529
4 *418:20 0.00505584
5 *418:8 0.00419096
6 *9008:A *8678:A0 0.00114718
7 *9008:A *471:35 0.00391423
8 *9008:A *530:18 0.00180433
9 *418:8 *8580:A 8.8266e-05
10 *418:8 *8580:B_N 0.000182896
11 *418:8 *8582:C 7.59904e-05
12 *418:8 *8682:A0 0.000644866
13 *418:8 *8883:A 0.000340209
14 *418:20 *8851:RESET_B 2.20753e-05
15 *418:20 *423:22 0.000240263
16 *418:20 *490:8 1.83847e-05
17 *418:20 *547:16 5.83121e-06
18 *418:28 *8884:A 0.000250616
19 *418:28 *9021:A 0.000653578
20 *418:28 *423:22 0.00107094
21 *418:28 *471:35 0.000434259
22 *418:28 *493:25 0.00011852
23 *418:28 *514:78 0.00132387
24 m_rdata[29] *9008:A 1.17114e-05
25 paddr[0] *418:28 0.000154806
26 paddr[10] *418:28 6.24871e-05
27 paddr[30] *418:28 2.10433e-05
28 pwdata[28] *418:28 0.000108647
29 *8651:A *418:8 0.00012657
30 *8655:B1 *418:8 4.82919e-05
31 *8655:B1 *418:20 6.90876e-05
32 *8859:A *418:20 0.00037881
33 *8893:A *418:28 0.000106251
34 *8921:A *418:20 8.57024e-05
35 *275:22 *418:8 9.80032e-06
36 *394:8 *418:20 0.000183738
37 *394:25 *418:20 4.77817e-05
38 *394:25 *418:28 0.000618958
39 *412:40 *9008:A 0.000428482
40 *412:40 *418:28 0.000751658
*RES
1 *8645:X *418:8 11.38 
2 *418:8 *418:20 48.1475 
3 *418:20 *418:28 47.52 
4 *418:28 *9008:A 48.2025 
*END

*D_NET *419 0.00348049
*CONN
*I *9009:A I *D sky130_fd_sc_hd__clkbuf_4
*I *8589:X O *D sky130_fd_sc_hd__clkbuf_1
*CAP
1 *9009:A 0.00150461
2 *8589:X 0.00150461
3 *9009:A *8588:A 0.000356894
4 *8589:A *9009:A 3.72916e-05
5 *417:10 *9009:A 7.70938e-05
*RES
1 *8589:X *9009:A 27.675 
*END

*D_NET *420 0.0120957
*CONN
*I *9010:A I *D sky130_fd_sc_hd__clkbuf_4
*I *8647:X O *D sky130_fd_sc_hd__buf_1
*CAP
1 *9010:A 0.000520538
2 *8647:X 0.00168949
3 *420:10 0.00362375
4 *420:8 0.0047927
5 *9010:A *548:22 0.000620843
6 *9010:A *551:20 0.0001249
7 *420:8 *9055:A 0.000665956
8 *420:10 *489:65 0
9 *420:10 *571:28 0
10 *8913:A *9010:A 3.00381e-05
11 *8925:A *9010:A 2.75229e-05
*RES
1 *8647:X *420:8 24.06 
2 *420:8 *420:10 51.36 
3 *420:10 *9010:A 14.775 
*END

*D_NET *421 0.0261205
*CONN
*I *9011:A I *D sky130_fd_sc_hd__clkbuf_4
*I *8649:X O *D sky130_fd_sc_hd__clkbuf_2
*CAP
1 *9011:A 0
2 *8649:X 0.0004647
3 *421:12 0.0111155
4 *421:10 0.0115802
5 *421:10 *9086:A 0.00106027
6 *421:10 *505:8 0.000187766
7 *421:10 *600:10 0.00100942
8 *421:12 *556:6 0.000476336
9 *414:8 *421:10 0.000226293
*RES
1 *8649:X *421:10 25.85 
2 *421:10 *421:12 152.595 
3 *421:12 *9011:A 1.6 
*END

*D_NET *422 0.00407828
*CONN
*I *9012:A I *D sky130_fd_sc_hd__clkbuf_4
*I *8591:X O *D sky130_fd_sc_hd__clkbuf_1
*CAP
1 *9012:A 0.00105253
2 *8591:X 0.00105253
3 *9012:A *8598:A 9.66106e-05
4 *9012:A *8598:B 0.0017225
5 *9012:A *428:18 8.97486e-05
6 m_rdata[3] *9012:A 1.4399e-05
7 *8599:A *9012:A 4.99619e-05
*RES
1 *8591:X *9012:A 27.825 
*END

*D_NET *423 0.0394773
*CONN
*I *9013:A I *D sky130_fd_sc_hd__clkbuf_4
*I *8593:X O *D sky130_fd_sc_hd__clkbuf_2
*CAP
1 *9013:A 0.000508402
2 *8593:X 0.00327524
3 *423:22 0.0021813
4 *423:20 0.00332191
5 *423:16 0.00548705
6 *423:12 0.00711327
7 *9013:A *492:10 8.82821e-05
8 *9013:A *492:12 0.000276132
9 *9013:A *530:18 0.00114558
10 *9013:A *585:12 0
11 *423:12 *8724:A1 0.000290312
12 *423:12 *8770:A1 4.82919e-05
13 *423:12 *8850:RESET_B 1.53577e-05
14 *423:12 *487:24 0.000108761
15 *423:12 *511:44 0.000784327
16 *423:12 *511:62 3.08562e-05
17 *423:16 *8676:A0 0.000110558
18 *423:16 *8676:A1 9.27255e-06
19 *423:16 *8841:RESET_B 0.000288404
20 *423:16 *511:6 2.75229e-05
21 *423:16 *511:26 3.1694e-05
22 *423:20 *8676:A1 0.00013439
23 *423:22 *9053:A 0
24 *423:22 *492:12 0.00580966
25 *423:22 *514:78 4.66798e-05
26 *423:22 *530:18 0.00128028
27 m_rdata[10] *423:22 1.7635e-05
28 paddr[0] *423:22 0.000152503
29 *8677:A *423:16 0.00043741
30 *8690:S *423:16 0.000184866
31 *8691:A *423:12 0.000373367
32 *8691:A *423:16 2.59835e-05
33 *8724:S *423:12 0.000124895
34 *8725:A *423:12 4.99619e-05
35 *8772:S *423:12 2.75145e-05
36 *8773:A *423:12 0.00086442
37 *8841:CLK *423:16 0.000246215
38 *8850:CLK *423:12 2.59926e-05
39 *8889:A *423:20 7.60965e-05
40 *8889:A *423:22 0.000125456
41 *8893:A *423:22 0.000105159
42 *8921:A *423:22 6.96023e-05
43 *8965:A *423:22 1.79536e-05
44 *366:32 *423:12 0.000216793
45 *394:8 *423:22 0.000174057
46 *412:26 *423:22 0.000203681
47 *412:40 *423:22 0.00223304
48 *418:20 *423:22 0.000240263
49 *418:28 *423:22 0.00107094
*RES
1 *8593:X *423:12 49.105 
2 *423:12 *423:16 45.66 
3 *423:16 *423:20 25.565 
4 *423:20 *423:22 76.4775 
5 *423:22 *9013:A 18.2625 
*END

*D_NET *424 0.0171776
*CONN
*I *9014:A I *D sky130_fd_sc_hd__clkbuf_4
*I *8595:X O *D sky130_fd_sc_hd__dlymetal6s2s_1
*CAP
1 *9014:A 0
2 *8595:X 0.00156115
3 *424:12 0.00649718
4 *424:10 0.00805833
5 *424:10 *8697:A1 0.000192976
6 *424:10 *487:24 0.000538549
7 *424:12 *509:100 0
8 *424:12 *546:8 0
9 *8697:A0 *424:10 0.000130903
10 *8697:S *424:10 8.65905e-05
11 *285:42 *424:10 0.000111892
*RES
1 *8595:X *424:10 28.905 
2 *424:10 *424:12 106.695 
3 *424:12 *9014:A 3.6 
*END

*D_NET *425 0.0121426
*CONN
*I *9015:A I *D sky130_fd_sc_hd__clkbuf_4
*I *8597:X O *D sky130_fd_sc_hd__buf_1
*CAP
1 *9015:A 0.00156914
2 *8597:X 0.00112076
3 *425:14 0.0026899
4 *9015:A *9085:A 0.000283117
5 *9015:A *502:31 0.00403313
6 *9015:A *526:24 0.000261528
7 *9015:A *535:8 0.000431333
8 *425:14 *8832:RESET_B 7.07664e-05
9 *425:14 *502:29 0
10 *425:14 *502:31 0.000544991
11 *425:14 *548:28 0.000199833
12 *425:14 *548:32 0
13 m_rdata[22] *9015:A 0.000316421
14 m_ready *9015:A 0.000313857
15 pwdata[23] *425:14 0.000162311
16 *8597:A *425:14 0.000145538
*RES
1 *8597:X *425:14 22.8275 
2 *425:14 *9015:A 41.9275 
*END

*D_NET *426 0.00193763
*CONN
*I *8699:A0 I *D sky130_fd_sc_hd__mux2_1
*I *8892:X O *D sky130_fd_sc_hd__clkbuf_1
*CAP
1 *8699:A0 0.000845236
2 *8892:X 0.000845236
3 *8699:A0 *8699:A1 7.54285e-05
4 *8699:A0 *8882:A 0
5 *8699:A0 *9032:A 0
6 *8699:A0 *548:22 6.36594e-05
7 *8699:A0 *551:36 0
8 *8699:S *8699:A0 8.696e-05
9 *8813:D *8699:A0 0
10 *8829:D *8699:A0 0
11 *8892:A *8699:A0 2.11084e-05
*RES
1 *8892:X *8699:A0 20.655 
*END

*D_NET *427 0.0153676
*CONN
*I *9016:A I *D sky130_fd_sc_hd__clkbuf_4
*I *8599:X O *D sky130_fd_sc_hd__buf_1
*CAP
1 *9016:A 7.96932e-05
2 *8599:X 0.00080789
3 *427:18 0.00103806
4 *427:16 0.00176626
5 *427:16 *8603:A 0.00011964
6 *427:16 *8607:A 0.000247487
7 *427:16 *8749:A0 0
8 *427:16 *8749:A1 0
9 *427:16 *9059:A 0
10 *427:16 *429:20 0.000513287
11 *427:16 *452:20 0.000132283
12 *427:16 *506:20 0.000188275
13 *427:18 *429:22 0.00436159
14 *427:18 *452:20 0.00439503
15 m_rdata[7] *9016:A 4.82919e-05
16 pwdata[1] *427:16 1.92979e-05
17 *8603:B *427:16 6.23315e-05
18 *8604:A *427:16 0.000124007
19 *8837:CLK *427:16 0.000189426
20 *386:33 *427:16 0.00126017
21 *386:33 *427:18 1.46216e-05
*RES
1 *8599:X *427:16 29.6475 
2 *427:16 *427:18 50.4675 
3 *427:18 *9016:A 4.74 
*END

*D_NET *428 0.0300129
*CONN
*I *9017:A I *D sky130_fd_sc_hd__clkbuf_4
*I *8601:X O *D sky130_fd_sc_hd__clkbuf_2
*CAP
1 *9017:A 0
2 *8601:X 0.000724849
3 *428:18 0.00690204
4 *428:16 0.00690204
5 *428:14 0.0061114
6 *428:12 0.00683625
7 *428:12 *8592:A 0.000272984
8 *428:12 *430:56 0.000179248
9 *428:12 *430:67 0.00042003
10 *428:14 *430:67 0.00045606
11 *428:14 *602:16 0.000908952
12 *428:18 *8598:B 0
13 *428:18 *570:20 0
14 *8591:A *428:14 0.000159313
15 *8601:A *428:12 4.99619e-05
16 *8944:A *428:18 0
17 *9012:A *428:18 8.97486e-05
*RES
1 *8601:X *428:12 14.0875 
2 *428:12 *428:14 73.4175 
3 *428:14 *428:16 2 
4 *428:16 *428:18 113.07 
5 *428:18 *9017:A 3.6 
*END

*D_NET *429 0.017152
*CONN
*I *9018:A I *D sky130_fd_sc_hd__clkbuf_4
*I *8604:X O *D sky130_fd_sc_hd__buf_1
*CAP
1 *9018:A 4.904e-05
2 *8604:X 0.000927173
3 *429:22 0.00139326
4 *429:20 0.00227139
5 *429:20 *9059:A 0
6 *429:20 *452:20 0.000299143
7 *429:20 *474:16 0.000160641
8 *429:20 *479:20 0.00150678
9 *429:20 *483:12 6.71882e-05
10 *429:22 *441:24 0.00118169
11 *429:22 *452:20 0.000325469
12 *429:22 *603:8 0.000203017
13 m_rdata[9] *9018:A 4.82919e-05
14 *8831:CLK *429:22 0.000899676
15 *8837:D *429:20 0.000533018
16 *386:33 *429:22 0.00241132
17 *427:16 *429:20 0.000513287
18 *427:18 *429:22 0.00436159
*RES
1 *8604:X *429:20 33.22 
2 *429:20 *429:22 62.325 
3 *429:22 *9018:A 4.395 
*END

*D_NET *430 0.0727735
*CONN
*I *8600:B I *D sky130_fd_sc_hd__and2_1
*I *8596:B I *D sky130_fd_sc_hd__and2_1
*I *9019:A I *D sky130_fd_sc_hd__clkbuf_4
*I *8594:B I *D sky130_fd_sc_hd__and2_1
*I *8584:B I *D sky130_fd_sc_hd__and2_1
*I *8590:B I *D sky130_fd_sc_hd__and2_1
*I *8598:B I *D sky130_fd_sc_hd__and2_1
*I *8592:B I *D sky130_fd_sc_hd__and2_1
*I *8586:B I *D sky130_fd_sc_hd__and2_1
*I *8588:B I *D sky130_fd_sc_hd__and2_1
*I *8583:X O *D sky130_fd_sc_hd__clkbuf_8
*CAP
1 *8600:B 3.84676e-06
2 *8596:B 1.61225e-05
3 *9019:A 0.00252804
4 *8594:B 0
5 *8584:B 0.000414687
6 *8590:B 0
7 *8598:B 0.00115728
8 *8592:B 0
9 *8586:B 0.00104279
10 *8588:B 0.00202632
11 *8583:X 0.000213112
12 *430:135 0.00277495
13 *430:125 0.00264977
14 *430:123 0.00322944
15 *430:77 0.00342519
16 *430:75 0.00404053
17 *430:67 0.00261807
18 *430:56 0.000538781
19 *430:54 0.000256221
20 *430:44 0.000994013
21 *430:42 0.000190222
22 *430:27 0.0011938
23 *430:25 0.00407103
24 *430:23 0.00407103
25 *430:12 0.00355466
26 *430:8 0.00174145
27 *8584:B *8584:A 0
28 *8586:B *8594:A 0
29 *8586:B *8818:RESET_B 0.000317494
30 *8586:B *450:14 9.86611e-05
31 *8586:B *510:36 0.000157198
32 *8586:B *557:20 0.00252093
33 *8588:B *8588:A 3.95724e-05
34 *8596:B *8596:A 5.53774e-05
35 *9019:A *8596:A 5.3203e-05
36 *9019:A *8880:A 8.65905e-05
37 *9019:A *9066:A 0.000238137
38 *9019:A *587:14 0.00123314
39 *430:25 *607:22 0.000938283
40 *430:42 *8594:A 0
41 *430:42 *557:20 0.000148275
42 *430:54 *8594:A 3.71133e-05
43 *430:54 *602:16 1.19928e-05
44 *430:56 *8594:A 8.23457e-05
45 *430:56 *602:16 0.000212869
46 *430:67 *8592:A 0.000272984
47 *430:67 *602:16 0.00212354
48 *430:75 *8584:A 0
49 *430:77 *8590:A 0.000391354
50 *430:123 *8594:A 7.90639e-06
51 *430:123 *8814:RESET_B 0
52 *430:123 *8842:RESET_B 0
53 *430:123 *8868:A 0
54 *430:123 *487:12 0
55 *430:123 *508:27 0.000160658
56 *430:123 *511:72 0
57 *430:123 *557:20 0.000117884
58 *430:125 *8695:A1 6.11019e-05
59 *430:125 *8713:A0 0
60 *430:125 *8868:A 0
61 *430:125 *441:8 0.000170535
62 *430:125 *578:10 9.50342e-06
63 *430:125 *578:12 0.00334283
64 *430:135 *8739:A1 0.000204489
65 *430:135 *8832:RESET_B 0
66 *430:135 *480:22 2.42236e-05
67 *430:135 *502:10 2.76158e-05
68 *430:135 *502:29 3.7729e-05
69 *430:135 *578:10 0.000167801
70 m_ready *9019:A 0
71 *8591:A *8598:B 0.00016506
72 *8595:A *430:54 0
73 *8595:A *430:123 5.57736e-05
74 *8597:A *9019:A 0.000132673
75 *8601:A *8600:B 1.92979e-05
76 *8601:A *430:42 8.7152e-06
77 *8601:A *430:56 0.000198934
78 *8630:B *430:75 0.000739436
79 *8631:A *430:75 0.000214272
80 *8637:A *430:125 7.4027e-05
81 *8639:A *430:25 0.000162575
82 *8752:A *430:125 0.000141606
83 *8815:CLK *430:125 0.000138551
84 *8815:D *430:123 0
85 *8850:CLK *430:123 0.000229904
86 *9012:A *8598:B 0.0017225
87 *275:34 *430:8 0
88 *275:34 *430:12 0
89 *296:14 *430:12 0.001408
90 *296:29 *430:12 0.000280687
91 *296:29 *430:25 0.000399107
92 *296:42 *430:25 0.00221188
93 *296:55 *8586:B 0
94 *296:57 *8586:B 9.56677e-06
95 *296:96 *8586:B 0
96 *296:118 *430:123 0
97 *296:120 *430:123 8.64418e-05
98 *296:120 *430:125 0.00261234
99 *296:139 *430:125 0.00162053
100 *296:139 *430:135 0.000137157
101 *321:14 *430:8 8.7152e-06
102 *355:81 *430:125 0.000559671
103 *388:117 *430:123 0.000155944
104 *388:130 *430:123 1.38481e-05
105 *388:130 *430:125 2.10433e-05
106 *390:54 *430:135 0.000289004
107 *398:10 *9019:A 0
108 *401:14 *9019:A 0.00179825
109 *410:8 *8584:B 0
110 *410:8 *430:75 0
111 *428:12 *430:56 0.000179248
112 *428:12 *430:67 0.00042003
113 *428:14 *430:67 0.00045606
114 *428:18 *8598:B 0
*RES
1 *8583:X *430:8 6.765 
2 *430:8 *430:12 35.255 
3 *430:12 *8588:B 32.08 
4 *430:8 *430:23 2 
5 *430:23 *430:25 54.27 
6 *430:25 *430:27 2 
7 *430:27 *8586:B 33.585 
8 *430:27 *430:42 3.2925 
9 *430:42 *430:44 0.45 
10 *430:44 *430:54 4.1825 
11 *430:54 *430:56 4.245 
12 *430:56 *8592:B 1.6 
13 *430:56 *430:67 21.785 
14 *430:67 *430:75 32.6975 
15 *430:75 *430:77 35.4675 
16 *430:77 *8598:B 30.125 
17 *430:77 *8590:B 1.6 
18 *430:67 *8584:B 9.915 
19 *430:54 *8594:B 1.6 
20 *430:44 *430:123 15.735 
21 *430:123 *430:125 90.06 
22 *430:125 *430:135 8.9075 
23 *430:135 *9019:A 48.11 
24 *430:135 *8596:B 2.41 
25 *430:42 *8600:B 3.8325 
*END

*D_NET *431 0.00525791
*CONN
*I *9020:A I *D sky130_fd_sc_hd__clkbuf_4
*I *8656:A1 I *D sky130_fd_sc_hd__mux2_1
*I *8793:Q O *D sky130_fd_sc_hd__dfrtp_1
*CAP
1 *9020:A 0.00101782
2 *8656:A1 0.000356709
3 *8793:Q 0
4 *431:4 0.00137453
5 *8656:A1 *8793:RESET_B 5.80887e-05
6 *8656:A1 *514:55 1.94777e-05
7 *8656:A1 *539:12 0
8 *9020:A *8793:RESET_B 0.00227908
9 *8613:B *8656:A1 8.53113e-06
10 *8657:A *8656:A1 0
11 *391:41 *8656:A1 0.00014368
*RES
1 *8793:Q *431:4 1.6 
2 *431:4 *8656:A1 10.805 
3 *431:4 *9020:A 25.18 
*END

*D_NET *432 0.00261917
*CONN
*I *9021:A I *D sky130_fd_sc_hd__buf_2
*I *8884:A I *D sky130_fd_sc_hd__dlygate4sd3_1
*I *8803:Q O *D sky130_fd_sc_hd__dfrtp_1
*CAP
1 *9021:A 0.000145015
2 *8884:A 0.000119563
3 *8803:Q 7.9935e-05
4 *432:8 0.000344513
5 *8884:A *8678:A1 0.000120655
6 *8884:A *471:35 0.000252282
7 *9021:A *471:35 0.000645741
8 *432:8 *514:78 7.27298e-06
9 *418:28 *8884:A 0.000250616
10 *418:28 *9021:A 0.000653578
*RES
1 *8803:Q *432:8 4.395 
2 *432:8 *8884:A 7.65 
3 *432:8 *9021:A 11.1 
*END

*D_NET *433 0.021612
*CONN
*I *9022:A I *D sky130_fd_sc_hd__clkbuf_4
*I *8680:A1 I *D sky130_fd_sc_hd__mux2_1
*I *8804:Q O *D sky130_fd_sc_hd__dfrtp_4
*CAP
1 *9022:A 0
2 *8680:A1 0.000181866
3 *8804:Q 0
4 *433:23 0.0100827
5 *433:21 0.0101806
6 *433:6 0.000279704
7 *8680:A1 *8680:A0 0.00019637
8 *8680:A1 *8801:RESET_B 0.00012819
9 *8680:A1 *439:8 0.000143501
10 *8680:A1 *511:110 1.71013e-05
11 *433:21 *439:8 0.000194588
12 *433:21 *511:110 0.000189056
13 paddr[11] *433:23 1.83756e-05
*RES
1 *8804:Q *433:6 3.6 
2 *433:6 *8680:A1 8.34 
3 *433:6 *433:21 5.93 
4 *433:21 *433:23 147.42 
5 *433:23 *9022:A 1.6 
*END

*D_NET *434 0.0306735
*CONN
*I *9023:A I *D sky130_fd_sc_hd__clkbuf_4
*I *8682:A1 I *D sky130_fd_sc_hd__mux2_1
*I *8805:Q O *D sky130_fd_sc_hd__dfrtp_4
*CAP
1 *9023:A 0
2 *8682:A1 0.00019948
3 *8805:Q 0.000241857
4 *434:29 0.00626977
5 *434:27 0.00923497
6 *434:23 0.0029652
7 *434:21 0.0027661
8 *434:8 0.00320743
9 *8682:A1 *8682:A0 4.82919e-05
10 *8682:A1 *8716:A1 5.53249e-06
11 *8682:A1 *454:31 0
12 *8682:A1 *597:12 5.93674e-05
13 *434:8 *437:26 4.99619e-05
14 *434:8 *437:50 0.000308302
15 *434:21 *454:31 0
16 *434:21 *471:29 0
17 *434:21 *486:21 0
18 *434:21 *597:12 0.00215918
19 *434:27 *596:12 0.00239703
20 paddr[12] *434:29 1.83847e-05
21 *8636:B *434:27 4.82863e-05
22 *8683:A *8682:A1 0.000211423
23 *8683:A *434:21 0.000185411
24 *8805:D *434:21 9.54469e-05
25 *311:58 *8682:A1 0.000202056
*RES
1 *8805:Q *434:8 8.88 
2 *434:8 *8682:A1 9.045 
3 *434:8 *434:21 61.815 
4 *434:21 *434:23 2 
5 *434:23 *434:27 49.9725 
6 *434:27 *434:29 92.7375 
7 *434:29 *9023:A 1.6 
*END

*D_NET *435 0.0291345
*CONN
*I *8684:A1 I *D sky130_fd_sc_hd__mux2_1
*I *9024:A I *D sky130_fd_sc_hd__clkbuf_4
*I *8806:Q O *D sky130_fd_sc_hd__dfrtp_2
*CAP
1 *8684:A1 0
2 *9024:A 0.0006045
3 *8806:Q 0.00011006
4 *435:28 0.00961072
5 *435:26 0.0112194
6 *435:12 0.00232324
7 *9024:A *8858:A 0.000736971
8 *9024:A *439:26 0.000103647
9 *435:12 *565:14 4.11678e-06
10 *435:26 *8722:A1 0.00016718
11 *435:26 *8827:RESET_B 0.000168186
12 *435:26 *439:24 0.000627578
13 *435:26 *448:22 0
14 *435:26 *457:23 0.000214272
15 *435:26 *476:8 0.000113797
16 *435:26 *495:8 0.000201508
17 *435:28 *484:26 0.000233834
18 *435:28 *485:14 1.83756e-05
19 *435:28 *485:24 5.89214e-05
20 *435:28 *537:20 1.61428e-05
21 *435:28 *554:28 0.000339321
22 paddr[13] *9024:A 4.99619e-05
23 *8670:S *435:28 5.78185e-05
24 *8684:S *435:12 0.000116853
25 *8685:A *435:26 9.91257e-05
26 *8768:S *435:28 0.000541304
27 *8769:A *435:28 5.05521e-05
28 *8785:A *435:28 0.000248747
29 *8798:CLK *435:28 0.000645776
30 *8824:D *435:26 8.53856e-06
31 *8827:CLK *435:26 0.000329317
32 *8846:D *435:28 5.73739e-05
33 *8854:D *435:28 5.73739e-05
*RES
1 *8806:Q *435:12 7.43 
2 *435:12 *435:26 38.47 
3 *435:26 *435:28 104.295 
4 *435:28 *9024:A 16.835 
5 *435:12 *8684:A1 1.6 
*END

*D_NET *436 0.00987579
*CONN
*I *8686:A1 I *D sky130_fd_sc_hd__mux2_1
*I *9025:A I *D sky130_fd_sc_hd__buf_2
*I *8807:Q O *D sky130_fd_sc_hd__dfrtp_1
*CAP
1 *8686:A1 0.000461659
2 *9025:A 0
3 *8807:Q 7.57003e-05
4 *436:14 0.0013255
5 *436:8 0.00186286
6 *8686:A1 *440:25 0
7 *8686:A1 *465:25 0.000278418
8 *436:14 *9028:A 0.000639894
9 *436:14 *440:25 0
10 *436:14 *465:25 0.00404373
11 *436:14 *589:10 0.000118527
12 *436:14 *607:10 0.000892034
13 paddr[14] *436:14 8.41703e-06
14 pwdata[26] *436:14 1.00941e-05
15 *8686:S *8686:A1 3.00381e-05
16 *8927:A *436:14 6.44566e-05
17 *8930:A *436:14 6.44566e-05
*RES
1 *8807:Q *436:8 4.395 
2 *436:8 *436:14 49.745 
3 *436:14 *9025:A 1.6 
4 *436:8 *8686:A1 11.355 
*END

*D_NET *437 0.0267354
*CONN
*I *8701:A0 I *D sky130_fd_sc_hd__mux2_1
*I *8893:X O *D sky130_fd_sc_hd__dlymetal6s2s_1
*CAP
1 *8701:A0 4.94277e-05
2 *8893:X 0.00165013
3 *437:50 0.00347409
4 *437:26 0.00642094
5 *437:18 0.0046464
6 *437:18 *8778:A0 0
7 *437:18 *8851:RESET_B 4.84393e-05
8 *437:18 *516:18 0.000179008
9 *437:18 *547:16 0.00195934
10 *437:18 *568:22 0.00153078
11 *437:26 *8578:A 8.65961e-05
12 *437:26 *8578:B_N 2.16917e-05
13 *437:26 *8582:B 4.82919e-05
14 *437:26 *8582:C 5.78185e-05
15 *437:26 *8650:B 0.000350486
16 *437:26 *8682:A0 0.00193114
17 *437:26 *8758:A1 6.6564e-05
18 *437:26 *469:8 4.99619e-05
19 *437:26 *547:16 0.000523183
20 *437:26 *568:24 0.000387515
21 *437:26 *613:29 0.000272984
22 *437:50 *8790:RESET_B 7.92054e-05
23 *437:50 *8828:RESET_B 5.82902e-05
24 *437:50 *498:6 2.30292e-05
25 *437:50 *498:10 0.000195261
26 *437:50 *507:12 0.000197254
27 *8581:A *437:26 1.34594e-05
28 *8581:B *437:26 4.23525e-05
29 *8701:S *8701:A0 4.66826e-05
30 *8701:S *437:50 1.5573e-05
31 *8704:A *437:50 0.00026007
32 *8717:A *437:50 0.000200543
33 *8719:A *437:50 3.99879e-05
34 *8758:S *437:26 0.0001249
35 *8761:A *437:50 0.000173117
36 *8790:D *8701:A0 0.00015896
37 *8790:D *437:50 7.6327e-05
38 *8805:D *437:50 3.94592e-05
39 *8812:D *437:50 8.23457e-05
40 *8815:D *437:50 2.75229e-05
41 *8821:D *437:50 0.000122331
42 *8835:CLK *437:50 0.000115521
43 *8859:A *437:18 0.000148552
44 *8859:A *437:50 0.000119689
45 *321:126 *437:26 4.58257e-05
46 *385:93 *437:50 0.000203112
47 *388:80 *437:50 1.29925e-05
48 *434:8 *437:26 4.99619e-05
49 *434:8 *437:50 0.000308302
*RES
1 *8893:X *437:18 42.935 
2 *437:18 *437:26 47.85 
3 *437:26 *437:50 49.275 
4 *437:50 *8701:A0 3.085 
*END

*D_NET *438 0.0127134
*CONN
*I *9026:A I *D sky130_fd_sc_hd__clkbuf_4
*I *8688:A1 I *D sky130_fd_sc_hd__mux2_1
*I *8808:Q O *D sky130_fd_sc_hd__dfrtp_1
*CAP
1 *9026:A 0.00149484
2 *8688:A1 0.000208248
3 *8808:Q 4.29198e-05
4 *438:19 0.00589915
5 *438:10 0.00465548
6 *438:10 *439:8 0.000181006
7 paddr[15] *9026:A 5.0751e-05
8 *403:10 *438:10 0.000181006
*RES
1 *8808:Q *438:10 7.745 
2 *438:10 *8688:A1 3.775 
3 *438:10 *438:19 48.75 
4 *438:19 *9026:A 28.91 
*END

*D_NET *439 0.0442746
*CONN
*I *8690:A1 I *D sky130_fd_sc_hd__mux2_1
*I *9027:A I *D sky130_fd_sc_hd__clkbuf_4
*I *8809:Q O *D sky130_fd_sc_hd__dfrtp_4
*CAP
1 *8690:A1 0.000157018
2 *9027:A 0.000159719
3 *8809:Q 0
4 *439:26 0.00913333
5 *439:24 0.010839
6 *439:8 0.00650605
7 *439:6 0.00479766
8 *8690:A1 *8847:RESET_B 0
9 *8690:A1 *511:26 2.46089e-05
10 *8690:A1 *512:30 0
11 *9027:A *9054:A 0
12 *439:8 *8674:A1 0
13 *439:8 *8684:A0 0.000114492
14 *439:8 *8692:A1 0.000103185
15 *439:8 *8801:RESET_B 0
16 *439:8 *464:8 0
17 *439:8 *511:110 0
18 *439:8 *512:30 0
19 *439:24 *8845:RESET_B 0.0017598
20 *439:24 *472:14 3.04982e-05
21 *439:24 *472:28 0.000138175
22 *439:24 *472:30 0.000306675
23 *439:24 *498:12 0.000200782
24 *439:24 *558:12 2.11084e-05
25 *439:24 *576:22 0.000151979
26 *439:26 *8845:RESET_B 5.84708e-05
27 *439:26 *8858:A 0.000779614
28 *439:26 *510:118 0.000221851
29 paddr[13] *9027:A 0
30 *8680:A1 *439:8 0.000143501
31 *8690:S *8690:A1 3.45679e-05
32 *8722:S *439:24 0.000161204
33 *8824:D *439:24 0.00046618
34 *8827:CLK *439:24 4.60061e-05
35 *8827:D *439:24 0.000103196
36 *8845:CLK *439:26 0.000577375
37 *8845:D *439:24 0
38 *8845:D *439:26 0.000283205
39 *8854:CLK *439:26 0.000778353
40 *9024:A *439:26 0.000103647
41 *322:14 *439:8 0
42 *322:52 *439:8 0
43 *322:63 *8690:A1 0
44 *322:63 *439:8 0
45 *384:33 *439:26 0.00134807
46 *384:40 *439:26 0.00118711
47 *403:10 *439:8 0.00252196
48 *406:12 *439:26 1.29866e-05
49 *433:21 *439:8 0.000194588
50 *435:26 *439:24 0.000627578
51 *438:10 *439:8 0.000181006
*RES
1 *8809:Q *439:6 3.6 
2 *439:6 *439:8 93.945 
3 *439:8 *439:24 44.505 
4 *439:24 *439:26 113.265 
5 *439:26 *9027:A 8.105 
6 *439:6 *8690:A1 6.03 
*END

*D_NET *440 0.0277615
*CONN
*I *9028:A I *D sky130_fd_sc_hd__buf_2
*I *8692:A1 I *D sky130_fd_sc_hd__mux2_1
*I *8810:Q O *D sky130_fd_sc_hd__dfrtp_2
*CAP
1 *9028:A 0.00190796
2 *8692:A1 0.000600466
3 *8810:Q 0
4 *440:25 0.00321665
5 *440:19 0.00609452
6 *440:4 0.0053863
7 *8692:A1 *512:30 0
8 *9028:A *9074:A 0.000825974
9 *9028:A *465:25 0
10 *9028:A *490:10 0.000431882
11 *9028:A *607:10 0.00065418
12 *440:19 *454:31 6.20667e-05
13 *440:19 *454:33 0.00291249
14 *440:25 *465:25 0
15 *440:25 *490:10 0.00335684
16 *440:25 *607:10 0.000635055
17 paddr[14] *9028:A 8.79281e-05
18 paddr[15] *9028:A 0
19 paddr[28] *9028:A 2.51475e-05
20 paddr[29] *440:25 3.19349e-05
21 pwdata[26] *9028:A 2.10433e-05
22 *8686:A1 *440:25 0
23 *8924:A *440:25 8.66976e-06
24 *8930:A *9028:A 3.85757e-05
25 *321:20 *8692:A1 0.000524322
26 *321:34 *8692:A1 0.000196376
27 *436:14 *9028:A 0.000639894
28 *436:14 *440:25 0
29 *439:8 *8692:A1 0.000103185
*RES
1 *8810:Q *440:4 1.6 
2 *440:4 *8692:A1 14.405 
3 *440:4 *440:19 64.275 
4 *440:19 *440:25 40.7975 
5 *440:25 *9028:A 49.1475 
*END

*D_NET *441 0.0314875
*CONN
*I *8695:A1 I *D sky130_fd_sc_hd__mux2_1
*I *9029:A I *D sky130_fd_sc_hd__clkbuf_4
*I *8811:Q O *D sky130_fd_sc_hd__dfrtp_4
*CAP
1 *8695:A1 0.000389189
2 *9029:A 0
3 *8811:Q 0.00012448
4 *441:24 0.00383565
5 *441:22 0.00383565
6 *441:20 0.00648534
7 *441:18 0.00765212
8 *441:8 0.00168045
9 *8695:A1 *8868:A 3.77368e-05
10 *8695:A1 *509:6 8.65961e-05
11 *8695:A1 *509:12 0.000123225
12 *441:8 *8868:A 0.000123772
13 *441:18 *509:12 1.41979e-05
14 *441:24 *603:8 0
15 m_rdata[25] *441:24 0
16 m_rdata[7] *441:24 0
17 m_rdata[9] *441:24 0
18 paddr[18] *441:24 0
19 paddr[24] *441:24 0
20 pwdata[13] *441:24 0
21 *8695:A0 *8695:A1 3.00381e-05
22 *8756:A *441:18 5.05521e-05
23 *8831:CLK *441:24 0.000890173
24 *8870:A *441:18 9.53428e-06
25 *8896:A *441:24 0
26 *8901:A *441:24 0
27 *8907:A *441:24 0.000127543
28 *8946:A *441:24 0
29 *333:118 *8695:A1 1.34594e-05
30 *386:33 *441:24 0.0031442
31 *394:27 *8695:A1 7.5919e-05
32 *394:27 *441:18 0.000344454
33 *398:8 *441:20 0.000999874
34 *429:22 *441:24 0.00118169
35 *430:125 *8695:A1 6.11019e-05
36 *430:125 *441:8 0.000170535
*RES
1 *8811:Q *441:8 7.275 
2 *441:8 *441:18 17.7575 
3 *441:18 *441:20 92.7375 
4 *441:20 *441:22 2 
5 *441:22 *441:24 85.53 
6 *441:24 *9029:A 3.6 
7 *441:8 *8695:A1 9.57 
*END

*D_NET *442 0.0279038
*CONN
*I *9030:A I *D sky130_fd_sc_hd__clkbuf_4
*I *8697:A1 I *D sky130_fd_sc_hd__mux2_1
*I *8812:Q O *D sky130_fd_sc_hd__dfrtp_2
*CAP
1 *9030:A 0.00248186
2 *8697:A1 0.000409251
3 *8812:Q 0
4 *442:47 0.00555011
5 *442:45 0.00393323
6 *442:4 0.00127423
7 *8697:A1 *8812:RESET_B 7.00685e-05
8 *8697:A1 *487:24 0.000163651
9 *9030:A *448:20 0.000248881
10 *9030:A *495:16 0.000412671
11 *9030:A *531:14 0.000336489
12 *9030:A *537:20 0.000230443
13 *9030:A *557:14 0.000329508
14 *9030:A *610:14 0.00157277
15 *442:45 *511:72 0.000284969
16 *442:45 *560:8 0.000645621
17 *442:47 *476:8 0
18 *442:47 *560:8 0.0063767
19 *442:47 *610:16 0
20 m_rdata[17] *9030:A 0
21 paddr[19] *9030:A 3.62385e-05
22 *8595:A *8697:A1 0.000383878
23 *8627:A *442:45 0.000198867
24 *8635:A *442:45 9.54399e-05
25 *8697:S *8697:A1 4.82863e-05
26 *8698:A *8697:A1 0.000275656
27 *8767:A *442:47 0
28 *8812:D *8697:A1 0.000440847
29 *8850:D *442:45 5.20968e-05
30 *8934:A *442:47 7.76679e-05
31 *366:45 *442:45 0.00130469
32 *366:45 *442:47 0
33 *366:49 *442:47 0
34 *416:20 *9030:A 0.000338599
35 *416:28 *9030:A 0.000138126
36 *424:10 *8697:A1 0.000192976
*RES
1 *8812:Q *442:4 1.6 
2 *442:4 *8697:A1 15.67 
3 *442:4 *442:45 29.9675 
4 *442:45 *442:47 75.51 
5 *442:47 *9030:A 11.7391 
*END

*D_NET *443 0.00128484
*CONN
*I *8881:A I *D sky130_fd_sc_hd__dlygate4sd3_1
*I *9031:A I *D sky130_fd_sc_hd__clkbuf_4
*I *8794:Q O *D sky130_fd_sc_hd__dfrtp_1
*CAP
1 *8881:A 5.44428e-05
2 *9031:A 0.000482935
3 *8794:Q 0
4 *443:4 0.000537378
5 *8881:A *570:20 4.82919e-05
6 *9031:A *8794:RESET_B 7.00685e-05
7 *9031:A *9046:A 0
8 *9031:A *570:20 9.17212e-05
*RES
1 *8794:Q *443:4 1.6 
2 *443:4 *9031:A 12.485 
3 *443:4 *8881:A 2.665 
*END

*D_NET *444 0.00247117
*CONN
*I *9032:A I *D sky130_fd_sc_hd__clkbuf_4
*I *8882:A I *D sky130_fd_sc_hd__dlygate4sd3_1
*I *8813:Q O *D sky130_fd_sc_hd__dfrtp_1
*CAP
1 *9032:A 0.000557431
2 *8882:A 0.000168364
3 *8813:Q 0
4 *444:4 0.000725795
5 *8882:A *8699:A1 5.34747e-05
6 *8882:A *526:34 0
7 *9032:A *526:32 0.00072223
8 *9032:A *526:34 2.85345e-06
9 *9032:A *548:22 0.000160635
10 *9032:A *551:36 0
11 *8699:A0 *8882:A 0
12 *8699:A0 *9032:A 0
13 *390:44 *9032:A 8.03844e-05
*RES
1 *8813:Q *444:4 1.6 
2 *444:4 *8882:A 8.63 
3 *444:4 *9032:A 17.435 
*END

*D_NET *445 0.0304579
*CONN
*I *8701:A1 I *D sky130_fd_sc_hd__mux2_1
*I *9033:A I *D sky130_fd_sc_hd__clkbuf_4
*I *8814:Q O *D sky130_fd_sc_hd__dfrtp_4
*CAP
1 *8701:A1 0
2 *9033:A 2.08101e-05
3 *8814:Q 0.00112524
4 *445:30 0.00368718
5 *445:28 0.00639614
6 *445:22 0.00556999
7 *445:20 0.003456
8 *445:16 0.00174101
9 *445:16 *8814:RESET_B 0.000252023
10 *445:16 *8868:A 0
11 *445:16 *477:18 6.02536e-05
12 *445:16 *508:27 0.000194786
13 *445:20 *477:18 0.000818159
14 *445:20 *477:20 0
15 *445:20 *606:14 0.000162315
16 *445:22 *606:14 0.00329399
17 *8706:A *445:22 7.4027e-05
18 *8787:A *445:30 0.000257223
19 *8814:CLK *445:16 8.23457e-05
20 *8814:D *445:16 0.000170617
21 *8855:D *445:30 5.34747e-05
22 *333:54 *445:20 0
23 *355:8 *445:20 0
24 *355:60 *445:20 0
25 *384:14 *445:28 0.00226313
26 *385:93 *445:16 1.09923e-05
27 *385:93 *445:20 0
28 *385:101 *445:16 0.000130134
29 *402:10 *445:20 0.000638052
30 *402:12 *445:22 0
*RES
1 *8814:Q *445:16 19.275 
2 *445:16 *445:20 15.3225 
3 *445:20 *445:22 66.4275 
4 *445:22 *445:28 45.6725 
5 *445:28 *445:30 56.5125 
6 *445:30 *9033:A 1.96 
7 *445:16 *8701:A1 3.6 
*END

*D_NET *446 0.0149146
*CONN
*I *9034:A I *D sky130_fd_sc_hd__clkbuf_4
*I *8703:A1 I *D sky130_fd_sc_hd__mux2_1
*I *8815:Q O *D sky130_fd_sc_hd__dfrtp_1
*CAP
1 *9034:A 2.24916e-05
2 *8703:A1 0.000253374
3 *8815:Q 7.68485e-05
4 *446:23 0.00414696
5 *446:8 0.0044547
6 *8703:A1 *8711:A0 0.000266104
7 *8703:A1 *8839:RESET_B 0.000139238
8 *9034:A *548:28 7.35729e-05
9 *446:8 *8815:RESET_B 1.1392e-05
10 *446:8 *513:52 1.1392e-05
11 *446:23 *8739:A0 0.00014331
12 *446:23 *8843:RESET_B 3.68862e-05
13 *446:23 *480:12 4.94404e-05
14 paddr[22] *9034:A 0.000124895
15 *8696:A *446:23 0
16 *8703:S *8703:A1 0.000385338
17 *8763:A *446:23 0
18 *8764:S *446:23 0.000112123
19 *8815:D *8703:A1 0
20 *8839:D *8703:A1 6.52265e-05
21 *333:118 *446:23 0
22 *333:142 *446:23 0
23 *366:99 *8703:A1 5.10957e-05
24 *366:99 *446:23 0.00429252
25 *366:107 *446:23 0.000197652
*RES
1 *8815:Q *446:8 4.395 
2 *446:8 *8703:A1 11.205 
3 *446:8 *446:23 95.475 
4 *446:23 *9034:A 4.74 
*END

*D_NET *447 0.0220479
*CONN
*I *9035:A I *D sky130_fd_sc_hd__clkbuf_4
*I *8705:A1 I *D sky130_fd_sc_hd__mux2_1
*I *8816:Q O *D sky130_fd_sc_hd__dfrtp_4
*CAP
1 *9035:A 0
2 *8705:A1 0.000836067
3 *8816:Q 0
4 *447:23 0.00435242
5 *447:21 0.00435242
6 *447:19 0.00543343
7 *447:17 0.00569248
8 *447:4 0.00109512
9 *8705:A1 *8816:RESET_B 2.20753e-05
10 *8705:A1 *510:20 8.87364e-05
11 *447:23 *583:12 0
12 *8816:CLK *8705:A1 0.000122331
13 *8978:A *447:23 4.55864e-06
14 *385:14 *8705:A1 4.82863e-05
*RES
1 *8816:Q *447:4 1.6 
2 *447:4 *8705:A1 11.035 
3 *447:4 *447:17 3.6525 
4 *447:17 *447:19 79.2825 
5 *447:19 *447:21 2 
6 *447:21 *447:23 71.505 
7 *447:23 *9035:A 3.6 
*END

*D_NET *448 0.0263571
*CONN
*I *8703:A0 I *D sky130_fd_sc_hd__mux2_1
*I *8894:X O *D sky130_fd_sc_hd__clkbuf_2
*CAP
1 *8703:A0 0
2 *8894:X 0.00012946
3 *448:22 0.00665409
4 *448:20 0.00693149
5 *448:16 0.00133226
6 *448:12 0.00118432
7 *448:16 *531:14 6.47326e-05
8 *448:16 *554:16 0.00300315
9 *448:16 *554:28 0.00100936
10 *448:20 *495:16 2.05056e-05
11 *448:20 *531:14 0.00198385
12 *448:20 *554:28 9.27255e-06
13 *448:22 *9047:A 0.000132713
14 *448:22 *476:8 0
15 *448:22 *489:8 0
16 *448:22 *489:41 0
17 *448:22 *554:28 0
18 *8698:A *448:22 0
19 *8754:A *448:22 0.000218004
20 *8894:A *448:12 3.59997e-05
21 *8954:A *448:22 8.4706e-05
22 *9030:A *448:20 0.000248881
23 *311:58 *448:22 0
24 *416:20 *448:20 0.00191237
25 *416:28 *448:16 0.00123806
26 *416:36 *448:16 0.000163872
27 *435:26 *448:22 0
*RES
1 *8894:X *448:12 7.85 
2 *448:12 *448:16 43.155 
3 *448:16 *448:20 20.045 
4 *448:20 *448:22 110.52 
5 *448:22 *8703:A0 3.6 
*END

*D_NET *449 0.00757209
*CONN
*I *8707:A1 I *D sky130_fd_sc_hd__mux2_1
*I *9036:A I *D sky130_fd_sc_hd__clkbuf_4
*I *8817:Q O *D sky130_fd_sc_hd__dfrtp_1
*CAP
1 *8707:A1 0
2 *9036:A 0.00320476
3 *8817:Q 0.000224744
4 *449:12 0.0034295
5 *9036:A *8707:A0 0.000136838
6 *9036:A *509:50 0.000462829
7 *449:12 *509:28 0.000102024
8 *449:12 *509:50 0
9 paddr[24] *9036:A 1.1392e-05
10 *8817:CLK *9036:A 0
11 *8862:A *9036:A 0
*RES
1 *8817:Q *449:12 8.645 
2 *449:12 *9036:A 49.025 
3 *449:12 *8707:A1 1.6 
*END

*D_NET *450 0.013952
*CONN
*I *8709:A1 I *D sky130_fd_sc_hd__mux2_1
*I *9037:A I *D sky130_fd_sc_hd__clkbuf_4
*I *8818:Q O *D sky130_fd_sc_hd__dfrtp_1
*CAP
1 *8709:A1 0
2 *9037:A 4.34756e-05
3 *8818:Q 0.000202377
4 *450:20 0.00395819
5 *450:18 0.00619037
6 *450:14 0.00247803
7 *450:14 *8818:RESET_B 5.36384e-06
8 *450:14 *481:12 4.66108e-05
9 *450:14 *510:36 0.00018305
10 *450:18 *481:12 4.66108e-05
11 *450:20 *8768:A0 0
12 *450:20 *8846:RESET_B 0
13 *450:20 *485:14 0
14 paddr[25] *450:20 9.50342e-06
15 *8586:B *450:14 9.86611e-05
16 *8709:S *450:18 0.0004266
17 *8846:D *450:20 0
18 *8860:A *450:20 0.000263128
*RES
1 *8818:Q *450:14 9.335 
2 *450:14 *450:18 27.29 
3 *450:18 *450:20 64.875 
4 *450:20 *9037:A 4.05 
5 *450:14 *8709:A1 1.6 
*END

*D_NET *451 0.0406851
*CONN
*I *8711:A1 I *D sky130_fd_sc_hd__mux2_1
*I *9038:A I *D sky130_fd_sc_hd__clkbuf_4
*I *8819:Q O *D sky130_fd_sc_hd__dfrtp_4
*CAP
1 *8711:A1 0.000157272
2 *9038:A 0.00115109
3 *8819:Q 0.000699797
4 *451:40 0.00185954
5 *451:32 0.00290979
6 *451:20 0.00560928
7 *451:18 0.0035126
8 *451:14 0.000961746
9 *8711:A1 *8711:A0 4.99619e-05
10 *8711:A1 *487:26 0.000188038
11 *9038:A *582:10 0.000269475
12 *9038:A *588:8 0.00200091
13 *451:14 *479:18 0.000292297
14 *451:14 *507:25 1.92979e-05
15 *451:18 *487:26 0.000135318
16 *451:20 *8624:A 0.000302425
17 *451:20 *477:20 0
18 *451:20 *477:34 0
19 *451:20 *487:26 0.000180516
20 *451:20 *584:10 0.00866765
21 *451:32 *462:22 0.00250935
22 *451:32 *531:14 0.000541118
23 *451:32 *588:8 7.89983e-05
24 *451:40 *9048:A 0.00128058
25 *451:40 *588:8 0.00309574
26 *8620:A *451:20 0
27 *8702:A *8711:A1 6.71803e-06
28 *8702:A *451:18 2.01541e-05
29 *8712:A *8711:A1 5.36281e-05
30 *8790:D *451:18 7.23602e-05
31 *8849:CLK *451:20 0
32 *8906:A *451:20 0
33 *8938:A *451:32 2.67022e-05
34 *8940:A *9038:A 0.0001249
35 *9000:A *451:40 0.000123225
36 *285:42 *8711:A1 0
37 *285:42 *451:18 0
38 *285:42 *451:20 0
39 *285:46 *451:20 0.000198981
40 *285:50 *451:20 0.00338372
41 *333:16 *8711:A1 0.000201903
*RES
1 *8819:Q *451:14 6.2689 
2 *451:14 *451:18 2.085 
3 *451:18 *451:20 105.802 
4 *451:20 *451:32 37.86 
5 *451:32 *451:40 29.73 
6 *451:40 *9038:A 28.285 
7 *451:14 *8711:A1 7.7025 
*END

*D_NET *452 0.0285679
*CONN
*I *8713:A1 I *D sky130_fd_sc_hd__mux2_1
*I *9039:A I *D sky130_fd_sc_hd__clkbuf_4
*I *8820:Q O *D sky130_fd_sc_hd__dfrtp_4
*CAP
1 *8713:A1 0.000143433
2 *9039:A 8.32068e-05
3 *8820:Q 0
4 *452:20 0.00138208
5 *452:18 0.00308958
6 *452:12 0.00739565
7 *452:10 0.00625743
8 *452:4 0.000795918
9 *8713:A1 *8713:A0 4.99619e-05
10 *452:20 *479:20 0.00155198
11 *452:20 *603:8 0.00217585
12 paddr[27] *9039:A 0.000122337
13 pwdata[1] *452:20 1.92979e-05
14 *285:26 *8713:A1 8.36055e-05
15 *285:26 *452:10 9.20927e-05
16 *285:26 *452:12 3.43427e-05
17 *285:32 *452:12 4.82919e-05
18 *387:69 *452:12 9.09197e-05
19 *427:16 *452:20 0.000132283
20 *427:18 *452:20 0.00439503
21 *429:20 *452:20 0.000299143
22 *429:22 *452:20 0.000325469
*RES
1 *8820:Q *452:4 1.6 
2 *452:4 *452:10 7.725 
3 *452:10 *452:12 77.5575 
4 *452:12 *452:18 21.2675 
5 *452:18 *452:20 60.03 
6 *452:20 *9039:A 5.085 
7 *452:4 *8713:A1 4.12 
*END

*D_NET *453 0.0240489
*CONN
*I *8716:A1 I *D sky130_fd_sc_hd__mux2_1
*I *9040:A I *D sky130_fd_sc_hd__clkbuf_4
*I *8821:Q O *D sky130_fd_sc_hd__dfrtp_4
*CAP
1 *8716:A1 0.000453246
2 *9040:A 0
3 *8821:Q 1.30736e-05
4 *453:18 0.00480238
5 *453:16 0.00480238
6 *453:14 0.00270009
7 *453:12 0.00317083
8 *453:8 0.00093706
9 *8716:A1 *8726:A1 0.000239813
10 *8716:A1 *8821:RESET_B 4.0843e-05
11 *8716:A1 *454:31 0
12 *8716:A1 *597:12 0.000194937
13 *453:8 *489:41 1.83847e-05
14 *453:12 *454:31 0
15 *453:12 *511:44 0
16 *453:12 *597:12 0.000848602
17 *453:14 *553:16 0
18 *8682:A1 *8716:A1 5.53249e-06
19 *8726:S *8716:A1 0.000123122
20 *8727:A *8716:A1 0.000276192
21 *8804:D *453:14 4.70343e-05
22 *8821:D *8716:A1 9.14049e-05
23 *8825:D *8716:A1 0
24 *8847:CLK *453:8 4.82919e-05
25 *8847:D *453:12 0
26 *311:58 *8716:A1 5.21706e-05
27 *344:46 *8716:A1 2.34423e-05
28 *344:130 *453:12 1.67619e-05
29 *344:130 *453:14 0.00118387
30 *344:138 *453:14 0.0013145
31 *388:28 *453:12 0
32 *388:28 *453:14 0
33 *389:61 *453:14 0.00165464
34 *389:76 *453:12 0.000119901
35 *389:76 *453:14 0.00078154
36 *389:93 *453:12 8.88532e-05
*RES
1 *8821:Q *453:8 4.05 
2 *453:8 *453:12 11.2425 
3 *453:12 *453:14 66.6825 
4 *453:14 *453:16 2 
5 *453:16 *453:18 70.83 
6 *453:18 *9040:A 1.6 
7 *453:8 *8716:A1 17.62 
*END

*D_NET *454 0.0142738
*CONN
*I *9041:A I *D sky130_fd_sc_hd__buf_2
*I *8718:A1 I *D sky130_fd_sc_hd__mux2_1
*I *8822:Q O *D sky130_fd_sc_hd__dfrtp_1
*CAP
1 *9041:A 0
2 *8718:A1 0.000507362
3 *8822:Q 0
4 *454:33 0.00299338
5 *454:31 0.00451234
6 *454:4 0.00202632
7 *8718:A1 *483:10 0
8 *8718:A1 *597:12 0.00018305
9 *454:31 *8770:A0 0
10 *454:31 *8770:A1 0
11 *454:31 *8805:RESET_B 4.70343e-05
12 *454:31 *8810:RESET_B 0
13 *454:31 *471:29 0.000114492
14 *454:31 *486:21 0
15 *454:31 *492:16 0.000178473
16 *454:31 *511:44 4.31189e-05
17 *454:31 *511:110 9.88076e-05
18 *8682:A1 *454:31 0
19 *8683:A *454:31 0.000113623
20 *8716:A1 *454:31 0
21 *8730:S *8718:A1 4.99619e-05
22 *8847:D *454:31 0.000203067
23 *322:63 *454:31 0
24 *344:59 *8718:A1 0.000146408
25 *344:130 *454:31 8.17776e-05
26 *434:21 *454:31 0
27 *440:19 *454:31 6.20667e-05
28 *440:19 *454:33 0.00291249
29 *453:12 *454:31 0
*RES
1 *8822:Q *454:4 1.6 
2 *454:4 *8718:A1 14.33 
3 *454:4 *454:31 29.2825 
4 *454:31 *454:33 63.4125 
5 *454:33 *9041:A 1.6 
*END

*D_NET *455 0.0139594
*CONN
*I *8660:A1 I *D sky130_fd_sc_hd__mux2_1
*I *9042:A I *D sky130_fd_sc_hd__clkbuf_4
*I *8795:Q O *D sky130_fd_sc_hd__dfrtp_2
*CAP
1 *8660:A1 0.000175582
2 *9042:A 0
3 *8795:Q 0.000134893
4 *455:10 0.00620099
5 *455:8 0.00651147
6 *8660:A1 *8660:A0 4.99619e-05
7 *8660:A1 *602:14 5.42568e-05
8 *455:8 *8795:RESET_B 7.25921e-05
9 *455:10 *510:116 0
10 *455:10 *602:14 0.000348102
11 *8661:A *8660:A1 3.26889e-05
12 *8795:CLK *455:8 0.000338839
13 *8854:D *455:10 0
14 *9000:A *455:10 0
15 *404:16 *8660:A1 3.99879e-05
*RES
1 *8795:Q *455:8 7.5 
2 *455:8 *455:10 104.145 
3 *455:10 *9042:A 3.6 
4 *455:8 *8660:A1 7.08 
*END

*D_NET *456 0.000985663
*CONN
*I *8879:A I *D sky130_fd_sc_hd__dlygate4sd3_1
*I *9043:A I *D sky130_fd_sc_hd__buf_2
*I *8823:Q O *D sky130_fd_sc_hd__dfrtp_1
*CAP
1 *8879:A 0.000128122
2 *9043:A 0.000247485
3 *8823:Q 0
4 *456:4 0.000375607
5 *8879:A *8720:A0 0.000122325
6 *8879:A *545:14 0.000112123
7 *8879:A *568:14 0
*RES
1 *8823:Q *456:4 1.6 
2 *456:4 *9043:A 5.08 
3 *456:4 *8879:A 8.12 
*END

*D_NET *457 0.0115986
*CONN
*I *9044:A I *D sky130_fd_sc_hd__buf_2
*I *8722:A1 I *D sky130_fd_sc_hd__mux2_1
*I *8824:Q O *D sky130_fd_sc_hd__dfrtp_1
*CAP
1 *9044:A 0.00320311
2 *8722:A1 0.000542755
3 *8824:Q 0
4 *457:23 0.0047607
5 *457:4 0.00210034
6 *8722:A1 *8827:RESET_B 0.000308028
7 *8722:A1 *495:16 0
8 *457:23 *8684:A0 0.000275542
9 *8824:D *8722:A1 2.66935e-05
10 *435:26 *8722:A1 0.00016718
11 *435:26 *457:23 0.000214272
*RES
1 *8824:Q *457:4 1.6 
2 *457:4 *8722:A1 13.13 
3 *457:4 *457:23 23.4225 
4 *457:23 *9044:A 49.4875 
*END

*D_NET *458 0.0258491
*CONN
*I *9045:A I *D sky130_fd_sc_hd__clkbuf_4
*I *8662:A1 I *D sky130_fd_sc_hd__mux2_1
*I *8796:Q O *D sky130_fd_sc_hd__dfrtp_4
*CAP
1 *9045:A 0
2 *8662:A1 4.68289e-05
3 *8796:Q 6.00095e-05
4 *458:33 0.00599673
5 *458:31 0.00674922
6 *458:23 0.00548357
7 *458:21 0.00480315
8 *458:8 0.000178918
9 *458:23 *8668:A1 0.0001249
10 *458:33 *526:20 0.000162318
11 *8694:A *8662:A1 3.59997e-05
12 *8694:A *458:21 7.04021e-05
13 *8697:A0 *458:8 0.00015896
14 *8796:CLK *458:8 0.000113255
15 *311:99 *458:23 0.00174755
16 *397:8 *458:33 0
17 *401:10 *8662:A1 3.39064e-05
18 *401:10 *458:21 7.25122e-05
19 *404:14 *458:31 1.08758e-05
*RES
1 *8796:Q *458:8 5.43 
2 *458:8 *8662:A1 4.725 
3 *458:8 *458:21 4.145 
4 *458:21 *458:23 72.3825 
5 *458:23 *458:31 13.3475 
6 *458:31 *458:33 98.025 
7 *458:33 *9045:A 3.6 
*END

*D_NET *459 0.0186846
*CONN
*I *8705:A0 I *D sky130_fd_sc_hd__mux2_1
*I *8895:X O *D sky130_fd_sc_hd__buf_1
*CAP
1 *8705:A0 3.0307e-05
2 *8895:X 0
3 *459:6 0.00929278
4 *459:4 0.00926247
5 *333:54 *8705:A0 2.66935e-05
6 *402:12 *8705:A0 7.23533e-05
*RES
1 *8895:X *459:4 1.6 
2 *459:4 *459:6 100.845 
3 *459:6 *8705:A0 6.47 
*END

*D_NET *460 0.00156291
*CONN
*I *8886:A I *D sky130_fd_sc_hd__dlygate4sd3_1
*I *9046:A I *D sky130_fd_sc_hd__clkbuf_4
*I *8797:Q O *D sky130_fd_sc_hd__dfrtp_1
*CAP
1 *8886:A 2.03876e-05
2 *9046:A 0.000529949
3 *8797:Q 0
4 *460:4 0.000550337
5 *8886:A *8664:A1 4.82919e-05
6 *9046:A *8658:A1 0
7 *9046:A *8664:A1 1.70935e-05
8 *9046:A *8794:RESET_B 0.000335851
9 *9046:A *594:12 6.10014e-05
10 *8658:S *9046:A 0
11 *9031:A *9046:A 0
*RES
1 *8797:Q *460:4 1.6 
2 *460:4 *9046:A 14.915 
3 *460:4 *8886:A 2.05 
*END

*D_NET *461 0.00452244
*CONN
*I *9047:A I *D sky130_fd_sc_hd__clkbuf_4
*I *8877:A I *D sky130_fd_sc_hd__dlygate4sd3_1
*I *8798:Q O *D sky130_fd_sc_hd__dfrtp_1
*CAP
1 *9047:A 0.00037261
2 *8877:A 0.000394932
3 *8798:Q 0.000333096
4 *461:6 0.00110064
5 *8877:A *8666:A1 0.000234674
6 *8877:A *476:8 0.000400374
7 *8877:A *484:14 6.02202e-05
8 *9047:A *8688:A0 0.000300012
9 *9047:A *9061:A 0.000542788
10 *9047:A *476:8 0
11 *9047:A *554:28 8.67823e-05
12 *461:6 *484:14 5.91029e-05
13 *461:6 *484:26 0.000136276
14 *461:6 *554:28 2.36616e-05
15 *8766:S *8877:A 0
16 *8767:A *8877:A 0.000271308
17 *8845:D *8877:A 2.49909e-05
18 *8954:A *9047:A 8.7152e-06
19 *406:12 *8877:A 2.75538e-05
20 *406:14 *9047:A 1.19928e-05
21 *448:22 *9047:A 0.000132713
*RES
1 *8798:Q *461:6 5.845 
2 *461:6 *8877:A 14.885 
3 *461:6 *9047:A 14.69 
*END

*D_NET *462 0.0253142
*CONN
*I *8668:A1 I *D sky130_fd_sc_hd__mux2_1
*I *9048:A I *D sky130_fd_sc_hd__clkbuf_4
*I *8799:Q O *D sky130_fd_sc_hd__dfrtp_2
*CAP
1 *8668:A1 0.000176422
2 *9048:A 0.000880456
3 *8799:Q 0.000201671
4 *462:22 0.00130376
5 *462:10 0.00634149
6 *462:8 0.00629627
7 *9048:A *598:24 0.000505372
8 *462:10 *8846:RESET_B 0
9 *462:10 *485:14 0
10 *462:10 *532:10 0
11 *462:10 *598:38 0.000840065
12 *462:22 *9077:A 0
13 *462:22 *531:14 0.00244261
14 *462:22 *598:24 8.53113e-06
15 m_rdata[21] *9048:A 0.000122337
16 *8585:A *462:10 0.000119521
17 *8860:A *462:10 0.000587489
18 *8938:A *462:22 0
19 *9000:A *9048:A 0.000124895
20 *311:86 *8668:A1 0
21 *311:86 *462:8 5.0751e-05
22 *311:86 *462:10 0
23 *311:99 *8668:A1 0.0001249
24 *321:48 *462:10 0
25 *384:14 *462:10 0.000772872
26 *387:39 *462:8 3.55438e-05
27 *395:8 *8668:A1 0.000281174
28 *395:8 *462:10 0.000183242
29 *451:32 *462:22 0.00250935
30 *451:40 *9048:A 0.00128058
31 *458:23 *8668:A1 0.0001249
*RES
1 *8799:Q *462:8 6.12 
2 *462:8 *462:10 106.44 
3 *462:10 *462:22 29.67 
4 *462:22 *9048:A 22.06 
5 *462:8 *8668:A1 8.16 
*END

*D_NET *463 0.0231451
*CONN
*I *8670:A1 I *D sky130_fd_sc_hd__mux2_1
*I *9049:A I *D sky130_fd_sc_hd__clkbuf_4
*I *8800:Q O *D sky130_fd_sc_hd__dfrtp_2
*CAP
1 *8670:A1 0
2 *9049:A 0.00067804
3 *8800:Q 0.000252257
4 *463:16 0.00241669
5 *463:14 0.00202531
6 *463:10 0.000538909
7 *463:10 *8798:RESET_B 0.000112529
8 *463:10 *576:22 0
9 *463:14 *576:22 0
10 *463:16 *9078:A 0.0001711
11 *463:16 *477:34 0.00146987
12 *463:16 *485:26 0.0073591
13 *463:16 *593:14 0.00709354
14 *463:16 *598:38 0.000683154
15 m_rdata[16] *463:14 0
16 paddr[26] *9049:A 0.000111937
17 paddr[7] *9049:A 3.00381e-05
18 *8845:CLK *463:10 3.21052e-05
19 *8958:A *463:14 0
20 *402:12 *463:10 6.99988e-05
21 *402:12 *463:14 0.000100536
*RES
1 *8800:Q *463:10 7.41 
2 *463:10 *463:14 6.95 
3 *463:14 *463:16 90.495 
4 *463:16 *9049:A 16.565 
5 *463:10 *8670:A1 3.6 
*END

*D_NET *464 0.0137699
*CONN
*I *8674:A1 I *D sky130_fd_sc_hd__mux2_1
*I *9050:A I *D sky130_fd_sc_hd__clkbuf_4
*I *8801:Q O *D sky130_fd_sc_hd__dfrtp_1
*CAP
1 *8674:A1 0.000610885
2 *9050:A 0.000715799
3 *8801:Q 0
4 *464:8 0.00328021
5 *464:6 0.00317529
6 *8674:A1 *512:30 0.000165642
7 *9050:A *9063:A 0.000318091
8 *9050:A *9086:A 0.000201508
9 *9050:A *610:14 0.000123816
10 *464:8 *8741:A0 0.000682774
11 *464:8 *512:30 0.000378811
12 *464:8 *512:32 0.000874856
13 *464:8 *512:45 0.00248907
14 *8675:A *8674:A1 0.000134938
15 *9005:A *9050:A 0.000610919
16 *403:10 *464:8 0
17 *414:8 *464:8 7.27402e-06
18 *439:8 *8674:A1 0
19 *439:8 *464:8 0
*RES
1 *8801:Q *464:6 3.6 
2 *464:6 *464:8 61.05 
3 *464:8 *9050:A 17.505 
4 *464:6 *8674:A1 12.3 
*END

*D_NET *465 0.0216436
*CONN
*I *9051:A I *D sky130_fd_sc_hd__clkbuf_4
*I *8676:A1 I *D sky130_fd_sc_hd__mux2_1
*I *8802:Q O *D sky130_fd_sc_hd__dfrtp_2
*CAP
1 *9051:A 0.000191643
2 *8676:A1 0.00055903
3 *8802:Q 0
4 *465:25 0.0047283
5 *465:23 0.00607087
6 *465:4 0.00209324
7 *465:23 *8802:RESET_B 0.0020333
8 *465:25 *490:10 0
9 m_rdata[28] *9051:A 3.45588e-05
10 m_rdata[2] *465:25 3.47296e-05
11 paddr[14] *465:25 2.89976e-05
12 paddr[17] *465:25 4.05569e-05
13 paddr[28] *465:25 2.04591e-05
14 paddr[29] *465:25 2.09527e-05
15 paddr[31] *465:25 3.91226e-05
16 *8677:A *8676:A1 9.36617e-05
17 *8686:A1 *465:25 0.000278418
18 *8802:D *8676:A1 0.000120655
19 *8910:A *465:25 4.36438e-05
20 *8924:A *465:25 9.58678e-06
21 *8939:A *465:25 0.000206817
22 *8943:A *465:25 6.06899e-05
23 *8957:A *465:25 6.24871e-05
24 *8963:A *465:25 8.81365e-05
25 *8973:A *465:25 3.38178e-05
26 *8975:A *465:25 1.97486e-05
27 *8981:A *465:25 1.93834e-05
28 *8986:A *465:25 6.24871e-05
29 *9028:A *465:25 0
30 *412:14 *465:23 0.000460926
31 *423:16 *8676:A1 9.27255e-06
32 *423:20 *8676:A1 0.00013439
33 *436:14 *465:25 0.00404373
34 *440:25 *465:25 0
*RES
1 *8802:Q *465:4 1.6 
2 *465:4 *8676:A1 15.425 
3 *465:4 *465:23 23.15 
4 *465:23 *465:25 93.435 
5 *465:25 *9051:A 6.465 
*END

*D_NET *466 0.000633301
*CONN
*I *9052:A I *D sky130_fd_sc_hd__buf_1
*I *8857:X O *D sky130_fd_sc_hd__buf_2
*CAP
1 *9052:A 0.000249045
2 *8857:X 0.000249045
3 *9052:A *9058:A 0
4 *9052:A *548:20 0.00013521
*RES
1 *8857:X *9052:A 11.325 
*END

*D_NET *467 0.00824119
*CONN
*I *9053:A I *D sky130_fd_sc_hd__buf_2
*I *8579:Y O *D sky130_fd_sc_hd__inv_2
*CAP
1 *9053:A 0.000136933
2 *8579:Y 0.0023541
3 *467:8 0.00249103
4 *9053:A *490:10 0.000316806
5 *467:8 *489:63 0.000890089
6 *467:8 *612:20 0.00119352
7 *8613:B *467:8 0.000298666
8 *8792:D *467:8 0.000507936
9 *8889:A *9053:A 0
10 *394:8 *9053:A 5.20968e-05
11 *412:26 *9053:A 0
12 *423:22 *9053:A 0
*RES
1 *8579:Y *467:8 48.21 
2 *467:8 *9053:A 7.275 
*END

*D_NET *468 0.000194003
*CONN
*I *9054:A I *D sky130_fd_sc_hd__clkbuf_4
*I *8858:X O *D sky130_fd_sc_hd__clkbuf_1
*CAP
1 *9054:A 9.70014e-05
2 *8858:X 9.70014e-05
3 *9027:A *9054:A 0
*RES
1 *8858:X *9054:A 8.685 
*END

*D_NET *469 0.0127927
*CONN
*I *9055:A I *D sky130_fd_sc_hd__buf_2
*I *8581:Y O *D sky130_fd_sc_hd__nand2_1
*CAP
1 *9055:A 0.00278985
2 *8581:Y 7.77117e-06
3 *469:10 0.00590304
4 *469:8 0.00312096
5 *469:10 *8682:A0 8.53113e-06
6 *469:10 *8782:A1 0.000186092
7 *8581:B *469:8 4.82863e-05
8 *273:8 *469:10 1.22762e-05
9 *408:16 *469:10 0
10 *408:18 *469:10 0
11 *420:8 *9055:A 0.000665956
12 *437:26 *469:8 4.99619e-05
*RES
1 *8581:Y *469:8 4.05 
2 *469:8 *469:10 51.36 
3 *469:10 *9055:A 48.555 
*END

*D_NET *470 0.00816219
*CONN
*I *8707:A0 I *D sky130_fd_sc_hd__mux2_1
*I *8896:X O *D sky130_fd_sc_hd__buf_1
*CAP
1 *8707:A0 0.000200288
2 *8896:X 0.00354118
3 *470:12 0.00374147
4 *8707:A0 *509:50 0.000426195
5 *8708:A *8707:A0 8.5841e-05
6 *8817:CLK *470:12 0
7 *9036:A *8707:A0 0.000136838
8 *386:8 *8707:A0 3.03775e-05
9 *386:19 *470:12 0
*RES
1 *8896:X *470:12 44.915 
2 *470:12 *8707:A0 7.57 
*END

*D_NET *471 0.037957
*CONN
*I *9056:A I *D sky130_fd_sc_hd__clkbuf_4
*I *8724:A1 I *D sky130_fd_sc_hd__mux2_1
*I *8825:Q O *D sky130_fd_sc_hd__dfrtp_4
*CAP
1 *9056:A 0
2 *8724:A1 0.000442186
3 *8825:Q 0
4 *471:35 0.0022433
5 *471:33 0.0022433
6 *471:31 0.00348585
7 *471:29 0.00367233
8 *471:4 0.000628673
9 *8724:A1 *8730:A0 2.75229e-05
10 *8724:A1 *483:10 0
11 *8724:A1 *511:44 0.000616827
12 *8724:A1 *513:12 1.83847e-05
13 *8724:A1 *597:12 0.000384076
14 *471:29 *8730:A0 0.000200156
15 *471:29 *486:21 0
16 *471:29 *513:12 0.000179881
17 *471:31 *492:16 0.00757541
18 *471:35 *8678:A0 0.00161368
19 *471:35 *493:25 0.00011852
20 *471:35 *514:24 0.00020613
21 *471:35 *514:78 0.00178273
22 *471:35 *530:18 0
23 *471:35 *545:10 0
24 *471:35 *568:10 0.00368128
25 *471:35 *568:14 0.000744207
26 *471:35 *568:22 0.00174005
27 *8691:A *8724:A1 1.37328e-05
28 *8724:S *8724:A1 0.000124895
29 *8805:CLK *8724:A1 0.000308646
30 *8884:A *471:35 0.000252282
31 *8904:A *471:35 0
32 *8942:A *471:35 0
33 *8982:A *471:35 4.13879e-05
34 *9008:A *471:35 0.00391423
35 *9021:A *471:35 0.000645741
36 *388:39 *8724:A1 0.000159269
37 *388:54 *8724:A1 5.33085e-05
38 *418:28 *471:35 0.000434259
39 *423:12 *8724:A1 0.000290312
40 *434:21 *471:29 0
41 *454:31 *471:29 0.000114492
*RES
1 *8825:Q *471:4 1.6 
2 *471:4 *8724:A1 20.3 
3 *471:4 *471:29 8.845 
4 *471:29 *471:31 68.76 
5 *471:31 *471:33 2 
6 *471:33 *471:35 98.535 
7 *471:35 *9056:A 3.6 
*END

*D_NET *472 0.0323682
*CONN
*I *8745:A1 I *D sky130_fd_sc_hd__mux2_1
*I *9057:A I *D sky130_fd_sc_hd__clkbuf_4
*I *8835:Q O *D sky130_fd_sc_hd__dfrtp_4
*CAP
1 *8745:A1 0.000445635
2 *9057:A 0
3 *8835:Q 4.87742e-05
4 *472:30 0.00340039
5 *472:28 0.00362997
6 *472:14 0.00555285
7 *472:12 0.0061182
8 *472:8 0.00128934
9 *8745:A1 *8711:A0 6.12982e-05
10 *8745:A1 *513:46 4.3979e-05
11 *472:8 *8835:RESET_B 0.00019558
12 *472:12 *489:41 0
13 *472:12 *498:12 0.00038008
14 *472:14 *8728:A1 0
15 *472:14 *495:16 0
16 *472:30 *558:12 0.00661184
17 *472:30 *565:12 0.00161787
18 *8722:S *472:28 1.12851e-05
19 *8722:S *472:30 0.000177849
20 *8723:A *472:28 8.57024e-05
21 *8725:A *472:12 0
22 *8729:A *472:14 0
23 *8729:A *472:28 0.00012657
24 *8731:A *8745:A1 0.000160658
25 *8731:A *472:12 0.000350222
26 *8824:D *472:28 0.000390039
27 *8825:CLK *8745:A1 4.44927e-05
28 *8825:CLK *472:8 0.000110875
29 *8825:CLK *472:12 9.30787e-05
30 *8826:D *8745:A1 8.65905e-05
31 *8827:D *472:14 4.94404e-05
32 *8827:D *472:28 1.83847e-05
33 *8865:A *472:14 0
34 *8939:A *472:30 0.000279787
35 *321:34 *472:12 0
36 *383:124 *472:14 0.000287479
37 *388:70 *472:12 0
38 *388:74 *472:12 0.000224599
39 *439:24 *472:14 3.04982e-05
40 *439:24 *472:28 0.000138175
41 *439:24 *472:30 0.000306675
*RES
1 *8835:Q *472:8 5.43 
2 *472:8 *472:12 17.1075 
3 *472:12 *472:14 87.3375 
4 *472:14 *472:28 9.005 
5 *472:28 *472:30 76.005 
6 *472:30 *9057:A 1.6 
7 *472:8 *8745:A1 10.35 
*END

*D_NET *473 0.00774995
*CONN
*I *9058:A I *D sky130_fd_sc_hd__clkbuf_4
*I *8747:A1 I *D sky130_fd_sc_hd__mux2_1
*I *8836:Q O *D sky130_fd_sc_hd__dfrtp_1
*CAP
1 *9058:A 0.000963834
2 *8747:A1 0.000324612
3 *8836:Q 0
4 *473:4 0.00128845
5 *8747:A1 *8747:A0 4.99619e-05
6 *8747:A1 *489:65 6.95418e-05
7 *8747:A1 *571:28 0.000507936
8 *9058:A *514:99 0.000874092
9 *9058:A *548:20 0.000353049
10 pclk *9058:A 0.00012657
11 pwdata[11] *9058:A 0.000279787
12 *8857:A *9058:A 0.00210222
13 *8992:A *9058:A 0.000809902
14 *9052:A *9058:A 0
*RES
1 *8836:Q *473:4 1.6 
2 *473:4 *8747:A1 12.335 
3 *473:4 *9058:A 39.305 
*END

*D_NET *474 0.00455797
*CONN
*I *9059:A I *D sky130_fd_sc_hd__clkbuf_4
*I *8749:A1 I *D sky130_fd_sc_hd__mux2_1
*I *8837:Q O *D sky130_fd_sc_hd__dfrtp_1
*CAP
1 *9059:A 0.00129926
2 *8749:A1 2.93028e-05
3 *8837:Q 0.00030986
4 *474:16 0.00163842
5 *9059:A *479:20 0
6 *9059:A *506:12 6.02123e-05
7 pwdata[12] *9059:A 1.56428e-05
8 *8608:A *474:16 3.67779e-05
9 *8750:A *474:16 0.000237249
10 *355:32 *8749:A1 1.94805e-05
11 *355:32 *9059:A 0.000134871
12 *355:32 *474:16 2.46089e-05
13 *355:41 *9059:A 0.000591639
14 *427:16 *8749:A1 0
15 *427:16 *9059:A 0
16 *429:20 *9059:A 0
17 *429:20 *474:16 0.000160641
*RES
1 *8837:Q *474:16 12.13 
2 *474:16 *8749:A1 4.215 
3 *474:16 *9059:A 29.19 
*END

*D_NET *475 0.0155581
*CONN
*I *8751:A1 I *D sky130_fd_sc_hd__mux2_1
*I *9060:A I *D sky130_fd_sc_hd__clkbuf_4
*I *8838:Q O *D sky130_fd_sc_hd__dfrtp_2
*CAP
1 *8751:A1 0.000177841
2 *9060:A 0
3 *8838:Q 0
4 *475:12 0.00716477
5 *475:10 0.00723999
6 *475:4 0.000253053
7 *8751:A1 *8751:A0 3.00381e-05
8 *475:10 *507:25 0.000296094
9 pwdata[13] *475:12 1.56428e-05
10 *8838:CLK *8751:A1 8.45551e-05
11 *296:120 *475:10 0.000296094
*RES
1 *8838:Q *475:4 1.6 
2 *475:4 *475:10 7.42 
3 *475:10 *475:12 105.33 
4 *475:12 *9060:A 1.6 
5 *475:4 *8751:A1 4.735 
*END

*D_NET *476 0.0196647
*CONN
*I *8753:A1 I *D sky130_fd_sc_hd__mux2_1
*I *9061:A I *D sky130_fd_sc_hd__clkbuf_4
*I *8839:Q O *D sky130_fd_sc_hd__dfrtp_2
*CAP
1 *8753:A1 0.000803642
2 *9061:A 0.000724449
3 *8839:Q 0
4 *476:8 0.0070184
5 *476:6 0.00709759
6 *8753:A1 *8713:A0 0.000653462
7 *9061:A *8688:A0 0.000188943
8 *9061:A *9081:A 0.000350615
9 *476:8 *8760:A0 0
10 *476:8 *560:8 0
11 paddr[5] *9061:A 0.0001249
12 pwdata[14] *9061:A 4.8684e-05
13 *8698:A *476:8 0.000301265
14 *8703:S *8753:A1 0.000206319
15 *8704:A *8753:A1 4.18603e-06
16 *8704:A *476:8 9.53671e-05
17 *8754:A *8753:A1 0
18 *8754:A *476:8 0
19 *8766:S *476:8 0
20 *8777:A *476:8 0.00027064
21 *8839:D *476:8 0.000416377
22 *8877:A *476:8 0.000400374
23 *9047:A *9061:A 0.000542788
24 *9047:A *476:8 0
25 *355:73 *8753:A1 2.11084e-05
26 *355:126 *8753:A1 1.61831e-05
27 *355:139 *8753:A1 1.12578e-05
28 *366:32 *476:8 1.07797e-05
29 *366:90 *476:8 0.000113851
30 *366:99 *8753:A1 5.43129e-05
31 *406:14 *9061:A 7.53903e-05
32 *435:26 *476:8 0.000113797
33 *442:47 *476:8 0
34 *448:22 *476:8 0
*RES
1 *8839:Q *476:6 3.6 
2 *476:6 *476:8 107.715 
3 *476:8 *9061:A 18.21 
4 *476:6 *8753:A1 16.83 
*END

*D_NET *477 0.0400566
*CONN
*I *8755:A1 I *D sky130_fd_sc_hd__mux2_1
*I *9062:A I *D sky130_fd_sc_hd__clkbuf_4
*I *8840:Q O *D sky130_fd_sc_hd__dfrtp_4
*CAP
1 *8755:A1 8.72058e-05
2 *9062:A 0.00173829
3 *8840:Q 0.000103655
4 *477:36 0.00352647
5 *477:34 0.00304063
6 *477:20 0.00378021
7 *477:18 0.00347946
8 *477:6 0.00114256
9 *8755:A1 *508:65 0
10 *8755:A1 *508:118 0
11 *9062:A *593:12 1.592e-05
12 *9062:A *593:14 0.000262563
13 *477:18 *8811:RESET_B 0
14 *477:18 *8840:RESET_B 5.4003e-05
15 *477:18 *508:29 0
16 *477:18 *508:65 9.24049e-05
17 *477:20 *606:14 0.00676807
18 *477:34 *8624:A 3.83902e-05
19 *477:34 *9078:A 0.00145785
20 *477:34 *531:14 0.000641533
21 *477:34 *593:14 8.65905e-05
22 *477:34 *606:12 9.28338e-05
23 *477:34 *606:14 0.000646618
24 *477:36 *9077:A 0.0024827
25 *477:36 *531:14 0.0020647
26 *477:36 *593:14 0.00209617
27 paddr[16] *9062:A 4.13879e-05
28 paddr[7] *9062:A 3.14155e-05
29 *8593:A *477:18 0.000141879
30 *8620:A *477:20 0.000139933
31 *8653:A *477:18 6.87475e-05
32 *8697:S *477:18 7.17811e-05
33 *8775:A *477:34 0.000197124
34 *8798:CLK *477:34 7.16263e-05
35 *8811:CLK *477:18 0.000100544
36 *8811:D *8755:A1 3.09233e-05
37 *8811:D *477:6 0.000198939
38 *8819:D *477:18 6.2148e-05
39 *8849:CLK *477:34 0.000358066
40 *8958:A *477:34 8.07785e-05
41 *285:50 *477:20 0
42 *333:29 *477:18 6.98149e-05
43 *333:31 *477:18 0.000111814
44 *355:60 *8755:A1 7.26629e-05
45 *385:10 *477:20 0.000163012
46 *385:42 *477:18 0
47 *385:42 *477:20 0.00196318
48 *385:101 *477:18 3.37099e-05
49 *445:16 *477:18 6.02536e-05
50 *445:20 *477:18 0.000818159
51 *445:20 *477:20 0
52 *451:20 *477:20 0
53 *451:20 *477:34 0
54 *463:16 *477:34 0.00146987
*RES
1 *8840:Q *477:6 3.775 
2 *477:6 *477:18 22.8575 
3 *477:18 *477:20 77.505 
4 *477:20 *477:34 45.8075 
5 *477:34 *477:36 54.4425 
6 *477:36 *9062:A 26.5025 
7 *477:6 *8755:A1 7.49 
*END

*D_NET *478 0.0140071
*CONN
*I *8758:A1 I *D sky130_fd_sc_hd__mux2_1
*I *9063:A I *D sky130_fd_sc_hd__clkbuf_4
*I *8841:Q O *D sky130_fd_sc_hd__dfrtp_1
*CAP
1 *8758:A1 0.000436748
2 *9063:A 3.89538e-05
3 *8841:Q 0
4 *478:8 0.00571094
5 *478:6 0.00610874
6 *8758:A1 *8644:A 0
7 *8758:A1 *489:63 1.88904e-05
8 *8758:A1 *512:26 2.4997e-05
9 *8758:A1 *568:24 9.91257e-05
10 *478:8 *8644:A 0
11 *478:8 *512:26 4.94404e-05
12 *478:8 *600:10 0
13 *8648:B *478:8 0
14 *8673:A *478:8 0.000629846
15 *8758:S *8758:A1 4.99619e-05
16 *8841:CLK *8758:A1 0
17 *9005:A *9063:A 0.000316415
18 *9050:A *9063:A 0.000318091
19 *275:30 *8758:A1 0
20 *275:30 *478:8 0
21 *275:34 *478:8 0
22 *275:78 *8758:A1 5.74944e-05
23 *311:36 *8758:A1 8.09131e-05
24 *437:26 *8758:A1 6.6564e-05
*RES
1 *8841:Q *478:6 3.6 
2 *478:6 *478:8 97.515 
3 *478:8 *9063:A 6.465 
4 *478:6 *8758:A1 12.18 
*END

*D_NET *479 0.0269172
*CONN
*I *8760:A1 I *D sky130_fd_sc_hd__mux2_1
*I *9064:A I *D sky130_fd_sc_hd__clkbuf_4
*I *8842:Q O *D sky130_fd_sc_hd__dfrtp_4
*CAP
1 *8760:A1 7.95813e-06
2 *9064:A 0.000177903
3 *8842:Q 0.000128623
4 *479:20 0.00232146
5 *479:18 0.0101549
6 *479:12 0.00814797
7 *8760:A1 *8760:A0 9.67081e-06
8 *479:12 *8760:A0 0.000162138
9 *479:18 *8795:RESET_B 0.000335845
10 *479:20 *8737:A0 3.47837e-05
11 *479:20 *8780:A1 0
12 *479:20 *9075:A 0
13 *479:20 *603:8 0.000160658
14 pwdata[17] *9064:A 4.66108e-05
15 *8761:A *479:12 0.000254151
16 *8781:A *479:20 0
17 *8795:CLK *479:18 0.000115733
18 *8842:D *479:12 0.000159741
19 *8852:D *479:20 3.86607e-05
20 *9059:A *479:20 0
21 *355:41 *479:20 0
22 *366:90 *8760:A1 3.16707e-06
23 *366:90 *479:12 8.67666e-06
24 *366:99 *8760:A1 4.55864e-06
25 *383:14 *479:18 0.00051199
26 *383:112 *479:18 0.000444449
27 *387:27 *479:18 0.000313417
28 *388:113 *479:12 2.30292e-05
29 *429:20 *479:20 0.00150678
30 *451:14 *479:18 0.000292297
31 *452:20 *479:20 0.00155198
*RES
1 *8842:Q *479:12 7.4625 
2 *479:12 *479:18 19.6251 
3 *479:18 *479:20 50.9775 
4 *479:20 *9064:A 5.775 
5 *479:12 *8760:A1 3.8325 
*END

*D_NET *480 0.0219866
*CONN
*I *8762:A1 I *D sky130_fd_sc_hd__mux2_1
*I *9065:A I *D sky130_fd_sc_hd__clkbuf_4
*I *8843:Q O *D sky130_fd_sc_hd__dfrtp_2
*CAP
1 *8762:A1 2.08101e-05
2 *9065:A 0.000476059
3 *8843:Q 7.33981e-05
4 *480:24 0.00809155
5 *480:22 0.00802982
6 *480:12 0.000508534
7 *480:12 *8739:A0 0.000130791
8 *480:12 *8843:RESET_B 0.000158066
9 *480:22 *8739:A0 0.000184234
10 *480:22 *8739:A1 0.00018148
11 *480:22 *8832:RESET_B 0
12 *480:22 *8843:RESET_B 1.16578e-05
13 *480:24 *8797:RESET_B 8.07616e-05
14 *480:24 *509:102 0.00340712
15 *8597:A *480:22 5.58436e-05
16 *8739:S *480:22 0.0001249
17 *8740:A *480:22 0
18 *8763:A *480:22 8.8266e-05
19 *8797:D *480:24 0.000109845
20 *8832:D *480:22 1.16578e-05
21 *296:139 *480:22 8.58196e-05
22 *366:107 *480:12 8.23457e-05
23 *430:135 *480:22 2.42236e-05
24 *446:23 *480:12 4.94404e-05
*RES
1 *8843:Q *480:12 8.21 
2 *480:12 *480:22 12.31 
3 *480:22 *480:24 90.84 
4 *480:24 *9065:A 13.355 
5 *480:12 *8762:A1 1.96 
*END

*D_NET *481 0.0173409
*CONN
*I *8709:A0 I *D sky130_fd_sc_hd__mux2_1
*I *8897:X O *D sky130_fd_sc_hd__dlymetal6s2s_1
*CAP
1 *8709:A0 0
2 *8897:X 0.00014857
3 *481:12 0.00613694
4 *481:10 0.00628551
5 *481:10 *8642:A 0.000384591
6 *481:12 *607:12 0.00409709
7 *8709:S *481:12 4.41506e-05
8 *8897:A *481:10 0.000150837
9 *450:14 *481:12 4.66108e-05
10 *450:18 *481:12 4.66108e-05
*RES
1 *8897:X *481:10 10.04 
2 *481:10 *481:12 105.33 
3 *481:12 *8709:A0 1.6 
*END

*D_NET *482 0.00140234
*CONN
*I *9066:A I *D sky130_fd_sc_hd__clkbuf_4
*I *8880:A I *D sky130_fd_sc_hd__dlygate4sd3_1
*I *8844:Q O *D sky130_fd_sc_hd__dfrtp_1
*CAP
1 *9066:A 0.000182594
2 *8880:A 3.06295e-05
3 *8844:Q 0.000184469
4 *482:10 0.000397693
5 *8880:A *8764:A1 1.56428e-05
6 *9066:A *8764:A1 6.32842e-05
7 *9066:A *548:32 4.83411e-05
8 *482:10 *8764:A1 9.14049e-05
9 *482:10 *487:26 0
10 *482:10 *548:32 0
11 *8832:D *482:10 6.35535e-05
12 *9019:A *8880:A 8.65905e-05
13 *9019:A *9066:A 0.000238137
*RES
1 *8844:Q *482:10 9.275 
2 *482:10 *8880:A 2.395 
3 *482:10 *9066:A 9.92 
*END

*D_NET *483 0.0222389
*CONN
*I *8726:A1 I *D sky130_fd_sc_hd__mux2_1
*I *9067:A I *D sky130_fd_sc_hd__clkbuf_4
*I *8826:Q O *D sky130_fd_sc_hd__dfrtp_4
*CAP
1 *8726:A1 3.00379e-05
2 *9067:A 0
3 *8826:Q 0
4 *483:12 0.00905019
5 *483:10 0.0101221
6 *483:4 0.00110196
7 *483:10 *8716:A0 0
8 *483:10 *8822:RESET_B 0.00015428
9 *483:10 *597:12 0
10 *8716:A1 *8726:A1 0.000239813
11 *8718:A1 *483:10 0
12 *8724:A1 *483:10 0
13 *8726:S *8726:A1 0.000241483
14 *8805:CLK *483:10 0
15 *333:95 *483:12 0.000819293
16 *333:112 *483:12 0.000163175
17 *344:29 *483:10 2.97004e-06
18 *344:46 *483:10 5.5554e-05
19 *344:59 *483:10 0.000102637
20 *387:69 *483:12 8.8196e-05
21 *429:20 *483:12 6.71882e-05
*RES
1 *8826:Q *483:4 1.6 
2 *483:4 *483:10 22.465 
3 *483:10 *483:12 137.76 
4 *483:12 *9067:A 1.6 
5 *483:4 *8726:A1 3.775 
*END

*D_NET *484 0.0175254
*CONN
*I *8766:A1 I *D sky130_fd_sc_hd__mux2_1
*I *9068:A I *D sky130_fd_sc_hd__clkbuf_4
*I *8845:Q O *D sky130_fd_sc_hd__dfrtp_1
*CAP
1 *8766:A1 0
2 *9068:A 6.83925e-05
3 *8845:Q 0.000108612
4 *484:28 0.00420102
5 *484:26 0.00486742
6 *484:14 0.000843397
7 *484:14 *554:28 0.000165925
8 *484:26 *8666:A0 0.00108155
9 *484:26 *9072:A 7.30055e-05
10 *484:26 *537:20 0.000155444
11 *484:26 *554:28 1.91597e-05
12 *484:26 *584:8 0.00042018
13 *484:28 *8624:A 7.53462e-05
14 *484:28 *8666:A0 0.00120638
15 *484:28 *8768:A0 4.82919e-05
16 *484:28 *532:8 0.000393029
17 *484:28 *588:8 0.00314324
18 pwdata[24] *484:26 2.65814e-06
19 *8877:A *484:14 6.02202e-05
20 *8938:A *484:28 5.0751e-05
21 *406:12 *484:14 0.000112123
22 *435:28 *484:26 0.000233834
23 *461:6 *484:14 5.91029e-05
24 *461:6 *484:26 0.000136276
*RES
1 *8845:Q *484:14 8.825 
2 *484:14 *484:26 22.42 
3 *484:26 *484:28 57.375 
4 *484:28 *9068:A 6.47 
5 *484:14 *8766:A1 1.6 
*END

*D_NET *485 0.0167955
*CONN
*I *8768:A1 I *D sky130_fd_sc_hd__mux2_1
*I *9069:A I *D sky130_fd_sc_hd__clkbuf_4
*I *8846:Q O *D sky130_fd_sc_hd__dfrtp_1
*CAP
1 *8768:A1 0
2 *9069:A 0.000139327
3 *8846:Q 0.000189328
4 *485:26 0.00250616
5 *485:24 0.00321762
6 *485:14 0.00104011
7 *485:14 *8768:A0 1.89685e-05
8 *485:14 *8846:RESET_B 5.83121e-06
9 *485:24 *593:18 0
10 *485:26 *593:14 0.000295519
11 *485:26 *598:38 0.00138125
12 pwdata[21] *9069:A 0.00020779
13 pwdata[2] *485:24 0.000126824
14 *8769:A *485:24 3.45679e-05
15 *8846:D *485:24 0.000164874
16 *384:40 *485:14 3.09179e-05
17 *435:28 *485:14 1.83756e-05
18 *435:28 *485:24 5.89214e-05
19 *450:20 *485:14 0
20 *462:10 *485:14 0
21 *463:16 *485:26 0.0073591
*RES
1 *8846:Q *485:14 8.48 
2 *485:14 *485:24 15.97 
3 *485:24 *485:26 71.175 
4 *485:26 *9069:A 8.615 
5 *485:14 *8768:A1 1.6 
*END

*D_NET *486 0.0140747
*CONN
*I *9070:A I *D sky130_fd_sc_hd__clkbuf_4
*I *8770:A1 I *D sky130_fd_sc_hd__mux2_1
*I *8847:Q O *D sky130_fd_sc_hd__dfrtp_1
*CAP
1 *9070:A 0.000576331
2 *8770:A1 0.00010505
3 *8847:Q 9.98841e-05
4 *486:21 0.0064718
5 *486:8 0.0061004
6 *486:8 *8847:RESET_B 6.8731e-05
7 *486:8 *489:41 0.00010884
8 *486:21 *8805:RESET_B 6.55328e-05
9 *486:21 *591:14 0
10 *8682:S *8770:A1 1.73877e-05
11 *8682:S *486:21 7.24801e-05
12 *8691:A *8770:A1 4.99619e-05
13 *8770:S *8770:A1 6.10014e-05
14 *366:18 *486:8 0.000180997
15 *366:24 *486:8 4.80285e-05
16 *423:12 *8770:A1 4.82919e-05
17 *434:21 *486:21 0
18 *454:31 *8770:A1 0
19 *454:31 *486:21 0
20 *471:29 *486:21 0
*RES
1 *8847:Q *486:8 7.155 
2 *486:8 *8770:A1 5.94 
3 *486:8 *486:21 98.0925 
4 *486:21 *9070:A 12.5025 
*END

*D_NET *487 0.0182246
*CONN
*I *8772:A1 I *D sky130_fd_sc_hd__mux2_1
*I *9071:A I *D sky130_fd_sc_hd__clkbuf_4
*I *8848:Q O *D sky130_fd_sc_hd__dfrtp_2
*CAP
1 *8772:A1 0
2 *9071:A 0
3 *8848:Q 0.000239337
4 *487:26 0.00563417
5 *487:24 0.0063937
6 *487:12 0.000998871
7 *487:12 *8848:RESET_B 4.11729e-05
8 *487:12 *511:62 8.40269e-05
9 *487:12 *557:20 7.4027e-05
10 *487:12 *585:40 4.89169e-05
11 *487:24 *8652:A1 8.40213e-05
12 *487:26 *8621:A 0
13 *487:26 *8764:A1 0
14 *487:26 *8838:RESET_B 0
15 *487:26 *587:18 0
16 pwdata[23] *487:26 2.7881e-05
17 *8595:A *487:24 0.000124116
18 *8617:B *487:24 5.8825e-05
19 *8653:A *487:26 0
20 *8697:A1 *487:24 0.000163651
21 *8711:A1 *487:26 0.000188038
22 *8773:A *487:24 0.00030615
23 *8838:D *487:26 0
24 *8850:CLK *487:24 0.000197264
25 *8859:A *487:26 0
26 *285:46 *487:26 7.47215e-05
27 *333:16 *487:26 8.05681e-05
28 *333:91 *487:26 0.000342109
29 *333:155 *487:26 0.000659063
30 *366:45 *487:12 5.21627e-05
31 *385:76 *487:24 0.000112123
32 *387:39 *487:26 0.000563898
33 *387:50 *487:26 0.000712626
34 *423:12 *487:24 0.000108761
35 *424:10 *487:24 0.000538549
36 *430:123 *487:12 0
37 *451:18 *487:26 0.000135318
38 *451:20 *487:26 0.000180516
39 *482:10 *487:26 0
*RES
1 *8848:Q *487:12 9.41 
2 *487:12 *487:24 19.665 
3 *487:24 *487:26 106.95 
4 *487:26 *9071:A 3.6 
5 *487:12 *8772:A1 1.6 
*END

*D_NET *488 0.00317899
*CONN
*I *8885:A I *D sky130_fd_sc_hd__dlygate4sd3_1
*I *9072:A I *D sky130_fd_sc_hd__clkbuf_4
*I *8849:Q O *D sky130_fd_sc_hd__dfrtp_1
*CAP
1 *8885:A 0.000104992
2 *9072:A 0.000562421
3 *8849:Q 0.00026308
4 *488:10 0.000930492
5 *8885:A *8774:A1 0.000232442
6 *8885:A *600:6 8.9336e-05
7 *9072:A *8666:A0 0
8 *9072:A *8798:RESET_B 6.28765e-05
9 *488:10 *8849:RESET_B 0.000156622
10 *8641:A *9072:A 1.73877e-05
11 *296:57 *9072:A 0.000172055
12 *296:57 *488:10 0.000133453
13 *296:63 *9072:A 0.00011852
14 *311:163 *9072:A 0
15 *366:51 *8885:A 0.000262308
16 *416:20 *9072:A 0
17 *484:26 *9072:A 7.30055e-05
*RES
1 *8849:Q *488:10 7.755 
2 *488:10 *9072:A 13.905 
3 *488:10 *8885:A 7.845 
*END

*D_NET *489 0.0275773
*CONN
*I *9073:A I *D sky130_fd_sc_hd__clkbuf_4
*I *8776:A1 I *D sky130_fd_sc_hd__mux2_1
*I *8850:Q O *D sky130_fd_sc_hd__dfrtp_4
*CAP
1 *9073:A 0
2 *8776:A1 0.000245695
3 *8850:Q 0.000151483
4 *489:65 0.00625476
5 *489:63 0.00740446
6 *489:41 0.00378355
7 *489:8 0.00303102
8 *489:41 *8847:RESET_B 0.000384631
9 *489:63 *612:20 0.000302528
10 *8579:A *489:63 7.60965e-05
11 *8644:B *489:63 0.000311282
12 *8656:S *489:63 0.000186549
13 *8656:S *489:65 0.000548787
14 *8698:A *8776:A1 0.000158072
15 *8725:A *489:41 1.22762e-05
16 *8731:A *489:41 0.000124007
17 *8747:A1 *489:65 6.95418e-05
18 *8758:A1 *489:63 1.88904e-05
19 *8759:A *489:41 8.57563e-05
20 *8777:A *8776:A1 9.80032e-06
21 *8792:D *489:63 0.000219765
22 *8792:D *489:65 0
23 *8812:D *8776:A1 5.83121e-06
24 *8821:D *489:41 7.60965e-05
25 *8825:D *489:41 0.000160635
26 *8847:CLK *489:41 7.60034e-05
27 *8859:A *489:41 0.000331777
28 *8859:A *489:63 0.000350014
29 *8925:A *489:65 0
30 *311:36 *489:63 7.96104e-06
31 *311:58 *489:8 8.53113e-06
32 *311:58 *489:41 0.000186523
33 *366:8 *489:63 0.000275553
34 *366:18 *489:41 8.60332e-05
35 *366:18 *489:63 8.49205e-05
36 *366:24 *8776:A1 0.00018548
37 *366:24 *489:41 0.000433002
38 *388:60 *489:41 0.000251123
39 *388:70 *489:41 0.000116433
40 *388:113 *489:41 0.000537212
41 *393:12 *489:65 0
42 *408:16 *489:63 7.96104e-06
43 *420:10 *489:65 0
44 *448:22 *489:8 0
45 *448:22 *489:41 0
46 *453:8 *489:41 1.83847e-05
47 *467:8 *489:63 0.000890089
48 *472:12 *489:41 0
49 *486:8 *489:41 0.00010884
*RES
1 *8850:Q *489:8 6 
2 *489:8 *8776:A1 8.535 
3 *489:8 *489:41 47.25 
4 *489:41 *489:63 22.4695 
5 *489:63 *489:65 106.185 
6 *489:65 *9073:A 3.6 
*END

*D_NET *490 0.0131367
*CONN
*I *8778:A1 I *D sky130_fd_sc_hd__mux2_1
*I *9074:A I *D sky130_fd_sc_hd__buf_2
*I *8851:Q O *D sky130_fd_sc_hd__dfrtp_1
*CAP
1 *8778:A1 0.000406813
2 *9074:A 0.000401256
3 *8851:Q 3.72196e-05
4 *490:10 0.00218725
5 *490:8 0.00223002
6 *8778:A1 *8851:RESET_B 0.000333503
7 *8778:A1 *514:8 4.66108e-05
8 *8778:A1 *516:18 7.49327e-05
9 *8778:A1 *516:20 0.000164874
10 *8778:A1 *516:61 7.12228e-06
11 *490:10 *8642:A 0.000673522
12 *490:10 *8807:RESET_B 0.00101535
13 *490:10 *516:61 0.000377779
14 penable *490:10 9.26907e-06
15 *9028:A *9074:A 0.000825974
16 *9028:A *490:10 0.000431882
17 *9053:A *490:10 0.000316806
18 *394:8 *8778:A1 0.000100057
19 *394:8 *490:10 6.23119e-05
20 *394:25 *8778:A1 5.89043e-05
21 *412:26 *490:10 0
22 *418:20 *490:8 1.83847e-05
23 *440:25 *490:10 0.00335684
24 *465:25 *490:10 0
*RES
1 *8851:Q *490:8 4.05 
2 *490:8 *490:10 57.3525 
3 *490:10 *9074:A 13.4625 
4 *490:8 *8778:A1 11.34 
*END

*D_NET *491 0.00638418
*CONN
*I *9075:A I *D sky130_fd_sc_hd__clkbuf_4
*I *8780:A1 I *D sky130_fd_sc_hd__mux2_1
*I *8852:Q O *D sky130_fd_sc_hd__dfrtp_1
*CAP
1 *9075:A 0.00098345
2 *8780:A1 0.000149662
3 *8852:Q 0.000250774
4 *491:8 0.00138389
5 *9075:A *8737:A0 0.000118279
6 *9075:A *8737:A1 0.000209179
7 *9075:A *501:27 0.00139469
8 *9075:A *575:8 0.000656936
9 pwdata[27] *9075:A 4.82919e-05
10 *8781:A *8780:A1 0.000107241
11 *8781:A *9075:A 6.18754e-05
12 *321:154 *8780:A1 5.83121e-06
13 *355:41 *8780:A1 0.000273702
14 *355:41 *9075:A 0.000654265
15 *386:29 *491:8 8.61242e-05
16 *479:20 *8780:A1 0
17 *479:20 *9075:A 0
*RES
1 *8852:Q *491:8 6.465 
2 *491:8 *8780:A1 7.56 
3 *491:8 *9075:A 33.45 
*END

*D_NET *492 0.0359009
*CONN
*I *8711:A0 I *D sky130_fd_sc_hd__mux2_1
*I *8898:X O *D sky130_fd_sc_hd__clkbuf_2
*CAP
1 *8711:A0 0.00294808
2 *8898:X 7.23488e-05
3 *492:16 0.00585153
4 *492:14 0.00290345
5 *492:12 0.00172922
6 *492:10 0.00180157
7 *8711:A0 *8745:A0 0.000275124
8 *8711:A0 *508:27 0.000226738
9 *8711:A0 *508:65 9.36865e-05
10 *8711:A0 *513:46 0.000269916
11 *492:12 *585:12 0.000724902
12 *492:12 *585:16 0.00141619
13 pwdata[31] *492:12 6.72027e-05
14 *8703:A1 *8711:A0 0.000266104
15 *8703:S *8711:A0 1.61831e-05
16 *8711:A1 *8711:A0 4.99619e-05
17 *8711:S *8711:A0 5.4155e-06
18 *8712:A *8711:A0 7.60965e-05
19 *8727:A *8711:A0 0.000350569
20 *8730:S *8711:A0 1.85674e-05
21 *8745:A1 *8711:A0 6.12982e-05
22 *8746:A *8711:A0 1.17309e-05
23 *8811:D *8711:A0 4.61932e-05
24 *8822:CLK *8711:A0 0.000110641
25 *8822:CLK *492:16 0.000672971
26 *8826:D *8711:A0 2.66586e-05
27 *8839:CLK *8711:A0 0.00019076
28 *8839:D *8711:A0 8.85653e-05
29 *8898:A *492:10 3.11403e-05
30 *8898:A *492:12 6.57981e-06
31 *8899:A *492:12 2.51475e-05
32 *8900:A *492:12 4.36438e-05
33 *8923:A *492:12 0.000154806
34 *9013:A *492:10 8.82821e-05
35 *9013:A *492:12 0.000276132
36 *333:16 *8711:A0 2.30292e-05
37 *333:29 *8711:A0 2.75145e-05
38 *412:26 *492:12 0.00128943
39 *423:22 *492:12 0.00580966
40 *454:31 *492:16 0.000178473
41 *471:31 *492:16 0.00757541
*RES
1 *8898:X *492:10 5.4225 
2 *492:10 *492:12 74.4075 
3 *492:12 *492:14 2 
4 *492:14 *492:16 75.66 
5 *492:16 *8711:A0 47.785 
*END

*D_NET *493 0.00965142
*CONN
*I *9076:A I *D sky130_fd_sc_hd__buf_2
*I *8782:A1 I *D sky130_fd_sc_hd__mux2_1
*I *8853:Q O *D sky130_fd_sc_hd__dfrtp_1
*CAP
1 *9076:A 0
2 *8782:A1 0.000312434
3 *8853:Q 0
4 *493:25 0.00420462
5 *493:4 0.00451706
6 *8782:A1 *497:16 8.87196e-05
7 *8782:S *8782:A1 2.7919e-05
8 *408:18 *8782:A1 7.75325e-05
9 *418:28 *493:25 0.00011852
10 *469:10 *8782:A1 0.000186092
11 *471:35 *493:25 0.00011852
*RES
1 *8853:Q *493:4 1.6 
2 *493:4 *8782:A1 11.225 
3 *493:4 *493:25 48.68 
4 *493:25 *9076:A 3.6 
*END

*D_NET *494 0.00737116
*CONN
*I *8784:A1 I *D sky130_fd_sc_hd__mux2_1
*I *9077:A I *D sky130_fd_sc_hd__clkbuf_4
*I *8854:Q O *D sky130_fd_sc_hd__dfrtp_1
*CAP
1 *8784:A1 0.000166987
2 *9077:A 0.000754263
3 *8854:Q 0
4 *494:4 0.000921251
5 *8784:A1 *8784:A0 4.99619e-05
6 *8784:A1 *8854:RESET_B 0.000150345
7 *9077:A *593:14 0.00248604
8 m_rdata[21] *9077:A 8.25609e-05
9 pwdata[20] *9077:A 0
10 pwdata[29] *9077:A 6.4422e-05
11 *8785:A *9077:A 9.47454e-05
12 *9000:A *9077:A 0.000117875
13 *462:22 *9077:A 0
14 *477:36 *9077:A 0.0024827
*RES
1 *8854:Q *494:4 1.6 
2 *494:4 *9077:A 40.245 
3 *494:4 *8784:A1 4.6 
*END

*D_NET *495 0.0151678
*CONN
*I *8728:A1 I *D sky130_fd_sc_hd__mux2_1
*I *9078:A I *D sky130_fd_sc_hd__clkbuf_4
*I *8827:Q O *D sky130_fd_sc_hd__dfrtp_1
*CAP
1 *8728:A1 0.000227068
2 *9078:A 0.000766437
3 *8827:Q 2.75375e-05
4 *495:16 0.00199567
5 *495:8 0.00148384
6 *8728:A1 *8728:A0 2.75145e-05
7 *9078:A *8624:A 0.000881616
8 *9078:A *8666:A0 0.00047203
9 *9078:A *531:14 0.00251755
10 *495:16 *8722:A0 0
11 *495:16 *531:14 1.12578e-05
12 *495:16 *554:28 0.00102536
13 *495:16 *557:14 4.44131e-05
14 *8722:A1 *495:16 0
15 *8729:A *8728:A1 5.72433e-05
16 *8729:A *495:16 6.35535e-05
17 *8824:D *495:16 0
18 *8827:CLK *495:8 0.000201508
19 *8911:A *495:16 0
20 *8929:A *9078:A 0.000166692
21 *8931:A *495:16 0
22 *9030:A *495:16 0.000412671
23 *388:8 *8728:A1 0
24 *416:20 *495:16 0.00293487
25 *435:26 *495:8 0.000201508
26 *448:20 *495:16 2.05056e-05
27 *463:16 *9078:A 0.0001711
28 *472:14 *8728:A1 0
29 *472:14 *495:16 0
30 *477:34 *9078:A 0.00145785
*RES
1 *8827:Q *495:8 5.43 
2 *495:8 *495:16 36.53 
3 *495:16 *9078:A 38.405 
4 *495:8 *8728:A1 7.41 
*END

*D_NET *496 0.00563593
*CONN
*I *8786:A1 I *D sky130_fd_sc_hd__mux2_1
*I *9079:A I *D sky130_fd_sc_hd__clkbuf_4
*I *8855:Q O *D sky130_fd_sc_hd__dfrtp_1
*CAP
1 *8786:A1 0.000255254
2 *9079:A 0.00224044
3 *8855:Q 0
4 *496:4 0.00249569
5 *8786:A1 *582:12 0
6 *8786:A1 *605:8 6.81892e-05
7 *8855:CLK *8786:A1 0.000131791
8 *8855:CLK *9079:A 0.000444564
*RES
1 *8855:Q *496:4 1.6 
2 *496:4 *9079:A 36.17 
3 *496:4 *8786:A1 9.155 
*END

*D_NET *497 0.0146435
*CONN
*I *8788:A1 I *D sky130_fd_sc_hd__mux2_1
*I *9080:A I *D sky130_fd_sc_hd__buf_2
*I *8856:Q O *D sky130_fd_sc_hd__dfrtp_1
*CAP
1 *8788:A1 0.000260584
2 *9080:A 0.000821335
3 *8856:Q 0.000208478
4 *497:16 0.00630701
5 *497:14 0.00548568
6 *497:12 0.000469062
7 *8788:A1 *542:8 9.07342e-05
8 *497:12 *8856:RESET_B 9.50342e-06
9 *497:12 *542:8 5.63318e-05
10 *8782:A1 *497:16 8.87196e-05
11 *8782:S *497:16 0.000108886
12 *321:142 *8788:A1 0.000161829
13 *321:142 *497:16 0.000467068
14 *321:152 *8788:A1 3.00381e-05
15 *390:14 *497:12 7.81978e-05
*RES
1 *8856:Q *497:12 7.425 
2 *497:12 *497:14 2 
3 *497:14 *497:16 76.8675 
4 *497:16 *9080:A 13.6225 
5 *497:12 *8788:A1 9.12 
*END

*D_NET *498 0.0155132
*CONN
*I *8730:A1 I *D sky130_fd_sc_hd__mux2_1
*I *9081:A I *D sky130_fd_sc_hd__clkbuf_4
*I *8828:Q O *D sky130_fd_sc_hd__dfrtp_2
*CAP
1 *8730:A1 0.000238318
2 *9081:A 0.000100439
3 *8828:Q 1.94807e-05
4 *498:12 0.00642259
5 *498:10 0.0064764
6 *498:6 0.000412056
7 *8730:A1 *8730:A0 0.00011852
8 *8730:A1 *8826:RESET_B 0
9 *9081:A *8688:A0 0.000292921
10 *9081:A *610:14 0.000106897
11 pwdata[14] *9081:A 6.42051e-05
12 *8727:A *8730:A1 0
13 *8825:D *8730:A1 0
14 *8826:D *8730:A1 0
15 *8828:D *498:12 0
16 *9061:A *9081:A 0.000350615
17 *355:141 *498:12 0
18 *388:74 *498:12 7.9774e-05
19 *388:80 *498:10 3.1835e-05
20 *437:50 *498:6 2.30292e-05
21 *437:50 *498:10 0.000195261
22 *439:24 *498:12 0.000200782
23 *472:12 *498:12 0.00038008
*RES
1 *8828:Q *498:6 2.05 
2 *498:6 *498:10 5.21 
3 *498:10 *498:12 104.145 
4 *498:12 *9081:A 8.19 
5 *498:6 *8730:A1 9.785 
*END

*D_NET *499 0.00549396
*CONN
*I *9082:A I *D sky130_fd_sc_hd__clkbuf_4
*I *8878:A I *D sky130_fd_sc_hd__dlygate4sd3_1
*I *8829:Q O *D sky130_fd_sc_hd__dfrtp_1
*CAP
1 *9082:A 0.000639257
2 *8878:A 0.000178069
3 *8829:Q 9.79255e-06
4 *499:6 0.000827118
5 *8878:A *8732:A1 4.82863e-05
6 *8878:A *526:32 0
7 *8878:A *597:10 0
8 *9082:A *8830:RESET_B 2.65337e-05
9 *9082:A *9083:A 0.000383691
10 *9082:A *500:10 0.000116165
11 *9082:A *514:113 9.91257e-05
12 *9082:A *514:127 0.000198812
13 *9082:A *551:20 0.000278111
14 *9082:A *551:36 0.00111047
15 *499:6 *551:36 2.75145e-05
16 *8734:S *8878:A 2.75145e-05
17 *8830:CLK *9082:A 0.00133552
18 *8830:CLK *499:6 4.99619e-05
19 *8830:D *9082:A 7.35729e-05
20 *344:109 *8878:A 6.44417e-05
*RES
1 *8829:Q *499:6 2.05 
2 *499:6 *8878:A 8.81 
3 *499:6 *9082:A 31.25 
*END

*D_NET *500 0.00152875
*CONN
*I *9083:A I *D sky130_fd_sc_hd__clkbuf_4
*I *8876:A I *D sky130_fd_sc_hd__dlygate4sd3_1
*I *8830:Q O *D sky130_fd_sc_hd__dfrtp_1
*CAP
1 *9083:A 0.000273773
2 *8876:A 0
3 *8830:Q 9.57907e-05
4 *500:10 0.000369564
5 *9083:A *548:22 0.000239807
6 *500:10 *551:20 4.99619e-05
7 *9082:A *9083:A 0.000383691
8 *9082:A *500:10 0.000116165
*RES
1 *8830:Q *500:10 5.43 
2 *500:10 *8876:A 3.6 
3 *500:10 *9083:A 10.215 
*END

*D_NET *501 0.00780827
*CONN
*I *9084:A I *D sky130_fd_sc_hd__clkbuf_4
*I *8737:A1 I *D sky130_fd_sc_hd__mux2_1
*I *8831:Q O *D sky130_fd_sc_hd__dfrtp_1
*CAP
1 *9084:A 9.09408e-05
2 *8737:A1 8.51609e-05
3 *8831:Q 0.000237881
4 *501:27 0.00258231
5 *501:8 0.00281441
6 *8737:A1 *8737:A0 1.89685e-05
7 *8737:A1 *603:8 0
8 *501:27 *575:8 0
9 *501:27 *603:8 0
10 pwdata[6] *9084:A 4.82863e-05
11 *8738:A *8737:A1 0.000146525
12 *8738:A *501:27 0.000179922
13 *8993:A *501:27 0
14 *9075:A *8737:A1 0.000209179
15 *9075:A *501:27 0.00139469
*RES
1 *8831:Q *501:8 6.81 
2 *501:8 *8737:A1 6.45 
3 *501:8 *501:27 49.58 
4 *501:27 *9084:A 3.085 
*END

*D_NET *502 0.0162717
*CONN
*I *9085:A I *D sky130_fd_sc_hd__clkbuf_4
*I *8739:A1 I *D sky130_fd_sc_hd__mux2_1
*I *8832:Q O *D sky130_fd_sc_hd__dfrtp_1
*CAP
1 *9085:A 0.0014282
2 *8739:A1 0.000261149
3 *8832:Q 2.98131e-05
4 *502:31 0.00233841
5 *502:29 0.00111805
6 *502:10 0.000498797
7 *8739:A1 *8739:A0 4.99619e-05
8 *8739:A1 *8832:RESET_B 0
9 *9085:A *526:24 0.00124021
10 *502:29 *578:10 5.85076e-05
11 *502:31 *526:24 1.60083e-05
12 *502:31 *526:26 0.00136186
13 *502:31 *548:28 0.000353049
14 m_rdata[0] *502:31 9.21168e-05
15 m_rdata[12] *502:31 0.000141323
16 m_rdata[5] *502:31 0.000256469
17 pwdata[19] *502:31 0.000141323
18 pwdata[23] *502:31 0.000160641
19 *8597:A *8739:A1 0.000116706
20 *8597:A *502:29 2.69493e-05
21 *8739:S *8739:A1 2.0514e-05
22 *8740:A *8739:A1 0.000115035
23 *8891:A *9085:A 5.30673e-05
24 *8903:A *502:31 4.99619e-05
25 *8909:A *502:31 4.99619e-05
26 *8920:A *502:31 4.99619e-05
27 *8952:A *502:31 1.08758e-05
28 *8976:A *502:31 5.30673e-05
29 *8987:A *502:31 0.000239813
30 *9001:A *502:31 0.00062029
31 *9015:A *9085:A 0.000283117
32 *9015:A *502:31 0.00403313
33 *296:139 *8739:A1 7.00889e-06
34 *425:14 *502:29 0
35 *425:14 *502:31 0.000544991
36 *430:135 *8739:A1 0.000204489
37 *430:135 *502:10 2.76158e-05
38 *430:135 *502:29 3.7729e-05
39 *480:22 *8739:A1 0.00018148
*RES
1 *8832:Q *502:10 4.2825 
2 *502:10 *8739:A1 9.9675 
3 *502:10 *502:29 5.2925 
4 *502:29 *502:31 49.44 
5 *502:31 *9085:A 32.345 
*END

*D_NET *503 0.0074765
*CONN
*I *8678:A0 I *D sky130_fd_sc_hd__mux2_1
*I *8899:X O *D sky130_fd_sc_hd__clkbuf_1
*CAP
1 *8678:A0 0.000941641
2 *8899:X 0.000941641
3 *8678:A0 *8678:A1 0.000164352
4 *8678:A0 *568:14 0.00161535
5 psel *8678:A0 2.05641e-05
6 *8678:S *8678:A0 1.61831e-05
7 *9008:A *8678:A0 0.00114718
8 *412:40 *8678:A0 0.0010159
9 *471:35 *8678:A0 0.00161368
*RES
1 *8899:X *8678:A0 46.78 
*END

*D_NET *504 0.0205548
*CONN
*I *8713:A0 I *D sky130_fd_sc_hd__mux2_1
*I *8900:X O *D sky130_fd_sc_hd__buf_1
*CAP
1 *8713:A0 0.00130932
2 *8900:X 0
3 *504:6 0.00918557
4 *504:4 0.00787625
5 *8713:A1 *8713:A0 4.99619e-05
6 *8713:S *8713:A0 1.83756e-05
7 *8753:A1 *8713:A0 0.000653462
8 *8900:A *504:6 4.92062e-05
9 *285:26 *8713:A0 6.68173e-06
10 *333:118 *8713:A0 0
11 *355:81 *8713:A0 0.000163185
12 *355:139 *8713:A0 0.00124279
13 *430:125 *8713:A0 0
*RES
1 *8900:X *504:4 1.6 
2 *504:4 *504:6 85.1475 
3 *504:6 *8713:A0 32.4575 
*END

*D_NET *505 0.00725064
*CONN
*I *8741:A1 I *D sky130_fd_sc_hd__mux2_1
*I *9086:A I *D sky130_fd_sc_hd__clkbuf_4
*I *8833:Q O *D sky130_fd_sc_hd__dfrtp_1
*CAP
1 *8741:A1 7.20274e-05
2 *9086:A 0.00134473
3 *8833:Q 4.84571e-05
4 *505:8 0.00146522
5 *9086:A *574:8 2.30292e-05
6 *9086:A *600:10 0.000609547
7 *8741:S *8741:A1 1.83847e-05
8 *9005:A *9086:A 8.65905e-05
9 *9050:A *9086:A 0.000201508
10 *406:14 *9086:A 7.67345e-05
11 *414:8 *9086:A 0.00195762
12 *414:8 *505:8 9.87616e-05
13 *421:10 *9086:A 0.00106027
14 *421:10 *505:8 0.000187766
*RES
1 *8833:Q *505:8 5.745 
2 *505:8 *9086:A 46.86 
3 *505:8 *8741:A1 4.395 
*END

*D_NET *506 0.0107115
*CONN
*I *8743:A1 I *D sky130_fd_sc_hd__mux2_1
*I *9087:A I *D sky130_fd_sc_hd__clkbuf_4
*I *8834:Q O *D sky130_fd_sc_hd__dfrtp_1
*CAP
1 *8743:A1 0
2 *9087:A 0.00188631
3 *8834:Q 0.000301386
4 *506:20 0.00292417
5 *506:12 0.00133925
6 *9087:A *8603:A 0.000254319
7 *9087:A *538:10 0.000456951
8 *9087:A *609:10 0.00169358
9 *506:20 *8603:A 0.000525995
10 *506:20 *8743:A0 1.83756e-05
11 *506:20 *8749:A0 0
12 m_rdata[3] *506:20 0
13 *8834:D *506:12 5.36341e-05
14 *8837:CLK *506:20 0.000189426
15 *8890:A *506:20 0
16 *8895:A *9087:A 0
17 *8912:A *9087:A 8.37447e-05
18 *8915:A *9087:A 0
19 *8918:A *506:20 0
20 *8951:A *9087:A 4.92063e-05
21 *8953:A *506:20 0
22 *8960:A *9087:A 0
23 *9059:A *506:12 6.02123e-05
24 *355:32 *506:12 0.000112123
25 *386:33 *506:20 0.000155176
26 *404:14 *506:20 0.000419392
27 *427:16 *506:20 0.000188275
*RES
1 *8834:Q *506:12 9.845 
2 *506:12 *506:20 25.6475 
3 *506:20 *9087:A 48.6525 
4 *506:12 *8743:A1 1.6 
*END

*D_NET *507 0.029646
*CONN
*I *9088:A I *D sky130_fd_sc_hd__clkbuf_4
*I *8652:A1 I *D sky130_fd_sc_hd__mux2_1
*I *8790:Q O *D sky130_fd_sc_hd__dfrtp_4
*CAP
1 *9088:A 0
2 *8652:A1 0.000272868
3 *8790:Q 0.000304588
4 *507:29 0.00770975
5 *507:27 0.00770975
6 *507:25 0.00356751
7 *507:12 0.00414496
8 *8652:A1 *510:20 0.000585299
9 *507:25 *509:12 0
10 *507:25 *509:82 0
11 *507:25 *509:84 0
12 *507:25 *510:20 0.000663191
13 *8595:A *8652:A1 0.000222813
14 *8617:B *8652:A1 0.000158072
15 *8652:S *8652:A1 4.66108e-05
16 *8714:A *507:25 7.4027e-05
17 *8773:A *8652:A1 1.46828e-05
18 *296:120 *507:25 0.00239283
19 *296:139 *507:25 0.00109262
20 *355:60 *8652:A1 0
21 *355:60 *507:25 0
22 *355:73 *507:25 0
23 *385:93 *8652:A1 8.97701e-05
24 *413:10 *507:25 0
25 *437:50 *507:12 0.000197254
26 *451:14 *507:25 1.92979e-05
27 *475:10 *507:25 0.000296094
28 *487:24 *8652:A1 8.40213e-05
*RES
1 *8790:Q *507:12 7.965 
2 *507:12 *8652:A1 12.075 
3 *507:12 *507:25 82.725 
4 *507:25 *507:27 2 
5 *507:27 *507:29 104.985 
6 *507:29 *9088:A 1.6 
*END

*D_NET *508 0.016871
*CONN
*I *8838:RESET_B I *D sky130_fd_sc_hd__dfrtp_2
*I *8820:RESET_B I *D sky130_fd_sc_hd__dfrtp_4
*I *8795:RESET_B I *D sky130_fd_sc_hd__dfrtp_2
*I *8799:RESET_B I *D sky130_fd_sc_hd__dfrtp_2
*I *8796:RESET_B I *D sky130_fd_sc_hd__dfrtp_4
*I *8840:RESET_B I *D sky130_fd_sc_hd__dfrtp_4
*I *8811:RESET_B I *D sky130_fd_sc_hd__dfrtp_4
*I *8819:RESET_B I *D sky130_fd_sc_hd__dfrtp_4
*I *8790:RESET_B I *D sky130_fd_sc_hd__dfrtp_4
*I *8814:RESET_B I *D sky130_fd_sc_hd__dfrtp_4
*I *8868:X O *D sky130_fd_sc_hd__buf_4
*CAP
1 *8838:RESET_B 0.0011729
2 *8820:RESET_B 0
3 *8795:RESET_B 0.00127097
4 *8799:RESET_B 0.00142683
5 *8796:RESET_B 0.00113639
6 *8840:RESET_B 0.00103187
7 *8811:RESET_B 0.000247206
8 *8819:RESET_B 0
9 *8790:RESET_B 0.000222499
10 *8814:RESET_B 0.000635347
11 *8868:X 0.000175058
12 *508:118 0.00158296
13 *508:65 0.000661466
14 *508:29 0.000301717
15 *508:27 0.000586659
16 *8796:RESET_B *535:10 3.89528e-05
17 *8814:RESET_B *8868:A 0.000503243
18 *8838:RESET_B *509:18 5.23585e-05
19 *8838:RESET_B *548:34 0
20 *508:118 *548:34 0
21 *8663:A *8796:RESET_B 0
22 *8669:A *8799:RESET_B 1.34594e-05
23 *8694:A *8796:RESET_B 0
24 *8697:A0 *8799:RESET_B 0.0003412
25 *8711:A0 *508:27 0.000226738
26 *8711:A0 *508:65 9.36865e-05
27 *8712:A *508:118 0
28 *8755:A1 *508:65 0
29 *8755:A1 *508:118 0
30 *8795:CLK *8795:RESET_B 0.000221639
31 *8796:CLK *8799:RESET_B 0.000174203
32 *8796:D *8796:RESET_B 3.86607e-05
33 *8799:D *8799:RESET_B 0
34 *8811:D *508:65 0.000156091
35 *8814:D *508:27 5.83121e-06
36 *8815:D *8814:RESET_B 2.86623e-05
37 *8819:D *8840:RESET_B 2.42236e-05
38 *8819:D *508:118 7.03934e-05
39 *8820:D *508:118 0
40 *8838:CLK *8838:RESET_B 0.000157375
41 *8838:D *8838:RESET_B 0.000116158
42 *8839:CLK *508:27 1.56428e-05
43 *8840:D *8796:RESET_B 9.13951e-05
44 *8840:D *8840:RESET_B 6.50568e-05
45 *8840:D *508:118 2.88322e-05
46 *285:102 *8796:RESET_B 0.000249197
47 *311:86 *8796:RESET_B 0.000203776
48 *333:8 *8796:RESET_B 7.35729e-05
49 *355:60 *8790:RESET_B 6.94543e-05
50 *355:60 *8811:RESET_B 5.11025e-05
51 *355:60 *508:29 7.465e-05
52 *355:73 *508:118 0
53 *385:101 *8790:RESET_B 0
54 *385:101 *508:29 0
55 *387:27 *8795:RESET_B 0.00169024
56 *387:39 *8795:RESET_B 9.05875e-05
57 *387:50 *8838:RESET_B 0
58 *387:50 *508:118 0
59 *388:117 *508:27 8.53113e-06
60 *388:130 *508:27 0.000160658
61 *395:8 *8796:RESET_B 0
62 *395:8 *8799:RESET_B 4.19967e-05
63 *430:123 *8814:RESET_B 0
64 *430:123 *508:27 0.000160658
65 *437:50 *8790:RESET_B 7.92054e-05
66 *445:16 *8814:RESET_B 0.000252023
67 *445:16 *508:27 0.000194786
68 *455:8 *8795:RESET_B 7.25921e-05
69 *477:18 *8811:RESET_B 0
70 *477:18 *8840:RESET_B 5.4003e-05
71 *477:18 *508:29 0
72 *477:18 *508:65 9.24049e-05
73 *479:18 *8795:RESET_B 0.000335845
74 *487:26 *8838:RESET_B 0
*RES
1 *8868:X *8814:RESET_B 12.185 
2 *8814:RESET_B *508:27 13.9125 
3 *508:27 *508:29 1.635 
4 *508:29 *8790:RESET_B 5.7275 
5 *508:29 *8819:RESET_B 2 
6 *508:27 *8811:RESET_B 3.125 
7 *8811:RESET_B *508:65 6.755 
8 *508:65 *8840:RESET_B 3.7025 
9 *8840:RESET_B *8796:RESET_B 19.4125 
10 *8796:RESET_B *8799:RESET_B 8.5375 
11 *8799:RESET_B *8795:RESET_B 24.735 
12 *508:65 *508:118 7.1175 
13 *508:118 *8820:RESET_B 2 
14 *508:118 *8838:RESET_B 22.6625 
*END

*D_NET *509 0.0544987
*CONN
*I *8868:A I *D sky130_fd_sc_hd__buf_4
*I *8832:RESET_B I *D sky130_fd_sc_hd__dfrtp_1
*I *8844:RESET_B I *D sky130_fd_sc_hd__dfrtp_1
*I *8794:RESET_B I *D sky130_fd_sc_hd__dfrtp_1
*I *8797:RESET_B I *D sky130_fd_sc_hd__dfrtp_1
*I *8831:RESET_B I *D sky130_fd_sc_hd__dfrtp_1
*I *8852:RESET_B I *D sky130_fd_sc_hd__dfrtp_1
*I *8834:RESET_B I *D sky130_fd_sc_hd__dfrtp_1
*I *8837:RESET_B I *D sky130_fd_sc_hd__dfrtp_1
*I *8817:RESET_B I *D sky130_fd_sc_hd__dfrtp_1
*I *8869:X O *D sky130_fd_sc_hd__clkbuf_8
*CAP
1 *8868:A 0.000813091
2 *8832:RESET_B 0.000118207
3 *8844:RESET_B 2.21893e-05
4 *8794:RESET_B 0.000193965
5 *8797:RESET_B 2.14601e-05
6 *8831:RESET_B 0.000218962
7 *8852:RESET_B 0
8 *8834:RESET_B 0
9 *8837:RESET_B 5.62489e-05
10 *8817:RESET_B 6.48257e-05
11 *8869:X 1.64366e-05
12 *509:102 0.00127917
13 *509:100 0.00269482
14 *509:88 0.00196973
15 *509:84 0.00312517
16 *509:82 0.00274807
17 *509:66 0.000455461
18 *509:52 0.000836637
19 *509:50 0.00322919
20 *509:28 0.00341216
21 *509:18 0.00550772
22 *509:12 0.00608043
23 *509:6 0.00247968
24 *8794:RESET_B *570:20 0.000119066
25 *8797:RESET_B *8664:A1 4.82919e-05
26 *8831:RESET_B *575:8 0.000871816
27 *8832:RESET_B *548:32 0.000144537
28 *509:12 *8869:A 8.40269e-05
29 *509:12 *510:6 4.66108e-05
30 *509:12 *548:34 0
31 *509:52 *575:8 0.00259389
32 *509:66 *575:8 0.00091326
33 *509:82 *548:34 0
34 *509:84 *548:32 0.00188067
35 *509:84 *548:34 0.000920894
36 *509:102 *8664:A1 0.000342174
37 *8608:A *8837:RESET_B 9.16237e-05
38 *8608:A *509:52 0.000111308
39 *8658:S *8794:RESET_B 0
40 *8695:A1 *8868:A 3.77368e-05
41 *8695:A1 *509:6 8.65961e-05
42 *8695:A1 *509:12 0.000123225
43 *8696:A *8868:A 0
44 *8707:A0 *509:50 0.000426195
45 *8739:A1 *8832:RESET_B 0
46 *8814:RESET_B *8868:A 0.000503243
47 *8815:D *8868:A 0.000176629
48 *8817:CLK *509:28 0
49 *8817:D *8817:RESET_B 1.23763e-05
50 *8838:CLK *509:18 4.5677e-05
51 *8838:RESET_B *509:18 5.23585e-05
52 *8862:A *509:28 0.000327286
53 *9031:A *8794:RESET_B 7.00685e-05
54 *9036:A *509:50 0.000462829
55 *9046:A *8794:RESET_B 0.000335851
56 *296:139 *8844:RESET_B 9.53428e-06
57 *296:139 *509:84 0
58 *296:139 *509:88 0.000467068
59 *296:143 *8844:RESET_B 2.65337e-05
60 *296:143 *509:88 1.12578e-05
61 *296:143 *509:100 0.000254892
62 *296:149 *509:100 0.000673874
63 *333:118 *8868:A 0
64 *355:32 *8837:RESET_B 6.64979e-05
65 *355:32 *509:52 6.65717e-05
66 *355:41 *509:52 2.96297e-05
67 *355:73 *509:12 0.000162325
68 *394:27 *509:6 3.09179e-05
69 *394:27 *509:12 0.000133095
70 *397:8 *8831:RESET_B 0.000497709
71 *397:8 *509:52 0.00145971
72 *397:8 *509:66 0.000520066
73 *413:10 *509:84 0.000118527
74 *424:12 *509:100 0
75 *425:14 *8832:RESET_B 7.07664e-05
76 *430:123 *8868:A 0
77 *430:125 *8868:A 0
78 *430:135 *8832:RESET_B 0
79 *441:8 *8868:A 0.000123772
80 *441:18 *509:12 1.41979e-05
81 *445:16 *8868:A 0
82 *449:12 *509:28 0.000102024
83 *449:12 *509:50 0
84 *480:22 *8832:RESET_B 0
85 *480:24 *8797:RESET_B 8.07616e-05
86 *480:24 *509:102 0.00340712
87 *507:25 *509:12 0
88 *507:25 *509:82 0
89 *507:25 *509:84 0
*RES
1 *8869:X *509:6 2.395 
2 *509:6 *509:12 30.155 
3 *509:12 *509:18 49.8125 
4 *509:18 *509:28 19.9175 
5 *509:28 *8817:RESET_B 3.1025 
6 *509:28 *509:50 39.85 
7 *509:50 *509:52 32.745 
8 *509:52 *8837:RESET_B 3.89 
9 *509:52 *8834:RESET_B 2 
10 *509:50 *509:66 10.56 
11 *509:66 *8852:RESET_B 2 
12 *509:66 *8831:RESET_B 12.05 
13 *509:12 *509:82 0.9375 
14 *509:82 *509:84 62.9625 
15 *509:84 *509:88 6.59 
16 *509:88 *509:100 30.1 
17 *509:100 *509:102 30.81 
18 *509:102 *8797:RESET_B 0.7425 
19 *509:102 *8794:RESET_B 9.0175 
20 *509:88 *8844:RESET_B 0.7575 
21 *509:84 *8832:RESET_B 5.165 
22 *509:6 *8868:A 20.105 
*END

*D_NET *510 0.0424438
*CONN
*I *8869:A I *D sky130_fd_sc_hd__clkbuf_8
*I *8816:RESET_B I *D sky130_fd_sc_hd__dfrtp_4
*I *8855:RESET_B I *D sky130_fd_sc_hd__dfrtp_1
*I *8858:A I *D sky130_fd_sc_hd__clkbuf_1
*I *8854:RESET_B I *D sky130_fd_sc_hd__dfrtp_1
*I *8846:RESET_B I *D sky130_fd_sc_hd__dfrtp_1
*I *8798:RESET_B I *D sky130_fd_sc_hd__dfrtp_1
*I *8800:RESET_B I *D sky130_fd_sc_hd__dfrtp_2
*I *8849:RESET_B I *D sky130_fd_sc_hd__dfrtp_1
*I *8818:RESET_B I *D sky130_fd_sc_hd__dfrtp_1
*I *8870:X O *D sky130_fd_sc_hd__buf_4
*CAP
1 *8869:A 2.21321e-05
2 *8816:RESET_B 2.12823e-05
3 *8855:RESET_B 0.00127104
4 *8858:A 0.000614826
5 *8854:RESET_B 0.00477526
6 *8846:RESET_B 0.00285226
7 *8798:RESET_B 0.000225942
8 *8800:RESET_B 0.000342115
9 *8849:RESET_B 0.000518021
10 *8818:RESET_B 0.000219067
11 *8870:X 1.65033e-05
12 *510:118 0.00212144
13 *510:116 0.00371777
14 *510:48 0.00193372
15 *510:36 0.00235459
16 *510:34 0.00209492
17 *510:20 0.00160252
18 *510:6 0.00140081
19 *8798:RESET_B *8666:A0 4.40812e-05
20 *8800:RESET_B *576:22 8.11546e-05
21 *8846:RESET_B *8624:A 0.000418515
22 *8854:RESET_B *8784:A0 0.000316415
23 *510:20 *8617:A 0.000180682
24 *510:20 *8626:A 0.00111985
25 *510:36 *557:18 0
26 *510:36 *557:20 0
27 *510:48 *576:22 0.000120698
28 *510:48 *576:24 0.000110519
29 *510:116 *582:12 0
30 *510:116 *605:8 7.63204e-05
31 *8586:B *8818:RESET_B 0.000317494
32 *8586:B *510:36 0.000157198
33 *8595:A *510:20 2.15594e-05
34 *8601:A *510:20 1.88904e-05
35 *8625:A *8798:RESET_B 0.000195476
36 *8625:A *8846:RESET_B 4.82863e-05
37 *8652:A1 *510:20 0.000585299
38 *8705:A1 *8816:RESET_B 2.20753e-05
39 *8705:A1 *510:20 8.87364e-05
40 *8784:A1 *8854:RESET_B 0.000150345
41 *8787:A *8855:RESET_B 0
42 *8845:CLK *8798:RESET_B 0.000152975
43 *8854:CLK *8854:RESET_B 0.000484893
44 *8855:D *8855:RESET_B 0
45 *9000:A *510:116 0.000136877
46 *9024:A *8858:A 0.000736971
47 *9072:A *8798:RESET_B 6.28765e-05
48 *296:55 *510:20 3.33149e-05
49 *296:57 *8818:RESET_B 0.000131772
50 *296:57 *510:20 0.000651471
51 *296:57 *510:36 0.00485631
52 *296:63 *8846:RESET_B 5.07419e-05
53 *296:80 *510:48 0.000174294
54 *296:96 *510:20 0.000125634
55 *296:118 *510:20 0.00015527
56 *296:120 *510:20 0.00120652
57 *311:157 *510:20 0
58 *311:159 *510:20 4.11744e-05
59 *384:33 *8854:RESET_B 0.000622782
60 *384:40 *8846:RESET_B 8.07616e-05
61 *384:40 *8854:RESET_B 0.000236847
62 *385:65 *510:20 0
63 *385:76 *510:20 0
64 *394:27 *8869:A 4.08514e-05
65 *394:27 *510:6 2.49909e-05
66 *402:12 *8800:RESET_B 0
67 *402:12 *510:48 0
68 *439:26 *8858:A 0.000779614
69 *439:26 *510:118 0.000221851
70 *450:14 *8818:RESET_B 5.36384e-06
71 *450:14 *510:36 0.00018305
72 *450:20 *8846:RESET_B 0
73 *455:10 *510:116 0
74 *462:10 *8846:RESET_B 0
75 *463:10 *8798:RESET_B 0.000112529
76 *485:14 *8846:RESET_B 5.83121e-06
77 *488:10 *8849:RESET_B 0.000156622
78 *507:25 *510:20 0.000663191
79 *509:12 *8869:A 8.40269e-05
80 *509:12 *510:6 4.66108e-05
*RES
1 *8870:X *510:6 2.05 
2 *510:6 *510:20 48.25 
3 *510:20 *8818:RESET_B 9.0325 
4 *8818:RESET_B *510:34 2 
5 *510:34 *510:36 55.44 
6 *510:36 *8849:RESET_B 6.5375 
7 *8849:RESET_B *510:48 8.6225 
8 *510:48 *8800:RESET_B 4.145 
9 *8800:RESET_B *8798:RESET_B 9.3475 
10 *510:48 *8846:RESET_B 27.0075 
11 *8846:RESET_B *8854:RESET_B 23.76 
12 *8854:RESET_B *510:116 47.6 
13 *510:116 *510:118 4.935 
14 *510:118 *8858:A 18.61 
15 *510:118 *8855:RESET_B 24.25 
16 *510:20 *8816:RESET_B 0.3975 
17 *510:6 *8869:A 2.395 
*END

*D_NET *511 0.0193016
*CONN
*I *8791:RESET_B I *D sky130_fd_sc_hd__dfrtp_1
*I *8804:RESET_B I *D sky130_fd_sc_hd__dfrtp_4
*I *8801:RESET_B I *D sky130_fd_sc_hd__dfrtp_1
*I *8810:RESET_B I *D sky130_fd_sc_hd__dfrtp_2
*I *8842:RESET_B I *D sky130_fd_sc_hd__dfrtp_4
*I *8812:RESET_B I *D sky130_fd_sc_hd__dfrtp_2
*I *8848:RESET_B I *D sky130_fd_sc_hd__dfrtp_2
*I *8850:RESET_B I *D sky130_fd_sc_hd__dfrtp_4
*I *8809:RESET_B I *D sky130_fd_sc_hd__dfrtp_4
*I *8841:RESET_B I *D sky130_fd_sc_hd__dfrtp_1
*I *8871:X O *D sky130_fd_sc_hd__buf_4
*CAP
1 *8791:RESET_B 0.000204372
2 *8804:RESET_B 0.000133789
3 *8801:RESET_B 0.000745032
4 *8810:RESET_B 0.000878639
5 *8842:RESET_B 0.000147623
6 *8812:RESET_B 2.53858e-05
7 *8848:RESET_B 1.17794e-05
8 *8850:RESET_B 4.97478e-06
9 *8809:RESET_B 2.69963e-05
10 *8841:RESET_B 0.00111101
11 *8871:X 1.78604e-05
12 *511:110 0.00153046
13 *511:72 0.000326535
14 *511:62 0.000609334
15 *511:44 0.00199422
16 *511:28 0.00173883
17 *511:26 0.00134977
18 *511:6 0.000377081
19 *8791:RESET_B *512:14 9.21477e-05
20 *8809:RESET_B *585:40 2.65337e-05
21 *8810:RESET_B *8770:A0 0.000367475
22 *8841:RESET_B *512:26 0.000347922
23 *8842:RESET_B *8760:A0 0
24 *8848:RESET_B *585:40 2.46073e-05
25 *511:26 *8847:RESET_B 0
26 *511:26 *585:40 0.000223677
27 *511:28 *585:40 7.64643e-05
28 *511:62 *8760:A0 4.94404e-05
29 *511:62 *585:40 7.8555e-05
30 *511:72 *560:8 0
31 *8627:A *511:62 0.000120655
32 *8680:A1 *8801:RESET_B 0.00012819
33 *8680:A1 *511:110 1.71013e-05
34 *8690:A1 *511:26 2.46089e-05
35 *8690:S *511:26 3.64998e-06
36 *8691:A *511:26 0
37 *8691:A *511:44 6.65725e-05
38 *8697:A1 *8812:RESET_B 7.00685e-05
39 *8698:A *8812:RESET_B 7.00685e-05
40 *8724:A1 *511:44 0.000616827
41 *8771:A *511:44 4.82863e-05
42 *8777:A *511:62 2.46089e-05
43 *8792:CLK *8791:RESET_B 0.000157179
44 *8809:D *8809:RESET_B 0
45 *8841:CLK *511:26 0.000123826
46 *8841:D *511:26 0.0001249
47 *8847:D *511:44 0.000133426
48 *8850:D *511:62 0.000158066
49 *321:14 *8791:RESET_B 0
50 *322:10 *8801:RESET_B 0.00107296
51 *322:14 *8801:RESET_B 0.000203168
52 *322:43 *8801:RESET_B 0.00020613
53 *322:52 *8801:RESET_B 0.000187759
54 *322:52 *511:110 0.0011092
55 *322:63 *511:26 0
56 *366:32 *511:62 3.45679e-05
57 *366:45 *511:72 0.000159957
58 *423:12 *8850:RESET_B 1.53577e-05
59 *423:12 *511:44 0.000784327
60 *423:12 *511:62 3.08562e-05
61 *423:16 *8841:RESET_B 0.000288404
62 *423:16 *511:6 2.75229e-05
63 *423:16 *511:26 3.1694e-05
64 *430:123 *8842:RESET_B 0
65 *430:123 *511:72 0
66 *433:21 *511:110 0.000189056
67 *439:8 *8801:RESET_B 0
68 *439:8 *511:110 0
69 *442:45 *511:72 0.000284969
70 *453:12 *511:44 0
71 *454:31 *8810:RESET_B 0
72 *454:31 *511:44 4.31189e-05
73 *454:31 *511:110 9.88076e-05
74 *487:12 *8848:RESET_B 4.11729e-05
75 *487:12 *511:62 8.40269e-05
*RES
1 *8871:X *511:6 2.05 
2 *511:6 *8841:RESET_B 4.8975 
3 *8841:RESET_B *511:26 16.6075 
4 *511:26 *511:28 2.175 
5 *511:28 *8809:RESET_B 0.7575 
6 *511:28 *511:44 32.14 
7 *511:44 *8850:RESET_B 0.3975 
8 *511:44 *511:62 11.56 
9 *511:62 *8848:RESET_B 0.3975 
10 *511:62 *511:72 5.93 
11 *511:72 *8812:RESET_B 3.0875 
12 *511:72 *8842:RESET_B 4.19 
13 *511:26 *8810:RESET_B 8.44 
14 *8810:RESET_B *511:110 17.7875 
15 *511:110 *8801:RESET_B 20.975 
16 *511:110 *8804:RESET_B 3.7775 
17 *511:6 *8791:RESET_B 7.93 
*END

*D_NET *512 0.030316
*CONN
*I *8871:A I *D sky130_fd_sc_hd__buf_4
*I *8847:RESET_B I *D sky130_fd_sc_hd__dfrtp_1
*I *8833:RESET_B I *D sky130_fd_sc_hd__dfrtp_1
*I *8808:RESET_B I *D sky130_fd_sc_hd__dfrtp_1
*I *8806:RESET_B I *D sky130_fd_sc_hd__dfrtp_2
*I *8845:RESET_B I *D sky130_fd_sc_hd__dfrtp_1
*I *8827:RESET_B I *D sky130_fd_sc_hd__dfrtp_1
*I *8824:RESET_B I *D sky130_fd_sc_hd__dfrtp_1
*I *8872:X O *D sky130_fd_sc_hd__clkbuf_4
*CAP
1 *8871:A 0
2 *8847:RESET_B 0.00032066
3 *8833:RESET_B 0
4 *8808:RESET_B 3.28609e-05
5 *8806:RESET_B 1.57111e-05
6 *8845:RESET_B 0.00165066
7 *8827:RESET_B 0.00178663
8 *8824:RESET_B 0.00072705
9 *8872:X 0.00045744
10 *512:49 0.0011064
11 *512:45 0.00154554
12 *512:32 0.00122666
13 *512:30 0.00195061
14 *512:26 0.00241612
15 *512:14 0.000815881
16 *8806:RESET_B *565:14 2.40185e-05
17 *8824:RESET_B *565:14 2.69297e-05
18 *8847:RESET_B *8644:A 0
19 *8847:RESET_B *591:14 0
20 *512:14 *8650:A 0.000277223
21 *512:14 *8650:B 0
22 *512:14 *8873:A 0.000353831
23 *512:26 *8644:A 0
24 *512:26 *585:22 0.000542006
25 *512:30 *8644:A 0
26 *512:45 *8741:A0 0.00224226
27 *8674:A1 *512:30 0.000165642
28 *8684:S *512:49 0
29 *8685:A *512:49 0
30 *8690:A1 *8847:RESET_B 0
31 *8690:A1 *512:30 0
32 *8692:A1 *512:30 0
33 *8722:A1 *8827:RESET_B 0.000308028
34 *8722:S *8824:RESET_B 8.78813e-05
35 *8728:S *8824:RESET_B 4.80285e-05
36 *8757:A *512:14 8.0494e-05
37 *8758:A1 *512:26 2.4997e-05
38 *8791:RESET_B *512:14 9.21477e-05
39 *8792:CLK *512:14 0.000177897
40 *8824:D *8824:RESET_B 0
41 *8827:CLK *8827:RESET_B 0.00019735
42 *8827:CLK *8845:RESET_B 0.000194661
43 *8841:CLK *8847:RESET_B 0
44 *8841:D *8847:RESET_B 6.14776e-05
45 *8841:RESET_B *512:26 0.000347922
46 *8845:D *8845:RESET_B 3.50445e-06
47 *275:24 *512:14 1.44775e-05
48 *275:30 *512:14 8.95816e-05
49 *275:78 *512:14 0
50 *310:10 *512:14 6.65187e-05
51 *310:12 *512:14 0.000100544
52 *321:14 *512:14 0
53 *344:138 *8824:RESET_B 0.000179027
54 *344:138 *512:49 0
55 *366:18 *8847:RESET_B 0.000142233
56 *388:8 *8824:RESET_B 0
57 *389:18 *512:45 6.43169e-05
58 *406:12 *8845:RESET_B 7.81924e-05
59 *408:12 *512:26 0.000183094
60 *414:8 *512:30 0.0032224
61 *414:8 *512:32 0.000495228
62 *414:8 *512:45 0.000139843
63 *435:26 *8827:RESET_B 0.000168186
64 *439:8 *512:30 0
65 *439:24 *8845:RESET_B 0.0017598
66 *439:26 *8845:RESET_B 5.84708e-05
67 *464:8 *512:30 0.000378811
68 *464:8 *512:32 0.000874856
69 *464:8 *512:45 0.00248907
70 *478:8 *512:26 4.94404e-05
71 *486:8 *8847:RESET_B 6.8731e-05
72 *489:41 *8847:RESET_B 0.000384631
73 *511:26 *8847:RESET_B 0
*RES
1 *8872:X *512:14 17.435 
2 *512:14 *512:26 15.78 
3 *512:26 *512:30 43.8975 
4 *512:30 *512:32 10.0575 
5 *512:32 *512:45 39.685 
6 *512:45 *512:49 10.01 
7 *512:49 *8824:RESET_B 12.385 
8 *8824:RESET_B *8827:RESET_B 4.95 
9 *8827:RESET_B *8845:RESET_B 23.61 
10 *512:49 *8806:RESET_B 0.3975 
11 *512:45 *8808:RESET_B 2.615 
12 *512:32 *8833:RESET_B 2 
13 *512:26 *8847:RESET_B 9.6875 
14 *512:14 *8871:A 1.6 
*END

*D_NET *513 0.0146995
*CONN
*I *8805:RESET_B I *D sky130_fd_sc_hd__dfrtp_4
*I *8822:RESET_B I *D sky130_fd_sc_hd__dfrtp_1
*I *8825:RESET_B I *D sky130_fd_sc_hd__dfrtp_4
*I *8821:RESET_B I *D sky130_fd_sc_hd__dfrtp_4
*I *8826:RESET_B I *D sky130_fd_sc_hd__dfrtp_4
*I *8856:RESET_B I *D sky130_fd_sc_hd__dfrtp_1
*I *8839:RESET_B I *D sky130_fd_sc_hd__dfrtp_2
*I *8815:RESET_B I *D sky130_fd_sc_hd__dfrtp_1
*I *8828:RESET_B I *D sky130_fd_sc_hd__dfrtp_2
*I *8835:RESET_B I *D sky130_fd_sc_hd__dfrtp_4
*I *8873:X O *D sky130_fd_sc_hd__buf_4
*CAP
1 *8805:RESET_B 4.43954e-05
2 *8822:RESET_B 7.40365e-05
3 *8825:RESET_B 3.17899e-05
4 *8821:RESET_B 0.000135645
5 *8826:RESET_B 0.000370433
6 *8856:RESET_B 0.00220918
7 *8839:RESET_B 3.82227e-05
8 *8815:RESET_B 5.79296e-05
9 *8828:RESET_B 0.000115038
10 *8835:RESET_B 0.000645413
11 *8873:X 4.69286e-05
12 *513:52 0.00104553
13 *513:46 0.00346612
14 *513:26 0.000422603
15 *513:16 0.00105074
16 *513:14 0.000330559
17 *513:12 0.000801719
18 *513:6 0.000690774
19 *8821:RESET_B *8726:A0 0
20 *8825:RESET_B *8730:A0 1.23706e-05
21 *8835:RESET_B *8730:A0 8.88108e-06
22 *8856:RESET_B *542:8 0
23 *513:6 *8873:A 3.1835e-05
24 *513:12 *8730:A0 5.60892e-05
25 *513:12 *8873:A 1.83756e-05
26 *513:14 *8730:A0 1.09018e-05
27 *513:16 *8730:A0 1.76909e-05
28 *513:46 *542:8 0
29 *8703:A1 *8839:RESET_B 0.000139238
30 *8711:A0 *513:46 0.000269916
31 *8716:A1 *8821:RESET_B 4.0843e-05
32 *8724:A1 *513:12 1.83847e-05
33 *8726:S *8821:RESET_B 4.66108e-05
34 *8726:S *8826:RESET_B 0
35 *8727:A *8821:RESET_B 2.7441e-05
36 *8727:A *8826:RESET_B 3.00381e-05
37 *8730:A1 *8826:RESET_B 0
38 *8745:A1 *513:46 4.3979e-05
39 *8746:A *513:46 3.64998e-06
40 *8805:CLK *8821:RESET_B 0
41 *8825:CLK *8835:RESET_B 5.6361e-05
42 *8825:CLK *513:46 0
43 *8825:D *8826:RESET_B 0.000294414
44 *8826:D *8826:RESET_B 0
45 *311:58 *8821:RESET_B 0.000108388
46 *311:58 *8826:RESET_B 6.02811e-05
47 *344:29 *8821:RESET_B 0.000133928
48 *344:59 *8822:RESET_B 0.000275362
49 *355:139 *513:46 3.09164e-05
50 *355:141 *8828:RESET_B 0.00011379
51 *355:141 *513:46 0.000199953
52 *366:99 *8839:RESET_B 0.000139238
53 *388:70 *8826:RESET_B 8.53113e-06
54 *388:80 *8828:RESET_B 0.000192118
55 *437:50 *8828:RESET_B 5.82902e-05
56 *446:8 *8815:RESET_B 1.1392e-05
57 *446:8 *513:52 1.1392e-05
58 *454:31 *8805:RESET_B 4.70343e-05
59 *471:29 *513:12 0.000179881
60 *472:8 *8835:RESET_B 0.00019558
61 *483:10 *8822:RESET_B 0.00015428
62 *486:21 *8805:RESET_B 6.55328e-05
63 *497:12 *8856:RESET_B 9.50342e-06
*RES
1 *8873:X *513:6 2.395 
2 *513:6 *513:12 8.16 
3 *513:12 *513:14 1.485 
4 *513:14 *513:16 1.83 
5 *513:16 *8835:RESET_B 7.7625 
6 *8835:RESET_B *513:26 2 
7 *513:26 *8828:RESET_B 5.1575 
8 *513:26 *513:46 10.555 
9 *513:46 *513:52 14.885 
10 *513:52 *8815:RESET_B 0.7425 
11 *513:52 *8839:RESET_B 5.635 
12 *513:46 *8856:RESET_B 37.55 
13 *513:16 *8826:RESET_B 9.2125 
14 *8826:RESET_B *8821:RESET_B 7.4125 
15 *513:14 *8825:RESET_B 0.7575 
16 *513:12 *8822:RESET_B 7.165 
17 *513:6 *8805:RESET_B 5.38 
*END

*D_NET *514 0.0509892
*CONN
*I *8803:RESET_B I *D sky130_fd_sc_hd__dfrtp_1
*I *8843:RESET_B I *D sky130_fd_sc_hd__dfrtp_2
*I *8813:RESET_B I *D sky130_fd_sc_hd__dfrtp_1
*I *8829:RESET_B I *D sky130_fd_sc_hd__dfrtp_1
*I *8830:RESET_B I *D sky130_fd_sc_hd__dfrtp_1
*I *8836:RESET_B I *D sky130_fd_sc_hd__dfrtp_1
*I *8823:RESET_B I *D sky130_fd_sc_hd__dfrtp_1
*I *8873:A I *D sky130_fd_sc_hd__buf_4
*I *8793:RESET_B I *D sky130_fd_sc_hd__dfrtp_1
*I *8851:RESET_B I *D sky130_fd_sc_hd__dfrtp_1
*I *8874:X O *D sky130_fd_sc_hd__clkbuf_8
*CAP
1 *8803:RESET_B 3.25553e-05
2 *8843:RESET_B 0.001512
3 *8813:RESET_B 0.000186385
4 *8829:RESET_B 7.45093e-06
5 *8830:RESET_B 3.61994e-06
6 *8836:RESET_B 4.97478e-06
7 *8823:RESET_B 0.00045868
8 *8873:A 0.00188015
9 *8793:RESET_B 0.00201267
10 *8851:RESET_B 0.000137254
11 *8874:X 7.66672e-05
12 *514:141 0.00215663
13 *514:127 0.00170605
14 *514:113 0.00255216
15 *514:99 0.00313768
16 *514:95 0.00560527
17 *514:93 0.00381408
18 *514:78 0.00145329
19 *514:55 0.00270255
20 *514:24 0.00235315
21 *514:8 0.00038142
22 *8813:RESET_B *542:8 0
23 *8813:RESET_B *551:36 0.000216452
24 *8843:RESET_B *8739:A0 1.34503e-05
25 *8843:RESET_B *551:36 0.000412509
26 *8851:RESET_B *516:10 1.88904e-05
27 *8851:RESET_B *516:18 5.11148e-06
28 *8851:RESET_B *516:61 0.000150299
29 *8851:RESET_B *568:22 9.30787e-05
30 *8873:A *8650:A 2.05056e-05
31 *8873:A *8650:C_N 0.000921596
32 *8873:A *8730:A0 0.000502803
33 *8873:A *8872:A 1.19928e-05
34 *8873:A *516:22 1.19928e-05
35 *514:24 *568:22 0.000102557
36 *514:93 *545:16 0.000156091
37 *514:113 *551:20 0.000252547
38 *514:141 *551:36 0.00039636
39 m_rdata[10] *514:78 2.47216e-05
40 *8656:A1 *8793:RESET_B 5.80887e-05
41 *8656:A1 *514:55 1.94777e-05
42 *8679:A *8823:RESET_B 5.16418e-05
43 *8763:A *8843:RESET_B 0
44 *8764:S *8843:RESET_B 7.06865e-05
45 *8778:A1 *8851:RESET_B 0.000333503
46 *8778:A1 *514:8 4.66108e-05
47 *8778:S *8873:A 0.00179746
48 *8793:D *514:55 0
49 *8803:CLK *8823:RESET_B 7.34286e-05
50 *8803:CLK *514:93 5.30478e-05
51 *8803:D *8823:RESET_B 0.000198939
52 *8813:D *8813:RESET_B 5.83121e-06
53 *8823:D *514:95 4.94404e-05
54 *8829:CLK *8829:RESET_B 1.81788e-05
55 *8829:CLK *514:141 0.000294985
56 *8830:CLK *8829:RESET_B 1.08758e-05
57 *8830:CLK *514:127 0.00124355
58 *8830:D *514:127 0.00012657
59 *8857:A *8836:RESET_B 1.53577e-05
60 *8857:A *514:99 0.000119964
61 *8857:A *514:113 8.02217e-05
62 *8859:A *514:95 0.00137403
63 *9020:A *8793:RESET_B 0.00227908
64 *9058:A *514:99 0.000874092
65 *9082:A *8830:RESET_B 2.65337e-05
66 *9082:A *514:113 9.91257e-05
67 *9082:A *514:127 0.000198812
68 *310:10 *8873:A 1.9415e-05
69 *321:126 *8873:A 0.000123225
70 *390:44 *8813:RESET_B 0.000155397
71 *391:28 *514:55 0.000279787
72 *391:41 *514:55 0.000161271
73 *391:123 *514:113 0.000294705
74 *391:127 *514:113 0.000165742
75 *393:12 *514:55 0
76 *394:25 *8851:RESET_B 7.21296e-06
77 *394:25 *514:24 0.000379306
78 *394:25 *514:78 0.000164679
79 *412:40 *514:78 0.000185398
80 *418:20 *8851:RESET_B 2.20753e-05
81 *418:28 *514:78 0.00132387
82 *423:22 *514:78 4.66798e-05
83 *432:8 *514:78 7.27298e-06
84 *437:18 *8851:RESET_B 4.84393e-05
85 *446:23 *8843:RESET_B 3.68862e-05
86 *471:35 *514:24 0.00020613
87 *471:35 *514:78 0.00178273
88 *480:12 *8843:RESET_B 0.000158066
89 *480:22 *8843:RESET_B 1.16578e-05
90 *512:14 *8873:A 0.000353831
91 *513:6 *8873:A 3.1835e-05
92 *513:12 *8873:A 1.83756e-05
*RES
1 *8874:X *514:8 4.74 
2 *514:8 *8851:RESET_B 6.5825 
3 *514:8 *514:24 5.34 
4 *514:24 *8793:RESET_B 27.7175 
5 *8793:RESET_B *514:55 16.6225 
6 *514:55 *8873:A 38.545 
7 *514:24 *514:78 35.22 
8 *514:78 *8823:RESET_B 10.375 
9 *8823:RESET_B *514:93 3.4325 
10 *514:93 *514:95 62.58 
11 *514:95 *514:99 32.465 
12 *514:99 *8836:RESET_B 0.3975 
13 *514:99 *514:113 19.905 
14 *514:113 *8830:RESET_B 0.3975 
15 *514:113 *514:127 19.905 
16 *514:127 *8829:RESET_B 0.3975 
17 *514:127 *514:141 8.6925 
18 *514:141 *8813:RESET_B 8.815 
19 *514:141 *8843:RESET_B 24.2875 
20 *514:78 *8803:RESET_B 0.7575 
*END

*D_NET *515 0.0233125
*CONN
*I *8716:A0 I *D sky130_fd_sc_hd__mux2_1
*I *8901:X O *D sky130_fd_sc_hd__clkbuf_2
*CAP
1 *8716:A0 0.00103805
2 *8901:X 0
3 *515:12 0.00382368
4 *515:6 0.00892314
5 *515:4 0.00613752
6 *8716:A0 *526:34 1.94636e-05
7 *8606:A *515:12 0.00015956
8 *8719:A *8716:A0 0.000288957
9 *8727:A *8716:A0 3.35901e-05
10 *8730:S *8716:A0 0
11 *8822:D *8716:A0 0.000291358
12 *344:84 *8716:A0 0.0017879
13 *396:8 *515:12 0.00080926
14 *483:10 *8716:A0 0
*RES
1 *8901:X *515:4 1.6 
2 *515:4 *515:6 92.0475 
3 *515:6 *515:12 45.4175 
4 *515:12 *8716:A0 30.225 
*END

*D_NET *516 0.0248299
*CONN
*I *8802:RESET_B I *D sky130_fd_sc_hd__dfrtp_2
*I *8807:RESET_B I *D sky130_fd_sc_hd__dfrtp_1
*I *8874:A I *D sky130_fd_sc_hd__clkbuf_8
*I *8792:RESET_B I *D sky130_fd_sc_hd__dfrtp_1
*I *8853:RESET_B I *D sky130_fd_sc_hd__dfrtp_1
*I *8872:A I *D sky130_fd_sc_hd__clkbuf_4
*I *8875:X O *D sky130_fd_sc_hd__clkbuf_4
*CAP
1 *8802:RESET_B 0.000495712
2 *8807:RESET_B 0.000966379
3 *8874:A 0
4 *8792:RESET_B 0.00026638
5 *8853:RESET_B 0.00276666
6 *8872:A 0.000100426
7 *8875:X 4.33842e-05
8 *516:61 0.00188781
9 *516:22 0.00295433
10 *516:20 0.0027738
11 *516:18 0.00265012
12 *516:10 0.000699042
13 *8792:RESET_B *8578:B_N 3.67779e-05
14 *8792:RESET_B *8650:A 0
15 *8792:RESET_B *613:29 2.23407e-05
16 *8792:RESET_B *614:10 0.000131868
17 *8792:RESET_B *614:25 6.73991e-05
18 *8807:RESET_B *8686:A0 0
19 *8853:RESET_B *8650:A 2.92496e-05
20 *8853:RESET_B *8650:B 0
21 *8853:RESET_B *563:10 0
22 *8872:A *8650:A 0.000163199
23 *516:10 *547:16 2.49909e-05
24 *8687:A *8807:RESET_B 0
25 *8778:A1 *516:18 7.49327e-05
26 *8778:A1 *516:20 0.000164874
27 *8778:A1 *516:61 7.12228e-06
28 *8778:S *516:20 0.00297869
29 *8783:A *8853:RESET_B 0
30 *8851:RESET_B *516:10 1.88904e-05
31 *8851:RESET_B *516:18 5.11148e-06
32 *8851:RESET_B *516:61 0.000150299
33 *8873:A *8872:A 1.19928e-05
34 *8873:A *516:22 1.19928e-05
35 *275:22 *8792:RESET_B 0.000154658
36 *321:14 *8792:RESET_B 0
37 *321:126 *8792:RESET_B 4.19967e-05
38 *321:126 *8853:RESET_B 5.4003e-05
39 *321:126 *516:20 5.83121e-06
40 *321:126 *516:22 7.10578e-05
41 *321:132 *8853:RESET_B 0
42 *321:142 *8853:RESET_B 0
43 *389:117 *8802:RESET_B 0.000918288
44 *391:12 *8853:RESET_B 0
45 *391:20 *8853:RESET_B 5.23585e-05
46 *408:16 *8792:RESET_B 0
47 *412:14 *8802:RESET_B 0.00042248
48 *437:18 *516:18 0.000179008
49 *465:23 *8802:RESET_B 0.0020333
50 *490:10 *8807:RESET_B 0.00101535
51 *490:10 *516:61 0.000377779
*RES
1 *8875:X *516:10 4.2825 
2 *516:10 *516:18 6.1175 
3 *516:18 *516:20 46.335 
4 *516:20 *516:22 1.485 
5 *516:22 *8872:A 3.43 
6 *516:22 *8853:RESET_B 49.6975 
7 *516:20 *8792:RESET_B 9.46 
8 *516:18 *8874:A 1.6 
9 *516:10 *516:61 9.6675 
10 *516:61 *8807:RESET_B 23.06 
11 *516:61 *8802:RESET_B 21.7325 
*END

*D_NET *517 0.000830962
*CONN
*I *8734:A1 I *D sky130_fd_sc_hd__mux2_1
*I *8876:X O *D sky130_fd_sc_hd__dlygate4sd3_1
*CAP
1 *8734:A1 0.000201546
2 *8876:X 0.000201546
3 *8734:A1 *8734:A0 0.00042787
*RES
1 *8876:X *8734:A1 7.1 
*END

*D_NET *518 0.001066
*CONN
*I *8720:A1 I *D sky130_fd_sc_hd__mux2_1
*I *8879:X O *D sky130_fd_sc_hd__dlygate4sd3_1
*CAP
1 *8720:A1 0.000299912
2 *8879:X 0.000299912
3 *8720:A1 *8720:A0 0.000466175
*RES
1 *8879:X *8720:A1 7.445 
*END

*D_NET *519 0.000915636
*CONN
*I *8764:A1 I *D sky130_fd_sc_hd__mux2_1
*I *8880:X O *D sky130_fd_sc_hd__dlygate4sd3_1
*CAP
1 *8764:A1 0.000249879
2 *8880:X 0.000249879
3 *8764:A1 *570:24 0.000201503
4 *8764:S *8764:A1 4.40446e-05
5 *8880:A *8764:A1 1.56428e-05
6 *9066:A *8764:A1 6.32842e-05
7 *482:10 *8764:A1 9.14049e-05
8 *487:26 *8764:A1 0
*RES
1 *8880:X *8764:A1 11.985 
*END

*D_NET *520 0.0017162
*CONN
*I *8658:A1 I *D sky130_fd_sc_hd__mux2_1
*I *8881:X O *D sky130_fd_sc_hd__dlygate4sd3_1
*CAP
1 *8658:A1 0.000807965
2 *8881:X 0.000807965
3 *8658:S *8658:A1 7.35729e-05
4 *9046:A *8658:A1 0
5 *296:149 *8658:A1 2.67022e-05
*RES
1 *8881:X *8658:A1 16.725 
*END

*D_NET *521 0.000752653
*CONN
*I *8699:A1 I *D sky130_fd_sc_hd__mux2_1
*I *8882:X O *D sky130_fd_sc_hd__dlygate4sd3_1
*CAP
1 *8699:A1 0.000311875
2 *8882:X 0.000311875
3 *8699:A0 *8699:A1 7.54285e-05
4 *8882:A *8699:A1 5.34747e-05
*RES
1 *8882:X *8699:A1 7.1 
*END

*D_NET *522 0.000197062
*CONN
*I *8580:A I *D sky130_fd_sc_hd__or2b_1
*I *8883:X O *D sky130_fd_sc_hd__dlygate4sd3_1
*CAP
1 *8580:A 5.43981e-05
2 *8883:X 5.43981e-05
3 *418:8 *8580:A 8.8266e-05
*RES
1 *8883:X *8580:A 3.995 
*END

*D_NET *523 0.000757772
*CONN
*I *8678:A1 I *D sky130_fd_sc_hd__mux2_1
*I *8884:X O *D sky130_fd_sc_hd__dlygate4sd3_1
*CAP
1 *8678:A1 0.000209576
2 *8884:X 0.000209576
3 *8678:A0 *8678:A1 0.000164352
4 *8678:S *8678:A1 4.99619e-05
5 *8884:A *8678:A1 0.000120655
6 *412:26 *8678:A1 3.64998e-06
*RES
1 *8884:X *8678:A1 7.445 
*END

*D_NET *524 0.000885828
*CONN
*I *8774:A1 I *D sky130_fd_sc_hd__mux2_1
*I *8885:X O *D sky130_fd_sc_hd__dlygate4sd3_1
*CAP
1 *8774:A1 0.000122027
2 *8885:X 0.000122027
3 *8774:A1 *600:6 0.000280444
4 *8774:S *8774:A1 4.89395e-05
5 *8885:A *8774:A1 0.000232442
6 *366:51 *8774:A1 7.99484e-05
*RES
1 *8885:X *8774:A1 7.79 
*END

*D_NET *525 0.00150832
*CONN
*I *8664:A1 I *D sky130_fd_sc_hd__mux2_1
*I *8886:X O *D sky130_fd_sc_hd__dlygate4sd3_1
*CAP
1 *8664:A1 0.000434038
2 *8886:X 0.000434038
3 *8658:S *8664:A1 1.61831e-05
4 *8664:S *8664:A1 0
5 *8797:RESET_B *8664:A1 4.82919e-05
6 *8886:A *8664:A1 4.82919e-05
7 *9046:A *8664:A1 1.70935e-05
8 *311:114 *8664:A1 0.000168213
9 *509:102 *8664:A1 0.000342174
*RES
1 *8886:X *8664:A1 16.47 
*END

*D_NET *526 0.0394596
*CONN
*I *8718:A0 I *D sky130_fd_sc_hd__mux2_1
*I *8902:X O *D sky130_fd_sc_hd__buf_2
*CAP
1 *8718:A0 0
2 *8902:X 0.00144645
3 *526:34 0.00475045
4 *526:32 0.00519935
5 *526:26 0.00614797
6 *526:24 0.0071953
7 *526:20 0.00294268
8 *526:20 *594:12 0.000234813
9 *526:26 *548:22 0.000599431
10 *526:26 *548:28 0.000686993
11 m_rdata[0] *526:26 0.000239813
12 m_rdata[12] *526:26 0.000239813
13 m_rdata[23] *526:24 0.00012657
14 m_rdata[5] *526:26 0.000431333
15 m_rdata[6] *526:24 0.00012657
16 m_rdata[8] *526:20 0.000203178
17 paddr[1] *526:24 0.00012657
18 paddr[20] *526:32 8.53113e-06
19 paddr[22] *526:26 0.000239813
20 paddr[3] *526:20 8.52883e-05
21 paddr[4] *526:24 0.00012657
22 pwdata[18] *526:20 0.00016436
23 pwdata[19] *526:26 0.000239813
24 pwdata[7] *526:24 0.00012657
25 *8716:A0 *526:34 1.94636e-05
26 *8730:S *526:34 5.39961e-05
27 *8878:A *526:32 0
28 *8882:A *526:34 0
29 *8891:A *526:24 8.8266e-05
30 *8903:A *526:26 3.00381e-05
31 *8909:A *526:26 3.00381e-05
32 *8916:A *526:26 3.00381e-05
33 *8920:A *526:26 3.00381e-05
34 *8926:A *526:20 0.000101218
35 *8941:A *526:26 3.00381e-05
36 *8944:A *526:20 4.82919e-05
37 *8947:A *526:26 0.0001249
38 *8952:A *526:26 3.00381e-05
39 *8961:A *526:26 4.77757e-05
40 *8968:A *526:20 0.000241483
41 *8976:A *526:26 8.65961e-05
42 *8987:A *526:26 8.96017e-05
43 *8993:A *526:20 0.00100076
44 *9001:A *526:26 0.0003691
45 *9015:A *526:24 0.000261528
46 *9032:A *526:32 0.00072223
47 *9032:A *526:34 2.85345e-06
48 *9085:A *526:24 0.00124021
49 *344:84 *526:34 0.00139534
50 *344:101 *526:34 0.000157341
51 *344:109 *526:32 0
52 *390:14 *526:34 0
53 *390:38 *526:32 0
54 *390:38 *526:34 0
55 *390:79 *526:32 0
56 *458:33 *526:20 0.000162318
57 *502:31 *526:24 1.60083e-05
58 *502:31 *526:26 0.00136186
*RES
1 *8902:X *526:20 35.51 
2 *526:20 *526:24 30.3075 
3 *526:24 *526:26 77.9025 
4 *526:26 *526:32 11.4125 
5 *526:32 *526:34 88.1475 
6 *526:34 *8718:A0 3.6 
*END

*D_NET *527 0.00145397
*CONN
*I *8666:A1 I *D sky130_fd_sc_hd__mux2_1
*I *8877:X O *D sky130_fd_sc_hd__dlygate4sd3_1
*CAP
1 *8666:A1 0.000470688
2 *8877:X 0.000470688
3 *8666:A1 *8666:A0 2.76356e-05
4 *8641:A *8666:A1 6.77417e-05
5 *8877:A *8666:A1 0.000234674
6 *296:63 *8666:A1 2.10134e-05
7 *416:20 *8666:A1 0.000161529
*RES
1 *8877:X *8666:A1 10.91 
*END

*D_NET *528 0.000783697
*CONN
*I *8732:A1 I *D sky130_fd_sc_hd__mux2_1
*I *8878:X O *D sky130_fd_sc_hd__dlygate4sd3_1
*CAP
1 *8732:A1 0.000292529
2 *8878:X 0.000292529
3 *8734:S *8732:A1 0.000125293
4 *8747:S *8732:A1 2.50602e-05
5 *8878:A *8732:A1 4.82863e-05
*RES
1 *8878:X *8732:A1 7.1 
*END

*D_NET *529 0.012559
*CONN
*I *8660:A0 I *D sky130_fd_sc_hd__mux2_1
*I *8903:X O *D sky130_fd_sc_hd__buf_1
*CAP
1 *8660:A0 0.00010544
2 *8903:X 0
3 *529:8 0.00612349
4 *529:6 0.00601805
5 m_ready *529:8 0
6 *8660:A1 *8660:A0 4.99619e-05
7 *8660:S *529:8 0
8 *8862:A *529:8 0.000146568
9 *311:110 *529:8 0
10 *404:16 *8660:A0 0.000115474
*RES
1 *8903:X *529:6 3.6 
2 *529:6 *529:8 99.555 
3 *529:8 *8660:A0 6.12 
*END

*D_NET *530 0.0133683
*CONN
*I *8720:A0 I *D sky130_fd_sc_hd__mux2_1
*I *8904:X O *D sky130_fd_sc_hd__buf_1
*CAP
1 *8720:A0 0.00147382
2 *8904:X 0.0012797
3 *530:18 0.00275352
4 *8720:A0 *585:16 0.00190434
5 *530:18 *585:12 0
6 m_rdata[24] *530:18 0.000106344
7 m_rdata[29] *530:18 1.88656e-05
8 m_rdata[4] *530:18 1.17114e-05
9 *8720:A1 *8720:A0 0.000466175
10 *8879:A *8720:A0 0.000122325
11 *8904:A *530:18 4.40358e-05
12 *8959:A *530:18 2.37037e-05
13 *8965:A *8720:A0 5.83121e-06
14 *9008:A *530:18 0.00180433
15 *9013:A *530:18 0.00114558
16 *344:88 *8720:A0 5.30673e-05
17 *412:40 *530:18 0.000874672
18 *423:22 *530:18 0.00128028
19 *471:35 *530:18 0
*RES
1 *8904:X *530:18 49.07 
2 *530:18 *8720:A0 38.135 
*END

*D_NET *531 0.0193676
*CONN
*I *8722:A0 I *D sky130_fd_sc_hd__mux2_1
*I *8905:X O *D sky130_fd_sc_hd__buf_1
*CAP
1 *8722:A0 0.000314162
2 *8905:X 8.46232e-05
3 *531:14 0.00197573
4 *531:12 0.00174619
5 *531:12 *598:24 7.23533e-05
6 *531:14 *537:20 6.07328e-05
7 *531:14 *557:14 0.00271074
8 *531:14 *598:24 0.000998199
9 *8824:D *8722:A0 0
10 *8911:A *8722:A0 0
11 *9030:A *531:14 0.000336489
12 *9078:A *531:14 0.00251755
13 *416:20 *531:14 0.000565493
14 *416:28 *531:14 0.000235568
15 *448:16 *531:14 6.47326e-05
16 *448:20 *531:14 0.00198385
17 *451:32 *531:14 0.000541118
18 *462:22 *531:14 0.00244261
19 *477:34 *531:14 0.000641533
20 *477:36 *531:14 0.0020647
21 *495:16 *8722:A0 0
22 *495:16 *531:14 1.12578e-05
*RES
1 *8905:X *531:12 7.085 
2 *531:12 *531:14 79.8 
3 *531:14 *8722:A0 9.785 
*END

*D_NET *532 0.0146999
*CONN
*I *8662:A0 I *D sky130_fd_sc_hd__mux2_1
*I *8906:X O *D sky130_fd_sc_hd__buf_1
*CAP
1 *8662:A0 5.75308e-05
2 *8906:X 4.78565e-05
3 *532:10 0.00513102
4 *532:8 0.00512135
5 *532:8 *8666:A0 0.000394699
6 *532:10 *598:38 0
7 *8694:A *532:10 0.000759851
8 *311:86 *8662:A0 0.000121023
9 *311:86 *532:10 0
10 *321:48 *532:10 0.00248699
11 *383:26 *532:10 0.000186493
12 *462:10 *532:10 0
13 *484:28 *532:8 0.000393029
*RES
1 *8906:X *532:8 7.155 
2 *532:8 *532:10 103.89 
3 *532:10 *8662:A0 4.74 
*END

*D_NET *533 0.00775264
*CONN
*I *8664:A0 I *D sky130_fd_sc_hd__mux2_1
*I *8907:X O *D sky130_fd_sc_hd__clkbuf_1
*CAP
1 *8664:A0 0
2 *8907:X 0.00387632
3 *533:16 0.00387632
4 *386:65 *533:16 0
*RES
1 *8907:X *533:16 48.425 
2 *533:16 *8664:A0 1.6 
*END

*D_NET *534 0.00741803
*CONN
*I *8666:A0 I *D sky130_fd_sc_hd__mux2_1
*I *8908:X O *D sky130_fd_sc_hd__buf_1
*CAP
1 *8666:A0 0.00110948
2 *8908:X 0.00110948
3 *8666:A0 *8624:A 0.000933531
4 *8666:A0 *8768:A0 4.99619e-05
5 *8666:A0 *576:22 0
6 *8666:A0 *606:12 5.78094e-05
7 *8625:A *8666:A0 3.64998e-06
8 *8666:A1 *8666:A0 2.76356e-05
9 *8670:S *8666:A0 0.000353534
10 *8798:RESET_B *8666:A0 4.40812e-05
11 *8929:A *8666:A0 0.0001249
12 *8994:A *8666:A0 0.000275553
13 *9072:A *8666:A0 0
14 *9078:A *8666:A0 0.00047203
15 *296:63 *8666:A0 0.000119756
16 *311:163 *8666:A0 5.39961e-05
17 *484:26 *8666:A0 0.00108155
18 *484:28 *8666:A0 0.00120638
19 *532:8 *8666:A0 0.000394699
*RES
1 *8908:X *8666:A0 47.025 
*END

*D_NET *535 0.0132315
*CONN
*I *8668:A0 I *D sky130_fd_sc_hd__mux2_1
*I *8909:X O *D sky130_fd_sc_hd__buf_1
*CAP
1 *8668:A0 0
2 *8909:X 0.000269932
3 *535:10 0.00436042
4 *535:8 0.00463035
5 *8694:A *535:10 0
6 *8796:RESET_B *535:10 3.89528e-05
7 *9015:A *535:8 0.000431333
8 *395:8 *535:10 0.00341267
9 *405:12 *535:10 8.78735e-05
*RES
1 *8909:X *535:8 7.5 
2 *535:8 *535:10 96.75 
3 *535:10 *8668:A0 3.6 
*END

*D_NET *536 0.0154466
*CONN
*I *8680:A0 I *D sky130_fd_sc_hd__mux2_1
*I *8910:X O *D sky130_fd_sc_hd__buf_1
*CAP
1 *8680:A0 0.00223764
2 *8910:X 0.00326346
3 *536:12 0.00324
4 *536:8 0.00426582
5 *8680:A1 *8680:A0 0.00019637
6 *8910:A *536:8 4.66826e-05
7 *393:12 *536:12 0.00219658
*RES
1 *8910:X *536:8 39.24 
2 *536:8 *536:12 27.095 
3 *536:12 *8680:A0 34.825 
*END

*D_NET *537 0.0098632
*CONN
*I *8670:A0 I *D sky130_fd_sc_hd__mux2_1
*I *8911:X O *D sky130_fd_sc_hd__clkbuf_1
*CAP
1 *8670:A0 4.02655e-05
2 *8911:X 0.0027681
3 *537:20 0.00280836
4 *537:20 *557:14 0.00270483
5 *537:20 *557:18 0.000134238
6 *8670:S *537:20 0.000141323
7 *8671:A *8670:A0 2.34602e-05
8 *8798:CLK *8670:A0 0
9 *8798:CLK *537:20 3.54025e-05
10 *8911:A *537:20 7.23602e-05
11 *9030:A *537:20 0.000230443
12 *416:20 *537:20 0.000248453
13 *416:28 *537:20 0.000423637
14 *435:28 *537:20 1.61428e-05
15 *484:26 *537:20 0.000155444
16 *531:14 *537:20 6.07328e-05
*RES
1 *8911:X *537:20 49.815 
2 *537:20 *8670:A0 2.47 
*END

*D_NET *538 0.0284829
*CONN
*I *8674:A0 I *D sky130_fd_sc_hd__mux2_1
*I *8912:X O *D sky130_fd_sc_hd__clkbuf_2
*CAP
1 *8674:A0 0
2 *8912:X 9.74346e-05
3 *538:12 0.0128401
4 *538:10 0.0129375
5 *538:10 *609:10 0.000455284
6 *8675:A *538:12 9.91257e-05
7 *8991:A *538:12 0.00159647
8 *9087:A *538:10 0.000456951
*RES
1 *8912:X *538:10 10.805 
2 *538:10 *538:12 144.315 
3 *538:12 *8674:A0 1.6 
*END

*D_NET *539 0.0139762
*CONN
*I *8676:A0 I *D sky130_fd_sc_hd__mux2_1
*I *8913:X O *D sky130_fd_sc_hd__buf_1
*CAP
1 *8676:A0 0.000178035
2 *8913:X 0
3 *539:12 0.0031062
4 *539:8 0.00651134
5 *539:6 0.00358317
6 *8613:B *539:12 0
7 *8656:A1 *539:12 0
8 *8657:A *539:12 0.000293032
9 *8677:A *8676:A0 9.91257e-05
10 *8793:D *539:12 9.47454e-05
11 *391:41 *539:12 0
12 *392:16 *539:8 0
13 *392:16 *539:12 0
14 *423:16 *8676:A0 0.000110558
*RES
1 *8913:X *539:6 3.6 
2 *539:6 *539:8 59.4375 
3 *539:8 *539:12 48.8325 
4 *539:12 *8676:A0 7.5 
*END

*D_NET *540 0.0136855
*CONN
*I *8650:C_N I *D sky130_fd_sc_hd__or3b_2
*I *8914:X O *D sky130_fd_sc_hd__buf_1
*CAP
1 *8650:C_N 0.000341696
2 *8914:X 0
3 *540:8 0.00637114
4 *540:6 0.00602944
5 *540:8 *8730:A0 0
6 *540:8 *591:14 0
7 *8830:D *540:8 0
8 *8867:A *540:8 1.79536e-05
9 *8873:A *8650:C_N 0.000921596
10 *285:20 *540:8 0
11 *310:10 *8650:C_N 3.64998e-06
*RES
1 *8914:X *540:6 3.6 
2 *540:6 *540:8 99.3 
3 *540:8 *8650:C_N 11.985 
*END

*D_NET *541 0.0303994
*CONN
*I *8724:A0 I *D sky130_fd_sc_hd__mux2_1
*I *8915:X O *D sky130_fd_sc_hd__clkbuf_2
*CAP
1 *8724:A0 0
2 *8915:X 0.00144211
3 *541:14 0.00284644
4 *541:10 0.0134066
5 *541:8 0.0120023
6 *8865:A *541:14 0.00065299
7 *321:34 *541:14 4.90406e-05
8 *344:18 *541:14 0
9 *388:8 *541:14 0
*RES
1 *8915:X *541:8 21.5575 
2 *541:8 *541:10 114.473 
3 *541:10 *541:14 49.025 
4 *541:14 *8724:A0 3.6 
*END

*D_NET *542 0.0124116
*CONN
*I *8745:A0 I *D sky130_fd_sc_hd__mux2_1
*I *8916:X O *D sky130_fd_sc_hd__buf_1
*CAP
1 *8745:A0 0.000179509
2 *8916:X 0
3 *542:8 0.00599469
4 *542:6 0.00581518
5 *542:8 *567:10 0
6 *8711:A0 *8745:A0 0.000275124
7 *8788:A1 *542:8 9.07342e-05
8 *8789:A *542:8 0
9 *8813:D *542:8 0
10 *8813:RESET_B *542:8 0
11 *8856:D *542:8 0
12 *8856:RESET_B *542:8 0
13 *497:12 *542:8 5.63318e-05
14 *513:46 *542:8 0
*RES
1 *8916:X *542:6 3.6 
2 *542:6 *542:8 96.75 
3 *542:8 *8745:A0 6.12 
*END

*D_NET *543 0.000555339
*CONN
*I *8747:A0 I *D sky130_fd_sc_hd__mux2_1
*I *8917:X O *D sky130_fd_sc_hd__clkbuf_1
*CAP
1 *8747:A0 0.000241174
2 *8917:X 0.000241174
3 *8747:A0 *551:20 0
4 *8747:A0 *571:28 2.30292e-05
5 *8747:A1 *8747:A0 4.99619e-05
*RES
1 *8917:X *8747:A0 10.905 
*END

*D_NET *544 0.0019328
*CONN
*I *8749:A0 I *D sky130_fd_sc_hd__mux2_1
*I *8918:X O *D sky130_fd_sc_hd__clkbuf_1
*CAP
1 *8749:A0 0.000875913
2 *8918:X 0.000875913
3 *8749:A0 *8603:A 0
4 *8749:A0 *8607:A 0
5 *8749:A0 *609:10 0
6 *8599:A *8749:A0 0.000131772
7 *8918:A *8749:A0 4.92062e-05
8 *427:16 *8749:A0 0
9 *506:20 *8749:A0 0
*RES
1 *8918:X *8749:A0 19.785 
*END

*D_NET *545 0.0274725
*CONN
*I *8751:A0 I *D sky130_fd_sc_hd__mux2_1
*I *8919:X O *D sky130_fd_sc_hd__clkbuf_2
*CAP
1 *8751:A0 0.0012949
2 *8919:X 0.00260249
3 *545:16 0.00802654
4 *545:14 0.00818834
5 *545:10 0.00405919
6 *545:10 *568:10 0
7 *545:10 *568:14 0
8 *545:10 *596:10 0
9 *545:14 *568:14 0
10 *8751:A1 *8751:A0 3.00381e-05
11 *8803:CLK *545:16 1.97985e-05
12 *8823:CLK *545:16 0.00178901
13 *8823:D *545:16 4.82919e-05
14 *8838:CLK *8751:A0 0.000959007
15 *8879:A *545:14 0.000112123
16 *8942:A *545:10 7.81876e-05
17 *8970:A *545:10 6.4368e-05
18 *392:14 *545:10 4.40899e-05
19 *471:35 *545:10 0
20 *514:93 *545:16 0.000156091
*RES
1 *8919:X *545:10 48.3075 
2 *545:10 *545:14 26.3825 
3 *545:14 *545:16 81.0075 
4 *545:16 *8751:A0 23.6275 
*END

*D_NET *546 0.0173891
*CONN
*I *8753:A0 I *D sky130_fd_sc_hd__mux2_1
*I *8920:X O *D sky130_fd_sc_hd__buf_1
*CAP
1 *8753:A0 0.00194344
2 *8920:X 0
3 *546:8 0.00583819
4 *546:6 0.00389475
5 *8712:A *8753:A0 0.000426206
6 *8819:D *8753:A0 0.000313857
7 *355:73 *8753:A0 0.000219333
8 *405:14 *8753:A0 0.000285123
9 *410:8 *546:8 0.00446817
10 *424:12 *546:8 0
*RES
1 *8920:X *546:6 3.6 
2 *546:6 *546:8 90.63 
3 *546:8 *8753:A0 31.5 
*END

*D_NET *547 0.0148022
*CONN
*I *8682:A0 I *D sky130_fd_sc_hd__mux2_1
*I *8921:X O *D sky130_fd_sc_hd__buf_1
*CAP
1 *8682:A0 0.00209335
2 *8921:X 0.000967976
3 *547:16 0.00306133
4 *8682:A0 *568:24 0.000529179
5 *547:16 *568:24 0.00115755
6 *8581:B *8682:A0 0.000353049
7 *8651:A *8682:A0 0.000266113
8 *8682:A1 *8682:A0 4.82919e-05
9 *8779:A *547:16 8.8266e-05
10 *8875:A *547:16 0.00019637
11 *8921:A *547:16 4.16353e-05
12 *273:8 *8682:A0 0
13 *275:22 *8682:A0 3.1562e-06
14 *311:36 *8682:A0 0.000266729
15 *311:58 *8682:A0 0.000631294
16 *418:8 *8682:A0 0.000644866
17 *418:20 *547:16 5.83121e-06
18 *437:18 *547:16 0.00195934
19 *437:26 *8682:A0 0.00193114
20 *437:26 *547:16 0.000523183
21 *469:10 *8682:A0 8.53113e-06
22 *516:10 *547:16 2.49909e-05
*RES
1 *8921:X *547:16 34.6375 
2 *547:16 *8682:A0 48.4475 
*END

*D_NET *548 0.032194
*CONN
*I *8755:A0 I *D sky130_fd_sc_hd__mux2_1
*I *8922:X O *D sky130_fd_sc_hd__clkbuf_2
*CAP
1 *8755:A0 0
2 *8922:X 0.001522
3 *548:34 0.00256036
4 *548:32 0.00453582
5 *548:28 0.00333041
6 *548:22 0.00492863
7 *548:20 0.00509567
8 *548:20 *608:14 4.7242e-05
9 *548:22 *551:20 0.000340245
10 *548:22 *563:8 9.43648e-05
11 *548:28 *567:8 0.000316415
12 m_rdata[20] *548:22 0.00012657
13 m_rdata[30] *548:22 0.00012657
14 paddr[20] *548:22 0.00012657
15 paddr[22] *548:28 4.7101e-05
16 pwdata[22] *548:22 8.8266e-05
17 pwdata[25] *548:22 0.00012657
18 pwdata[4] *548:22 0.00012657
19 pwdata[5] *548:22 0.00012657
20 *8699:A0 *548:22 6.36594e-05
21 *8832:D *548:32 0
22 *8832:RESET_B *548:32 0.000144537
23 *8838:RESET_B *548:34 0
24 *8892:A *548:22 0.0001249
25 *8913:A *548:22 4.82919e-05
26 *8914:A *548:22 4.82919e-05
27 *8916:A *548:28 3.00381e-05
28 *8917:A *548:22 0.0001249
29 *8922:A *548:20 2.11084e-05
30 *8925:A *548:22 4.82919e-05
31 *8937:A *548:22 4.82919e-05
32 *8941:A *548:28 3.00381e-05
33 *8942:A *548:20 3.45679e-05
34 *8945:A *548:20 8.80664e-05
35 *8947:A *548:28 5.34747e-05
36 *8952:A *548:28 2.16917e-05
37 *8961:A *548:28 2.84397e-05
38 *8971:A *548:22 4.82919e-05
39 *8992:A *548:20 0.000388784
40 *9010:A *548:22 0.000620843
41 *9032:A *548:22 0.000160635
42 *9034:A *548:28 7.35729e-05
43 *9052:A *548:20 0.00013521
44 *9058:A *548:20 0.000353049
45 *9066:A *548:32 4.83411e-05
46 *9083:A *548:22 0.000239807
47 *355:73 *548:34 5.33874e-05
48 *392:14 *548:20 0.000806647
49 *425:14 *548:28 0.000199833
50 *425:14 *548:32 0
51 *482:10 *548:32 0
52 *502:31 *548:28 0.000353049
53 *508:118 *548:34 0
54 *509:12 *548:34 0
55 *509:82 *548:34 0
56 *509:84 *548:32 0.00188067
57 *509:84 *548:34 0.000920894
58 *526:26 *548:22 0.000599431
59 *526:26 *548:28 0.000686993
*RES
1 *8922:X *548:20 29.915 
2 *548:20 *548:22 63.4125 
3 *548:22 *548:28 29.3675 
4 *548:28 *548:32 44.6175 
5 *548:32 *548:34 48.8625 
6 *548:34 *8755:A0 3.6 
*END

*D_NET *549 0.0102684
*CONN
*I *8758:A0 I *D sky130_fd_sc_hd__mux2_1
*I *8923:X O *D sky130_fd_sc_hd__buf_1
*CAP
1 *8758:A0 0.000887814
2 *8923:X 1.90984e-05
3 *549:8 0.00490029
4 *549:6 0.00403157
5 *8923:A *549:6 4.00541e-06
6 *8923:A *549:8 8.57024e-05
7 *275:78 *8758:A0 0
8 *275:91 *8758:A0 0
9 *285:20 *8758:A0 0
10 *391:66 *8758:A0 0.000191582
11 *391:68 *8758:A0 0.000148381
*RES
1 *8923:X *549:6 1.96 
2 *549:6 *549:8 59.1 
3 *549:8 *8758:A0 21.515 
*END

*D_NET *550 0.0168812
*CONN
*I *8760:A0 I *D sky130_fd_sc_hd__mux2_1
*I *8924:X O *D sky130_fd_sc_hd__dlymetal6s2s_1
*CAP
1 *8760:A0 0.000890356
2 *8924:X 1.90984e-05
3 *550:8 0.00768466
4 *550:6 0.0068134
5 *8760:A0 *560:8 0.00110539
6 *8760:A1 *8760:A0 9.67081e-06
7 *8777:A *8760:A0 0
8 *8812:D *8760:A0 6.07532e-05
9 *8815:D *8760:A0 0
10 *8842:RESET_B *8760:A0 0
11 *8924:A *550:6 4.00541e-06
12 *8924:A *550:8 7.35729e-05
13 *366:32 *8760:A0 0
14 *366:99 *8760:A0 8.68042e-06
15 *476:8 *8760:A0 0
16 *479:12 *8760:A0 0.000162138
17 *511:62 *8760:A0 4.94404e-05
*RES
1 *8924:X *550:6 1.96 
2 *550:6 *550:8 99.81 
3 *550:8 *8760:A0 24.62 
*END

*D_NET *551 0.0144429
*CONN
*I *8762:A0 I *D sky130_fd_sc_hd__mux2_1
*I *8925:X O *D sky130_fd_sc_hd__buf_1
*CAP
1 *8762:A0 0
2 *8925:X 0.00185582
3 *551:36 0.00318895
4 *551:20 0.00504477
5 *551:36 *8739:A0 0.00023635
6 *8699:A0 *551:36 0
7 *8747:A0 *551:20 0
8 *8813:RESET_B *551:36 0.000216452
9 *8829:CLK *551:36 0.000273114
10 *8829:D *551:36 4.43871e-06
11 *8830:CLK *551:36 2.18022e-05
12 *8836:D *551:20 0
13 *8843:RESET_B *551:36 0.000412509
14 *8917:A *551:20 6.92504e-05
15 *9010:A *551:20 0.0001249
16 *9032:A *551:36 0
17 *9082:A *551:20 0.000278111
18 *9082:A *551:36 0.00111047
19 *391:123 *551:20 0.000166343
20 *391:127 *551:20 0.000372983
21 *408:18 *551:20 0
22 *499:6 *551:36 2.75145e-05
23 *500:10 *551:20 4.99619e-05
24 *514:113 *551:20 0.000252547
25 *514:141 *551:36 0.00039636
26 *548:22 *551:20 0.000340245
*RES
1 *8925:X *551:20 36.59 
2 *551:20 *551:36 49.885 
3 *551:36 *8762:A0 1.6 
*END

*D_NET *552 0.0143863
*CONN
*I *8764:A0 I *D sky130_fd_sc_hd__mux2_1
*I *8926:X O *D sky130_fd_sc_hd__buf_1
*CAP
1 *8764:A0 0.000632039
2 *8926:X 0.000106978
3 *552:12 0.00252586
4 *552:10 0.0020008
5 *8764:A0 *570:24 0.00160594
6 *552:12 *594:12 0.00119042
7 *8765:A *8764:A0 0.000163204
8 *8844:D *8764:A0 1.1392e-05
9 *401:14 *552:12 0.00614964
10 *410:8 *8764:A0 0
*RES
1 *8926:X *552:10 7.235 
2 *552:10 *552:12 55.65 
3 *552:12 *8764:A0 21.83 
*END

*D_NET *553 0.0191281
*CONN
*I *8726:A0 I *D sky130_fd_sc_hd__mux2_1
*I *8927:X O *D sky130_fd_sc_hd__dlymetal6s2s_1
*CAP
1 *8726:A0 0.000630356
2 *8927:X 0
3 *553:16 0.0028962
4 *553:12 0.0032851
5 *553:6 0.00400867
6 *553:4 0.00298942
7 *553:6 *8648:A 0.00318153
8 *553:12 *8648:A 3.25635e-05
9 *8649:A *553:6 6.90876e-05
10 *8649:A *553:12 0.000277223
11 *8805:CLK *8726:A0 6.06043e-05
12 *8821:RESET_B *8726:A0 0
13 *8927:A *553:6 0.00012657
14 *344:18 *8726:A0 0
15 *344:29 *8726:A0 0
16 *388:8 *553:16 0
17 *388:28 *8726:A0 0.000572455
18 *388:28 *553:16 0.000607123
19 *388:39 *8726:A0 0.000348059
20 *388:54 *8726:A0 4.31106e-05
21 *453:14 *553:16 0
*RES
1 *8927:X *553:4 1.6 
2 *553:4 *553:6 57.375 
3 *553:6 *553:12 17.645 
4 *553:12 *553:16 40.8675 
5 *553:16 *8726:A0 16.4775 
*END

*D_NET *554 0.0127461
*CONN
*I *8766:A0 I *D sky130_fd_sc_hd__mux2_1
*I *8928:X O *D sky130_fd_sc_hd__buf_1
*CAP
1 *8766:A0 0
2 *8928:X 0.001446
3 *554:28 0.00206038
4 *554:16 0.00350637
5 paddr[5] *554:28 0
6 *8928:A *554:16 5.13155e-05
7 *8954:A *554:28 0
8 *9047:A *554:28 8.67823e-05
9 *416:36 *554:16 0
10 *435:28 *554:28 0.000339321
11 *448:16 *554:16 0.00300315
12 *448:16 *554:28 0.00100936
13 *448:20 *554:28 9.27255e-06
14 *448:22 *554:28 0
15 *461:6 *554:28 2.36616e-05
16 *484:14 *554:28 0.000165925
17 *484:26 *554:28 1.91597e-05
18 *495:16 *554:28 0.00102536
*RES
1 *8928:X *554:16 40.4825 
2 *554:16 *554:28 48.7525 
3 *554:28 *8766:A0 1.6 
*END

*D_NET *555 0.000397517
*CONN
*I *8768:A0 I *D sky130_fd_sc_hd__mux2_1
*I *8929:X O *D sky130_fd_sc_hd__clkbuf_1
*CAP
1 *8768:A0 0.000140147
2 *8929:X 0.000140147
3 *8666:A0 *8768:A0 4.99619e-05
4 *450:20 *8768:A0 0
5 *484:28 *8768:A0 4.82919e-05
6 *485:14 *8768:A0 1.89685e-05
*RES
1 *8929:X *8768:A0 9.54 
*END

*D_NET *556 0.0186784
*CONN
*I *8770:A0 I *D sky130_fd_sc_hd__mux2_1
*I *8930:X O *D sky130_fd_sc_hd__dlymetal6s2s_1
*CAP
1 *8770:A0 0.00159671
2 *8930:X 0
3 *556:12 0.00304303
4 *556:6 0.00580343
5 *556:4 0.00435712
6 *8801:D *8770:A0 3.32709e-05
7 *8801:D *556:12 1.80242e-05
8 *8810:RESET_B *8770:A0 0.000367475
9 *8930:A *556:6 0.00012657
10 *322:10 *8770:A0 0.000437013
11 *322:14 *8770:A0 1.53986e-05
12 *322:43 *8770:A0 8.26527e-05
13 *322:52 *8770:A0 0.000564631
14 *322:63 *8770:A0 0.0001077
15 *344:130 *8770:A0 0
16 *344:130 *556:12 0
17 *344:138 *556:12 0
18 *389:10 *556:12 0.000852472
19 *389:18 *556:12 0.000702866
20 *389:55 *556:12 9.37275e-05
21 *421:12 *556:6 0.000476336
22 *454:31 *8770:A0 0
*RES
1 *8930:X *556:4 1.6 
2 *556:4 *556:6 67.035 
3 *556:6 *556:12 35.8325 
4 *556:12 *8770:A0 39.0225 
*END

*D_NET *557 0.0222306
*CONN
*I *8772:A0 I *D sky130_fd_sc_hd__mux2_1
*I *8931:X O *D sky130_fd_sc_hd__buf_1
*CAP
1 *8772:A0 0
2 *8931:X 0.000417222
3 *557:20 0.00204361
4 *557:18 0.00359041
5 *557:14 0.00196403
6 *557:18 *610:16 0.000467884
7 *557:20 *610:26 0.00132148
8 *8586:B *557:20 0.00252093
9 *8587:A *557:20 7.23602e-05
10 *8601:A *557:20 1.79483e-05
11 *8641:A *557:18 0
12 *8931:A *557:14 4.80085e-05
13 *8934:A *557:18 0
14 *9030:A *557:14 0.000329508
15 *296:57 *557:18 0
16 *296:63 *557:18 0
17 *366:45 *557:20 0
18 *366:49 *557:18 0.00243924
19 *366:49 *557:20 0.000894866
20 *416:20 *557:14 7.9642e-06
21 *416:20 *557:18 0.000160715
22 *430:42 *557:20 0.000148275
23 *430:123 *557:20 0.000117884
24 *487:12 *557:20 7.4027e-05
25 *495:16 *557:14 4.44131e-05
26 *510:36 *557:18 0
27 *510:36 *557:20 0
28 *531:14 *557:14 0.00271074
29 *537:20 *557:14 0.00270483
30 *537:20 *557:18 0.000134238
*RES
1 *8931:X *557:14 33.325 
2 *557:14 *557:18 39.6075 
3 *557:18 *557:20 59.9925 
4 *557:20 *8772:A0 3.6 
*END

*D_NET *558 0.0128382
*CONN
*I *8684:A0 I *D sky130_fd_sc_hd__mux2_1
*I *8932:X O *D sky130_fd_sc_hd__buf_1
*CAP
1 *8684:A0 0.000216649
2 *8932:X 6.80937e-05
3 *558:12 0.00255429
4 *558:10 0.00240573
5 *558:12 *576:22 0.000312695
6 *403:10 *8684:A0 0.000116158
7 *417:10 *558:10 0.000141599
8 *439:8 *8684:A0 0.000114492
9 *439:24 *558:12 2.11084e-05
10 *457:23 *8684:A0 0.000275542
11 *472:30 *558:12 0.00661184
*RES
1 *8932:X *558:10 7.235 
2 *558:10 *558:12 59.79 
3 *558:12 *8684:A0 9.5 
*END

*D_NET *559 0.0152937
*CONN
*I *8774:A0 I *D sky130_fd_sc_hd__mux2_1
*I *8933:X O *D sky130_fd_sc_hd__buf_1
*CAP
1 *8774:A0 0.000325142
2 *8933:X 0.00130316
3 *559:16 0.00367628
4 *559:14 0.0046543
5 *8774:A0 *600:6 0.000420167
6 *559:14 *600:6 0.00127134
7 *559:16 *600:6 0.00308072
8 *8629:A *559:16 0.000309804
9 *8774:S *8774:A0 1.14192e-05
10 *8775:A *8774:A0 2.69217e-05
11 *8933:A *559:14 5.78448e-05
12 *8966:A *559:14 0
13 *9000:A *559:16 0.000156622
*RES
1 *8933:X *559:14 33.4025 
2 *559:14 *559:16 72.555 
3 *559:16 *8774:A0 8.7925 
*END

*D_NET *560 0.0166546
*CONN
*I *8776:A0 I *D sky130_fd_sc_hd__mux2_1
*I *8934:X O *D sky130_fd_sc_hd__buf_1
*CAP
1 *8776:A0 2.97592e-05
2 *8934:X 0
3 *560:8 0.00380815
4 *560:6 0.00377839
5 *8627:A *560:8 0.000160933
6 *8698:A *8776:A0 6.97118e-05
7 *8760:A0 *560:8 0.00110539
8 *8766:S *560:8 0.000308703
9 *8812:D *8776:A0 0.000122331
10 *8845:D *560:8 9.30717e-05
11 *8850:D *560:8 9.54399e-05
12 *406:12 *560:8 4.11112e-05
13 *412:14 *560:8 1.92979e-05
14 *442:45 *560:8 0.000645621
15 *442:47 *560:8 0.0063767
16 *476:8 *560:8 0
17 *511:72 *560:8 0
*RES
1 *8934:X *560:6 3.6 
2 *560:6 *560:8 99.555 
3 *560:8 *8776:A0 4.74 
*END

*D_NET *561 0.00332334
*CONN
*I *8778:A0 I *D sky130_fd_sc_hd__mux2_1
*I *8935:X O *D sky130_fd_sc_hd__clkbuf_1
*CAP
1 *8778:A0 0.00166167
2 *8935:X 0.00166167
3 *8778:A0 *568:22 0
4 *437:18 *8778:A0 0
*RES
1 *8935:X *8778:A0 31.785 
*END

*D_NET *562 0.000675207
*CONN
*I *8780:A0 I *D sky130_fd_sc_hd__mux2_1
*I *8936:X O *D sky130_fd_sc_hd__clkbuf_1
*CAP
1 *8780:A0 0.000269198
2 *8936:X 0.000269198
3 *8781:A *8780:A0 5.27885e-05
4 *8936:A *8780:A0 8.40213e-05
*RES
1 *8936:X *8780:A0 7.115 
*END

*D_NET *563 0.00791208
*CONN
*I *8782:A0 I *D sky130_fd_sc_hd__mux2_1
*I *8937:X O *D sky130_fd_sc_hd__buf_1
*CAP
1 *8782:A0 0
2 *8937:X 0.000192343
3 *563:10 0.00359918
4 *563:8 0.00379152
5 *8853:RESET_B *563:10 0
6 *321:132 *563:10 5.16348e-05
7 *391:12 *563:10 0
8 *391:20 *563:10 0.000183036
9 *391:123 *563:10 0
10 *408:18 *563:10 0
11 *548:22 *563:8 9.43648e-05
*RES
1 *8937:X *563:8 6.12 
2 *563:8 *563:10 59.265 
3 *563:10 *8782:A0 3.6 
*END

*D_NET *564 0.00105938
*CONN
*I *8784:A0 I *D sky130_fd_sc_hd__mux2_1
*I *8938:X O *D sky130_fd_sc_hd__clkbuf_1
*CAP
1 *8784:A0 0.000346502
2 *8938:X 0.000346502
3 *8784:A1 *8784:A0 4.99619e-05
4 *8854:RESET_B *8784:A0 0.000316415
*RES
1 *8938:X *8784:A0 13.485 
*END

*D_NET *565 0.0154243
*CONN
*I *8728:A0 I *D sky130_fd_sc_hd__mux2_1
*I *8939:X O *D sky130_fd_sc_hd__buf_1
*CAP
1 *8728:A0 0.000227666
2 *8939:X 0.0012643
3 *565:14 0.00543997
4 *565:12 0.00647661
5 *8728:A1 *8728:A0 2.75145e-05
6 *8728:S *8728:A0 0.000179728
7 *8728:S *565:14 8.09157e-06
8 *8806:RESET_B *565:14 2.40185e-05
9 *8824:RESET_B *565:14 2.69297e-05
10 *344:138 *565:14 0.000127476
11 *435:12 *565:14 4.11678e-06
12 *472:30 *565:12 0.00161787
*RES
1 *8939:X *565:12 24.38 
2 *565:12 *565:14 57.2025 
3 *565:14 *8728:A0 5.6875 
*END

*D_NET *566 0.00373612
*CONN
*I *8786:A0 I *D sky130_fd_sc_hd__mux2_1
*I *8940:X O *D sky130_fd_sc_hd__clkbuf_1
*CAP
1 *8786:A0 0.00166282
2 *8940:X 0.00166282
3 *8786:A0 *582:12 0
4 *8855:CLK *8786:A0 2.16833e-05
5 *384:94 *8786:A0 0.00038879
*RES
1 *8940:X *8786:A0 35.025 
*END

*D_NET *567 0.00749655
*CONN
*I *8788:A0 I *D sky130_fd_sc_hd__mux2_1
*I *8941:X O *D sky130_fd_sc_hd__buf_1
*CAP
1 *8788:A0 0
2 *8941:X 0.000199122
3 *567:10 0.00339094
4 *567:8 0.00359007
5 *542:8 *567:10 0
6 *548:28 *567:8 0.000316415
*RES
1 *8941:X *567:8 6.465 
2 *567:8 *567:10 55.95 
3 *567:10 *8788:A0 3.6 
*END

*D_NET *568 0.0343533
*CONN
*I *8730:A0 I *D sky130_fd_sc_hd__mux2_1
*I *8942:X O *D sky130_fd_sc_hd__clkbuf_2
*CAP
1 *8730:A0 0.00151726
2 *8942:X 0.00141648
3 *568:24 0.00629711
4 *568:22 0.00538322
5 *568:14 0.00205101
6 *568:10 0.00286412
7 *8730:A0 *591:14 0.000185398
8 *568:10 *596:10 0.000901758
9 *568:24 *8578:B_N 3.20286e-05
10 *568:24 *8582:C 0.000293812
11 *568:24 *613:29 9.80032e-06
12 *8581:A *568:24 0.000124895
13 *8581:B *568:24 0.00015765
14 *8678:A0 *568:14 0.00161535
15 *8682:A0 *568:24 0.000529179
16 *8724:A1 *8730:A0 2.75229e-05
17 *8727:A *8730:A0 0
18 *8730:A1 *8730:A0 0.00011852
19 *8730:S *8730:A0 4.18603e-06
20 *8758:A1 *568:24 9.91257e-05
21 *8758:S *568:24 2.96426e-05
22 *8778:A0 *568:22 0
23 *8779:A *568:24 5.30673e-05
24 *8825:CLK *8730:A0 7.22354e-05
25 *8825:RESET_B *8730:A0 1.23706e-05
26 *8826:D *8730:A0 3.68682e-05
27 *8835:RESET_B *8730:A0 8.88108e-06
28 *8851:RESET_B *568:22 9.30787e-05
29 *8873:A *8730:A0 0.000502803
30 *8875:A *568:24 7.00889e-06
31 *8879:A *568:14 0
32 *8970:A *568:10 8.28427e-05
33 *321:126 *568:24 0.000197269
34 *437:18 *568:22 0.00153078
35 *437:26 *568:24 0.000387515
36 *471:29 *8730:A0 0.000200156
37 *471:35 *568:10 0.00368128
38 *471:35 *568:14 0.000744207
39 *471:35 *568:22 0.00174005
40 *513:12 *8730:A0 5.60892e-05
41 *513:14 *8730:A0 1.09018e-05
42 *513:16 *8730:A0 1.76909e-05
43 *514:24 *568:22 0.000102557
44 *540:8 *8730:A0 0
45 *545:10 *568:10 0
46 *545:10 *568:14 0
47 *545:14 *568:14 0
48 *547:16 *568:24 0.00115755
*RES
1 *8942:X *568:10 45.9225 
2 *568:10 *568:14 34.395 
3 *568:14 *568:22 25.7375 
4 *568:22 *568:24 63.24 
5 *568:24 *8730:A0 30.045 
*END

*D_NET *569 0.0011078
*CONN
*I *8686:A0 I *D sky130_fd_sc_hd__mux2_1
*I *8943:X O *D sky130_fd_sc_hd__clkbuf_1
*CAP
1 *8686:A0 0.000553898
2 *8943:X 0.000553898
3 *8807:CLK *8686:A0 0
4 *8807:RESET_B *8686:A0 0
*RES
1 *8943:X *8686:A0 14.01 
*END

*D_NET *570 0.0222047
*CONN
*I *8732:A0 I *D sky130_fd_sc_hd__mux2_1
*I *8944:X O *D sky130_fd_sc_hd__dlymetal6s2s_1
*CAP
1 *8732:A0 0.00230751
2 *8944:X 0.00251473
3 *570:24 0.00639687
4 *570:20 0.0066041
5 *570:20 *8632:A 0.000279787
6 *8633:A *570:20 0.00012657
7 *8733:A *8732:A0 0.000138791
8 *8747:S *8732:A0 4.40446e-05
9 *8764:A0 *570:24 0.00160594
10 *8764:A1 *570:24 0.000201503
11 *8764:S *8732:A0 1.10808e-05
12 *8764:S *570:24 2.8585e-06
13 *8794:D *570:20 0.000125621
14 *8794:RESET_B *570:20 0.000119066
15 *8832:CLK *8732:A0 0.000119756
16 *8832:CLK *570:24 0.000251483
17 *8843:D *8732:A0 0.000124895
18 *8881:A *570:20 4.82919e-05
19 *9002:A *570:20 1.61831e-05
20 *9031:A *570:20 9.17212e-05
21 *355:115 *8732:A0 0.00107393
22 *428:18 *570:20 0
*RES
1 *8944:X *570:20 45.5675 
2 *570:20 *570:24 49.5375 
3 *570:24 *8732:A0 32.785 
*END

*D_NET *571 0.00811478
*CONN
*I *8734:A0 I *D sky130_fd_sc_hd__mux2_1
*I *8945:X O *D sky130_fd_sc_hd__buf_1
*CAP
1 *8734:A0 0.000357699
2 *8945:X 0.00126948
3 *571:28 0.00162718
4 *571:28 *608:14 7.23602e-05
5 *571:28 *608:18 0.00153959
6 *8734:A1 *8734:A0 0.00042787
7 *8734:S *8734:A0 8.8266e-05
8 *8747:A0 *571:28 2.30292e-05
9 *8747:A1 *571:28 0.000507936
10 *8747:S *8734:A0 0.000614703
11 *8747:S *571:28 0.000600478
12 *8748:A *571:28 5.94962e-05
13 *8992:A *571:28 7.4027e-05
14 *392:14 *571:28 0.000852679
15 *420:10 *571:28 0
*RES
1 *8945:X *571:28 42.7275 
2 *571:28 *8734:A0 11.8825 
*END

*D_NET *572 0.00123089
*CONN
*I *8737:A0 I *D sky130_fd_sc_hd__mux2_1
*I *8946:X O *D sky130_fd_sc_hd__clkbuf_1
*CAP
1 *8737:A0 0.000474721
2 *8946:X 0.000474721
3 *8737:A0 *603:8 0
4 *8737:A0 *603:12 6.27438e-05
5 *8737:A1 *8737:A0 1.89685e-05
6 *8946:A *8737:A0 4.66742e-05
7 *9075:A *8737:A0 0.000118279
8 *479:20 *8737:A0 3.47837e-05
*RES
1 *8946:X *8737:A0 14.43 
*END

*D_NET *573 0.00184624
*CONN
*I *8739:A0 I *D sky130_fd_sc_hd__mux2_1
*I *8947:X O *D sky130_fd_sc_hd__clkbuf_1
*CAP
1 *8739:A0 0.00045032
2 *8947:X 0.00045032
3 *8739:A1 *8739:A0 4.99619e-05
4 *8739:S *8739:A0 8.8266e-05
5 *8843:RESET_B *8739:A0 1.34503e-05
6 *366:107 *8739:A0 9.92397e-05
7 *446:23 *8739:A0 0.00014331
8 *480:12 *8739:A0 0.000130791
9 *480:22 *8739:A0 0.000184234
10 *551:36 *8739:A0 0.00023635
*RES
1 *8947:X *8739:A0 18.195 
*END

*D_NET *574 0.0103038
*CONN
*I *8741:A0 I *D sky130_fd_sc_hd__mux2_1
*I *8948:X O *D sky130_fd_sc_hd__buf_1
*CAP
1 *8741:A0 0.00081977
2 *8948:X 0.000132551
3 *574:8 0.000952322
4 *574:8 *576:22 0.000101386
5 *9005:A *574:8 0.00092416
6 *9086:A *574:8 2.30292e-05
7 *406:14 *574:8 0.000959895
8 *414:8 *8741:A0 0.00346565
9 *464:8 *8741:A0 0.000682774
10 *512:45 *8741:A0 0.00224226
*RES
1 *8948:X *574:8 12.33 
2 *574:8 *8741:A0 43.485 
*END

*D_NET *575 0.0153751
*CONN
*I *8743:A0 I *D sky130_fd_sc_hd__mux2_1
*I *8949:X O *D sky130_fd_sc_hd__buf_1
*CAP
1 *8743:A0 0.000123305
2 *8949:X 0
3 *575:8 0.00317269
4 *575:6 0.00304939
5 *8831:RESET_B *575:8 0.000871816
6 *9075:A *575:8 0.000656936
7 *355:41 *575:8 0.00236422
8 *397:8 *575:8 0.0015774
9 *404:14 *8743:A0 3.38041e-05
10 *501:27 *575:8 0
11 *506:20 *8743:A0 1.83756e-05
12 *509:52 *575:8 0.00259389
13 *509:66 *575:8 0.00091326
*RES
1 *8949:X *575:6 3.6 
2 *575:6 *575:8 96.75 
3 *575:8 *8743:A0 5.085 
*END

*D_NET *576 0.0363731
*CONN
*I *8652:A0 I *D sky130_fd_sc_hd__mux2_1
*I *617:DIODE I *D sky130_fd_sc_hd__diode_2
*I *8950:X O *D sky130_fd_sc_hd__clkbuf_2
*CAP
1 *8652:A0 0
2 *617:DIODE 0.000141993
3 *8950:X 0.00526622
4 *576:26 0.000141993
5 *576:24 0.00393224
6 *576:22 0.00919845
7 *576:22 *8688:A0 0.000363328
8 *576:22 *610:14 0.00887756
9 *576:24 *595:14 0.00454448
10 *8617:B *617:DIODE 0.000234064
11 *8625:A *576:22 0.000105925
12 *8653:A *617:DIODE 0.000124895
13 *8666:A0 *576:22 0
14 *8667:A *576:22 0.000229203
15 *8670:S *576:22 1.82563e-05
16 *8709:S *576:24 0.000186506
17 *8736:A *576:24 4.91505e-05
18 *8798:D *576:22 6.65534e-05
19 *8800:RESET_B *576:22 8.11546e-05
20 *8818:D *576:24 0.00011852
21 *311:157 *576:24 0.000401393
22 *311:159 *576:24 0
23 *311:163 *576:22 0
24 *311:163 *576:24 0.000268682
25 *321:34 *576:24 7.06865e-05
26 *333:54 *576:24 8.597e-05
27 *355:8 *576:24 4.94326e-05
28 *402:12 *576:22 0
29 *402:12 *576:24 0
30 *406:14 *576:22 0.00101921
31 *439:24 *576:22 0.000151979
32 *463:10 *576:22 0
33 *463:14 *576:22 0
34 *510:48 *576:22 0.000120698
35 *510:48 *576:24 0.000110519
36 *558:12 *576:22 0.000312695
37 *574:8 *576:22 0.000101386
*RES
1 *8950:X *576:22 28.241 
2 *576:22 *576:24 88.9725 
3 *576:24 *576:26 2 
4 *576:26 *617:DIODE 4.585 
5 *576:26 *8652:A0 1.6 
*END

*D_NET *577 0.0175937
*CONN
*I *8584:A I *D sky130_fd_sc_hd__and2_1
*I *8951:X O *D sky130_fd_sc_hd__buf_1
*CAP
1 *8584:A 0.00116923
2 *8951:X 0
3 *577:6 0.00879687
4 *577:4 0.00762764
5 *8584:B *8584:A 0
6 *410:8 *8584:A 0
7 *430:75 *8584:A 0
*RES
1 *8951:X *577:4 1.6 
2 *577:4 *577:6 83.595 
3 *577:6 *8584:A 24.575 
*END

*D_NET *578 0.0107728
*CONN
*I *8605:A I *D sky130_fd_sc_hd__and2_1
*I *8952:X O *D sky130_fd_sc_hd__buf_1
*CAP
1 *8605:A 0
2 *8952:X 0.000365684
3 *578:12 0.00178159
4 *578:10 0.00214727
5 *8763:A *578:10 0
6 *8843:D *578:10 0
7 *355:81 *578:12 0.000225836
8 *355:90 *578:12 0.00224585
9 *355:94 *578:10 7.4924e-05
10 *355:94 *578:12 5.53249e-06
11 *355:115 *578:10 5.84989e-05
12 *390:54 *578:10 0.000289004
13 *430:125 *578:10 9.50342e-06
14 *430:125 *578:12 0.00334283
15 *430:135 *578:10 0.000167801
16 *502:29 *578:10 5.85076e-05
*RES
1 *8952:X *578:10 11.7375 
2 *578:10 *578:12 67.2375 
3 *578:12 *8605:A 3.6 
*END

*D_NET *579 0.00147431
*CONN
*I *8607:A I *D sky130_fd_sc_hd__and2_1
*I *8953:X O *D sky130_fd_sc_hd__clkbuf_1
*CAP
1 *8607:A 0.000455286
2 *8953:X 0.000455286
3 *8603:B *8607:A 0.000267041
4 *8749:A0 *8607:A 0
5 *8953:A *8607:A 4.92062e-05
6 *427:16 *8607:A 0.000247487
*RES
1 *8953:X *8607:A 13.86 
*END

*D_NET *580 0.00796931
*CONN
*I *8688:A0 I *D sky130_fd_sc_hd__mux2_1
*I *8954:X O *D sky130_fd_sc_hd__buf_1
*CAP
1 *8688:A0 0.0016319
2 *8954:X 0.0016319
3 *8685:A *8688:A0 0
4 *8689:A *8688:A0 3.97585e-05
5 *8722:S *8688:A0 0.000335177
6 *8806:CLK *8688:A0 0.000466447
7 *8806:D *8688:A0 5.13155e-05
8 *8911:A *8688:A0 7.35813e-05
9 *9047:A *8688:A0 0.000300012
10 *9061:A *8688:A0 0.000188943
11 *9081:A *8688:A0 0.000292921
12 *344:138 *8688:A0 0
13 *406:14 *8688:A0 0.00259404
14 *576:22 *8688:A0 0.000363328
*RES
1 *8954:X *8688:A0 47.715 
*END

*D_NET *581 0.00846511
*CONN
*I *8609:A I *D sky130_fd_sc_hd__and2_1
*I *8955:X O *D sky130_fd_sc_hd__buf_1
*CAP
1 *8609:A 0.00206142
2 *8955:X 0.00153412
3 *581:8 0.00359554
4 *285:110 *8609:A 0.00127402
*RES
1 *8955:X *581:8 21.9025 
2 *581:8 *8609:A 37.0675 
*END

*D_NET *582 0.00867995
*CONN
*I *8611:A I *D sky130_fd_sc_hd__and2_1
*I *8956:X O *D sky130_fd_sc_hd__buf_1
*CAP
1 *8611:A 0
2 *8956:X 0.000557779
3 *582:12 0.00360858
4 *582:10 0.00416636
5 *582:12 *605:8 0
6 *8786:A0 *582:12 0
7 *8786:A1 *582:12 0
8 *8940:A *582:10 7.35813e-05
9 *8940:A *582:12 4.18603e-06
10 *9038:A *582:10 0.000269475
11 *510:116 *582:12 0
*RES
1 *8956:X *582:10 11.22 
2 *582:10 *582:12 59.265 
3 *582:12 *8611:A 3.6 
*END

*D_NET *583 0.0128711
*CONN
*I *8613:A I *D sky130_fd_sc_hd__and2_1
*I *8957:X O *D sky130_fd_sc_hd__buf_1
*CAP
1 *8613:A 0.00117113
2 *8957:X 0.0022176
3 *583:12 0.00323043
4 *583:8 0.0042769
5 *8957:A *583:8 5.05521e-05
6 *322:87 *8613:A 0.0018382
7 *322:98 *8613:A 8.63188e-05
8 *447:23 *583:12 0
*RES
1 *8957:X *583:8 27.855 
2 *583:8 *583:12 34.0125 
3 *583:12 *8613:A 30.4725 
*END

*D_NET *584 0.0176008
*CONN
*I *8615:A I *D sky130_fd_sc_hd__and2_1
*I *8958:X O *D sky130_fd_sc_hd__buf_1
*CAP
1 *8615:A 0
2 *8958:X 0.00028986
3 *584:10 0.00396661
4 *584:8 0.00425647
5 *451:20 *584:10 0.00866765
6 *484:26 *584:8 0.00042018
*RES
1 *8958:X *584:8 7.5 
2 *584:8 *584:10 99.3 
3 *584:10 *8615:A 3.6 
*END

*D_NET *585 0.0358658
*CONN
*I *8617:A I *D sky130_fd_sc_hd__and2_1
*I *8959:X O *D sky130_fd_sc_hd__clkbuf_2
*CAP
1 *8617:A 5.38955e-05
2 *8959:X 0.00172174
3 *585:40 0.00195284
4 *585:22 0.00780675
5 *585:20 0.00704354
6 *585:16 0.0021176
7 *585:12 0.00270361
8 pwdata[31] *585:16 6.49e-05
9 *8618:A *585:40 4.38278e-05
10 *8627:A *585:40 0.000120655
11 *8720:A0 *585:16 0.00190434
12 *8809:CLK *585:40 4.82919e-05
13 *8809:D *585:40 3.03684e-05
14 *8809:RESET_B *585:40 2.65337e-05
15 *8848:RESET_B *585:40 2.46073e-05
16 *8850:CLK *585:40 8.88715e-05
17 *8850:D *585:40 1.61831e-05
18 *8898:A *585:12 4.46999e-05
19 *8899:A *585:12 4.18203e-05
20 *8935:A *585:20 1.79483e-05
21 *8959:A *585:12 0.000156164
22 *9013:A *585:12 0
23 *296:118 *8617:A 0.000180682
24 *408:8 *585:40 0.00181538
25 *408:12 *585:22 0.000158524
26 *408:12 *585:40 0.00132956
27 *412:26 *585:16 0.000364012
28 *412:26 *585:20 0.00269703
29 *487:12 *585:40 4.89169e-05
30 *492:12 *585:12 0.000724902
31 *492:12 *585:16 0.00141619
32 *510:20 *8617:A 0.000180682
33 *511:26 *585:40 0.000223677
34 *511:28 *585:40 7.64643e-05
35 *511:62 *585:40 7.8555e-05
36 *512:26 *585:22 0.000542006
37 *530:18 *585:12 0
*RES
1 *8959:X *585:12 38.5725 
2 *585:12 *585:16 34.395 
3 *585:16 *585:20 33.3425 
4 *585:20 *585:22 66.1725 
5 *585:22 *585:40 48.1025 
6 *585:40 *8617:A 5.745 
*END

*D_NET *586 0.01663
*CONN
*I *8619:A I *D sky130_fd_sc_hd__and2_1
*I *8960:X O *D sky130_fd_sc_hd__buf_1
*CAP
1 *8619:A 0.00263315
2 *8960:X 0.00184365
3 *586:12 0.00527347
4 *586:8 0.00448397
5 *8619:A *593:18 6.36578e-05
6 *285:56 *8619:A 0.00233213
*RES
1 *8960:X *586:8 21.9025 
2 *586:8 *586:12 36.69 
3 *586:12 *8619:A 46.3475 
*END

*D_NET *587 0.020941
*CONN
*I *8621:A I *D sky130_fd_sc_hd__and2_1
*I *8961:X O *D sky130_fd_sc_hd__buf_1
*CAP
1 *8621:A 0.00169871
2 *8961:X 0.00253376
3 *587:18 0.00358313
4 *587:14 0.00441819
5 *587:14 *8596:A 0.00149623
6 *8844:D *587:18 7.06865e-05
7 *9019:A *587:14 0.00123314
8 *285:32 *8621:A 9.50342e-06
9 *333:91 *8621:A 0
10 *333:155 *8621:A 0
11 *387:69 *8621:A 3.68596e-05
12 *401:10 *8621:A 0.00379294
13 *401:10 *587:18 0.0020679
14 *487:26 *8621:A 0
15 *487:26 *587:18 0
*RES
1 *8961:X *587:14 42.73 
2 *587:14 *587:18 43.5975 
3 *587:18 *8621:A 47.1075 
*END

*D_NET *588 0.0193538
*CONN
*I *8624:A I *D sky130_fd_sc_hd__and2_1
*I *8962:X O *D sky130_fd_sc_hd__buf_1
*CAP
1 *8624:A 0.00223408
2 *8962:X 0.0013428
3 *588:8 0.00357687
4 *8624:A *606:12 0.000772613
5 *8666:A0 *8624:A 0.000933531
6 *8671:A *8624:A 4.82863e-05
7 *8798:CLK *8624:A 0.000185398
8 *8846:RESET_B *8624:A 0.000418515
9 *8849:CLK *8624:A 0.000125153
10 *8929:A *8624:A 2.63406e-05
11 *8938:A *8624:A 7.35813e-05
12 *9038:A *588:8 0.00200091
13 *9078:A *8624:A 0.000881616
14 *451:20 *8624:A 0.000302425
15 *451:32 *588:8 7.89983e-05
16 *451:40 *588:8 0.00309574
17 *477:34 *8624:A 3.83902e-05
18 *484:28 *8624:A 7.53462e-05
19 *484:28 *588:8 0.00314324
*RES
1 *8962:X *588:8 49.405 
2 *588:8 *8624:A 46.91 
*END

*D_NET *589 0.018075
*CONN
*I *8586:A I *D sky130_fd_sc_hd__and2_1
*I *8963:X O *D sky130_fd_sc_hd__buf_1
*CAP
1 *8586:A 3.55506e-05
2 *8963:X 3.03667e-05
3 *589:16 0.0053875
4 *589:14 0.00861313
5 *589:10 0.00329155
6 *589:10 *607:10 0.000118527
7 *8643:A *589:14 0.000201508
8 *8801:D *589:16 1.90662e-05
9 *389:55 *589:16 9.27326e-05
10 *389:61 *589:16 0.00011577
11 *417:8 *589:14 5.07419e-05
12 *436:14 *589:10 0.000118527
*RES
1 *8963:X *589:10 6.98 
2 *589:10 *589:14 49.5375 
3 *589:14 *589:16 57.8925 
4 *589:16 *8586:A 2.215 
*END

*D_NET *590 0.0206991
*CONN
*I *8626:A I *D sky130_fd_sc_hd__and2_1
*I *8964:X O *D sky130_fd_sc_hd__dlymetal6s2s_1
*CAP
1 *8626:A 0.00112532
2 *8964:X 0
3 *590:6 0.008177
4 *590:4 0.00705168
5 *296:57 *8626:A 0
6 *311:159 *8626:A 0.00322521
7 *510:20 *8626:A 0.00111985
*RES
1 *8964:X *590:4 1.6 
2 *590:4 *590:6 104.295 
3 *590:6 *8626:A 42.425 
*END

*D_NET *591 0.0165377
*CONN
*I *8690:A0 I *D sky130_fd_sc_hd__mux2_1
*I *8965:X O *D sky130_fd_sc_hd__dlymetal6s2s_1
*CAP
1 *8690:A0 0
2 *8965:X 0.00314866
3 *591:14 0.00373355
4 *591:12 0.00496507
5 *591:8 0.00438018
6 *8682:S *591:14 0
7 *8730:A0 *591:14 0.000185398
8 *8847:RESET_B *591:14 0
9 *8965:A *591:8 0.000124895
10 *486:21 *591:14 0
11 *540:8 *591:14 0
*RES
1 *8965:X *591:8 48.8125 
2 *591:8 *591:12 18.8375 
3 *591:12 *591:14 61.05 
4 *591:14 *8690:A0 3.6 
*END

*D_NET *592 0.0102116
*CONN
*I *8628:A I *D sky130_fd_sc_hd__and2_1
*I *8966:X O *D sky130_fd_sc_hd__buf_1
*CAP
1 *8628:A 8.76199e-05
2 *8966:X 0
3 *592:6 0.00510578
4 *592:4 0.00501816
*RES
1 *8966:X *592:4 1.6 
2 *592:4 *592:6 55.65 
3 *592:6 *8628:A 6.98 
*END

*D_NET *593 0.0272747
*CONN
*I *8630:A I *D sky130_fd_sc_hd__and2_1
*I *8967:X O *D sky130_fd_sc_hd__clkbuf_2
*CAP
1 *8630:A 0
2 *8967:X 0.000117572
3 *593:18 0.0056155
4 *593:16 0.0056155
5 *593:14 0.00166279
6 *593:12 0.00178036
7 paddr[16] *593:12 1.17114e-05
8 pwdata[2] *593:18 0
9 *8619:A *593:18 6.36578e-05
10 *8908:A *593:18 0
11 *8967:A *593:12 7.12477e-05
12 *9062:A *593:12 1.592e-05
13 *9062:A *593:14 0.000262563
14 *9077:A *593:14 0.00248604
15 *463:16 *593:14 0.00709354
16 *477:34 *593:14 8.65905e-05
17 *477:36 *593:14 0.00209617
18 *485:24 *593:18 0
19 *485:26 *593:14 0.000295519
*RES
1 *8967:X *593:12 7.85 
2 *593:12 *593:14 74.97 
3 *593:14 *593:16 2 
4 *593:16 *593:18 92.415 
5 *593:18 *8630:A 3.6 
*END

*D_NET *594 0.00901308
*CONN
*I *8632:A I *D sky130_fd_sc_hd__and2_1
*I *8968:X O *D sky130_fd_sc_hd__buf_1
*CAP
1 *8632:A 0.000105105
2 *8968:X 0.00329153
3 *594:12 0.00339664
4 *8993:A *594:12 0.000142388
5 *9002:A *594:12 0
6 *9046:A *594:12 6.10014e-05
7 *401:14 *594:12 0.00031139
8 *526:20 *594:12 0.000234813
9 *552:12 *594:12 0.00119042
10 *570:20 *8632:A 0.000279787
*RES
1 *8968:X *594:12 48.83 
2 *594:12 *8632:A 4.12 
*END

*D_NET *595 0.0272203
*CONN
*I *8634:A I *D sky130_fd_sc_hd__and2_1
*I *8969:X O *D sky130_fd_sc_hd__clkbuf_2
*CAP
1 *8634:A 0
2 *8969:X 0.00145239
3 *595:14 0.00124435
4 *595:12 0.00124435
5 *595:10 0.00766543
6 *595:8 0.00911782
7 *8816:D *595:14 0.00011852
8 *311:159 *595:14 0.001833
9 *576:24 *595:14 0.00454448
*RES
1 *8969:X *595:8 21.5575 
2 *595:8 *595:10 83.4225 
3 *595:10 *595:12 2 
4 *595:12 *595:14 51.87 
5 *595:14 *8634:A 3.6 
*END

*D_NET *596 0.0170963
*CONN
*I *8636:A I *D sky130_fd_sc_hd__and2_1
*I *8970:X O *D sky130_fd_sc_hd__dlymetal6s2s_1
*CAP
1 *8636:A 2.08101e-05
2 *8970:X 0.000408921
3 *596:12 0.00646568
4 *596:10 0.00685379
5 *8636:B *596:12 4.82863e-05
6 *434:27 *596:12 0.00239703
7 *545:10 *596:10 0
8 *568:10 *596:10 0.000901758
*RES
1 *8970:X *596:10 15.905 
2 *596:10 *596:12 107.055 
3 *596:12 *8636:A 1.96 
*END

*D_NET *597 0.0164341
*CONN
*I *8638:A I *D sky130_fd_sc_hd__and2_1
*I *8971:X O *D sky130_fd_sc_hd__buf_1
*CAP
1 *8638:A 0.000202094
2 *8971:X 0.000534711
3 *597:12 0.00533067
4 *597:10 0.00566328
5 *8682:A1 *597:12 5.93674e-05
6 *8693:A *597:12 4.05358e-05
7 *8716:A1 *597:12 0.000194937
8 *8718:A1 *597:12 0.00018305
9 *8724:A1 *597:12 0.000384076
10 *8805:D *597:12 5.02217e-05
11 *8809:D *597:12 7.23602e-05
12 *8878:A *597:10 0
13 *296:42 *8638:A 0.000497676
14 *344:109 *597:10 0
15 *388:28 *597:12 0.000164487
16 *388:39 *597:12 4.8837e-05
17 *434:21 *597:12 0.00215918
18 *453:12 *597:12 0.000848602
19 *483:10 *597:12 0
*RES
1 *8971:X *597:10 12.0825 
2 *597:10 *597:12 108.037 
3 *597:12 *8638:A 8.19 
*END

*D_NET *598 0.0122464
*CONN
*I *8640:A I *D sky130_fd_sc_hd__and2_1
*I *8972:X O *D sky130_fd_sc_hd__buf_1
*CAP
1 *8640:A 0.000955292
2 *8972:X 0.00105892
3 *598:38 0.00267432
4 *598:24 0.00277795
5 m_rdata[21] *598:24 0
6 *8667:A *8640:A 8.65961e-05
7 *8905:A *598:24 5.8807e-05
8 *8938:A *598:24 0
9 *8980:A *598:38 0.000145546
10 *9048:A *598:24 0.000505372
11 *462:10 *598:38 0.000840065
12 *462:22 *598:24 8.53113e-06
13 *463:16 *598:38 0.000683154
14 *485:26 *598:38 0.00138125
15 *531:12 *598:24 7.23533e-05
16 *531:14 *598:24 0.000998199
17 *532:10 *598:38 0
*RES
1 *8972:X *598:24 27.435 
2 *598:24 *598:38 43.6825 
3 *598:38 *8640:A 15.3475 
*END

*D_NET *599 0.00305494
*CONN
*I *8642:A I *D sky130_fd_sc_hd__and2_1
*I *8973:X O *D sky130_fd_sc_hd__clkbuf_1
*CAP
1 *8642:A 0.000954283
2 *8973:X 0.000954283
3 *8642:B *8642:A 8.8266e-05
4 *481:10 *8642:A 0.000384591
5 *490:10 *8642:A 0.000673522
*RES
1 *8973:X *8642:A 25.515 
*END

*D_NET *600 0.0412929
*CONN
*I *8644:A I *D sky130_fd_sc_hd__and2_1
*I *8974:X O *D sky130_fd_sc_hd__buf_2
*CAP
1 *8644:A 0.00165101
2 *8974:X 0
3 *600:10 0.0047523
4 *600:8 0.00310129
5 *600:6 0.0121521
6 *600:4 0.0121521
7 *8629:A *600:6 0.00018065
8 *8648:B *8644:A 0
9 *8648:B *600:10 0
10 *8758:A1 *8644:A 0
11 *8766:S *600:6 3.56312e-05
12 *8774:A0 *600:6 0.000420167
13 *8774:A1 *600:6 0.000280444
14 *8774:S *600:6 1.07593e-05
15 *8841:CLK *8644:A 0.00015997
16 *8841:D *8644:A 0
17 *8847:RESET_B *8644:A 0
18 *8865:A *600:10 0.000304618
19 *8885:A *600:6 8.9336e-05
20 *9086:A *600:10 0.000609547
21 *366:51 *600:6 3.15088e-05
22 *414:8 *8644:A 0
23 *414:8 *600:10 0
24 *421:10 *600:10 0.00100942
25 *478:8 *8644:A 0
26 *478:8 *600:10 0
27 *512:26 *8644:A 0
28 *512:30 *8644:A 0
29 *559:14 *600:6 0.00127134
30 *559:16 *600:6 0.00308072
*RES
1 *8974:X *600:4 1.6 
2 *600:4 *600:6 152.94 
3 *600:6 *600:8 2 
4 *600:8 *600:10 62.8875 
5 *600:10 *8644:A 30.3675 
*END

*D_NET *601 0.00921018
*CONN
*I *8588:A I *D sky130_fd_sc_hd__and2_1
*I *8975:X O *D sky130_fd_sc_hd__buf_1
*CAP
1 *8588:A 0.000713208
2 *8975:X 0.00090169
3 *601:12 0.00336744
4 *601:8 0.00355593
5 *8588:B *8588:A 3.95724e-05
6 *8589:A *8588:A 0.000239813
7 *8975:A *601:8 3.56402e-05
8 *9009:A *8588:A 0.000356894
*RES
1 *8975:X *601:8 13.71 
2 *601:8 *601:12 45.965 
3 *601:12 *8588:A 14.485 
*END

*D_NET *602 0.0298103
*CONN
*I *8692:A0 I *D sky130_fd_sc_hd__mux2_1
*I *8976:X O *D sky130_fd_sc_hd__clkbuf_2
*CAP
1 *8692:A0 0.00018941
2 *8976:X 0
3 *602:16 0.00366398
4 *602:14 0.00524152
5 *602:8 0.00661798
6 *602:6 0.00485104
7 *602:16 *8594:A 0.000120655
8 *602:16 *8600:A 0.000274659
9 *8593:A *602:16 0.000422738
10 *8610:A *602:14 0
11 *8660:A1 *602:14 5.42568e-05
12 *8660:S *602:14 0
13 *8795:D *602:14 9.54469e-05
14 *311:110 *602:8 0
15 *311:110 *602:14 0
16 *321:34 *8692:A0 0.000690867
17 *321:34 *602:16 0.00347491
18 *344:18 *8692:A0 0.000289063
19 *412:14 *602:16 0.000218314
20 *428:14 *602:16 0.000908952
21 *430:54 *602:16 1.19928e-05
22 *430:56 *602:16 0.000212869
23 *430:67 *602:16 0.00212354
24 *455:10 *602:14 0.000348102
*RES
1 *8976:X *602:6 3.6 
2 *602:6 *602:8 80.1375 
3 *602:8 *602:14 33.7025 
4 *602:14 *602:16 77.04 
5 *602:16 *8692:A0 8.53 
*END

*D_NET *603 0.0281407
*CONN
*I *8646:A I *D sky130_fd_sc_hd__and2_1
*I *8977:X O *D sky130_fd_sc_hd__clkbuf_2
*CAP
1 *8646:A 0
2 *8977:X 0
3 *603:12 0.0103361
4 *603:10 0.0103361
5 *603:8 0.00240013
6 *603:6 0.00240013
7 pwrite *603:8 1.88656e-05
8 *8737:A0 *603:8 0
9 *8737:A0 *603:12 6.27438e-05
10 *8737:A1 *603:8 0
11 *8738:A *603:8 0
12 *8831:D *603:8 4.7043e-05
13 *8907:A *603:8 0
14 *429:22 *603:8 0.000203017
15 *441:24 *603:8 0
16 *452:20 *603:8 0.00217585
17 *479:20 *603:8 0.000160658
18 *501:27 *603:8 0
*RES
1 *8977:X *603:6 3.6 
2 *603:6 *603:8 50.595 
3 *603:8 *603:10 2 
4 *603:10 *603:12 151.905 
5 *603:12 *8646:A 1.6 
*END

*D_NET *604 0.0149765
*CONN
*I *8648:A I *D sky130_fd_sc_hd__and2_1
*I *8978:X O *D sky130_fd_sc_hd__buf_1
*CAP
1 *8648:A 0.00146236
2 *8978:X 0.00081865
3 *604:10 0.00440811
4 *604:8 0.0037644
5 *393:10 *604:8 0.00130887
6 *553:6 *8648:A 0.00318153
7 *553:12 *8648:A 3.25635e-05
*RES
1 *8978:X *604:8 15.435 
2 *604:8 *604:10 48.81 
3 *604:10 *8648:A 33.045 
*END

*D_NET *605 0.0117494
*CONN
*I *8590:A I *D sky130_fd_sc_hd__and2_1
*I *8979:X O *D sky130_fd_sc_hd__buf_1
*CAP
1 *8590:A 0.000198004
2 *8979:X 0
3 *605:8 0.00549952
4 *605:6 0.00530151
5 *8612:A *605:8 4.61744e-05
6 *8786:A1 *605:8 6.81892e-05
7 *8787:A *605:8 2.67022e-05
8 *8991:A *605:8 0.000141599
9 *430:77 *8590:A 0.000391354
10 *510:116 *605:8 7.63204e-05
11 *582:12 *605:8 0
*RES
1 *8979:X *605:6 3.6 
2 *605:6 *605:8 89.355 
3 *605:8 *8590:A 7.86 
*END

*D_NET *606 0.0194105
*CONN
*I *8592:A I *D sky130_fd_sc_hd__and2_1
*I *8980:X O *D sky130_fd_sc_hd__buf_1
*CAP
1 *8592:A 4.84596e-05
2 *8980:X 0.000686707
3 *606:14 0.00248646
4 *606:12 0.00312471
5 *8624:A *606:12 0.000772613
6 *8666:A0 *606:12 5.78094e-05
7 *8768:S *606:14 0.000275443
8 *8775:A *606:14 0.000197124
9 *8800:D *606:14 0.00015997
10 *8958:A *606:12 9.14486e-05
11 *402:12 *606:12 0
12 *402:12 *606:14 0
13 *428:12 *8592:A 0.000272984
14 *430:67 *8592:A 0.000272984
15 *445:20 *606:14 0.000162315
16 *445:22 *606:14 0.00329399
17 *477:20 *606:14 0.00676807
18 *477:34 *606:12 9.28338e-05
19 *477:34 *606:14 0.000646618
*RES
1 *8980:X *606:12 13.7775 
2 *606:12 *606:14 93.5625 
3 *606:14 *8592:A 6.12 
*END

*D_NET *607 0.0251142
*CONN
*I *8594:A I *D sky130_fd_sc_hd__and2_1
*I *8981:X O *D sky130_fd_sc_hd__clkbuf_2
*CAP
1 *8594:A 0.000211628
2 *8981:X 0.000483879
3 *607:22 0.00204131
4 *607:12 0.00697545
5 *607:10 0.00562964
6 *8586:B *8594:A 0
7 *8595:A *8594:A 8.53113e-06
8 *8927:A *607:10 6.67166e-05
9 *9028:A *607:10 0.00065418
10 *296:42 *607:22 0.00174888
11 *296:96 *8594:A 0.000210151
12 *296:118 *8594:A 0.000154853
13 *430:25 *607:22 0.000938283
14 *430:42 *8594:A 0
15 *430:54 *8594:A 3.71133e-05
16 *430:56 *8594:A 8.23457e-05
17 *430:123 *8594:A 7.90639e-06
18 *436:14 *607:10 0.000892034
19 *440:25 *607:10 0.000635055
20 *481:12 *607:12 0.00409709
21 *589:10 *607:10 0.000118527
22 *602:16 *8594:A 0.000120655
*RES
1 *8981:X *607:10 25.85 
2 *607:10 *607:12 91.53 
3 *607:12 *607:22 46.305 
4 *607:22 *8594:A 8.925 
*END

*D_NET *608 0.0181112
*CONN
*I *8596:A I *D sky130_fd_sc_hd__and2_1
*I *8982:X O *D sky130_fd_sc_hd__buf_1
*CAP
1 *8596:A 0.00101106
2 *8982:X 0.00090092
3 *608:22 0.00349171
4 *608:18 0.0048159
5 *608:14 0.00323618
6 m_rdata[14] *608:14 1.33293e-05
7 *8596:B *8596:A 5.53774e-05
8 *8597:A *8596:A 1.19928e-05
9 *8982:A *608:14 8.8266e-05
10 *8992:A *608:14 0.00127788
11 *9019:A *8596:A 5.3203e-05
12 *548:20 *608:14 4.7242e-05
13 *571:28 *608:14 7.23602e-05
14 *571:28 *608:18 0.00153959
15 *587:14 *8596:A 0.00149623
*RES
1 *8982:X *608:14 22.37 
2 *608:14 *608:18 29.0925 
3 *608:18 *608:22 36.69 
4 *608:22 *8596:A 25.3525 
*END

*D_NET *609 0.00833973
*CONN
*I *8598:A I *D sky130_fd_sc_hd__and2_1
*I *8983:X O *D sky130_fd_sc_hd__buf_1
*CAP
1 *8598:A 6.94249e-05
2 *8983:X 7.33664e-05
3 *609:10 0.00255584
4 *609:8 0.00255978
5 *609:10 *8603:A 0.000835847
6 pwdata[9] *609:10 0
7 *8749:A0 *609:10 0
8 *8969:A *609:10 0
9 *9012:A *8598:A 9.66106e-05
10 *9087:A *609:10 0.00169358
11 *538:10 *609:10 0.000455284
*RES
1 *8983:X *609:8 4.395 
2 *609:8 *609:10 56.46 
3 *609:10 *8598:A 5.085 
*END

*D_NET *610 0.0374612
*CONN
*I *8600:A I *D sky130_fd_sc_hd__and2_1
*I *618:DIODE I *D sky130_fd_sc_hd__diode_2
*I *8984:X O *D sky130_fd_sc_hd__clkbuf_2
*CAP
1 *8600:A 0.000151465
2 *618:DIODE 0
3 *8984:X 0.00483947
4 *610:26 0.00114337
5 *610:16 0.00312625
6 *610:14 0.00697381
7 *8587:A *610:26 3.86607e-05
8 *8601:A *8600:A 4.66108e-05
9 *8767:A *610:16 0.000398999
10 *8932:A *610:14 0
11 *8934:A *610:16 6.63219e-06
12 *8984:A *610:14 3.12319e-05
13 *9005:A *610:14 0.000350314
14 *9030:A *610:14 0.00157277
15 *9050:A *610:14 0.000123816
16 *9081:A *610:14 0.000106897
17 *366:45 *610:26 0.00328667
18 *366:49 *610:16 0.00398354
19 *393:10 *610:14 0.000122004
20 *416:36 *610:14 0.000217105
21 *442:47 *610:16 0
22 *557:18 *610:16 0.000467884
23 *557:20 *610:26 0.00132148
24 *576:22 *610:14 0.00887756
25 *602:16 *8600:A 0.000274659
*RES
1 *8984:X *610:14 20.974 
2 *610:14 *610:16 55.3125 
3 *610:16 *610:26 44.46 
4 *610:26 *618:DIODE 1.6 
5 *610:26 *8600:A 4.99 
*END

*D_NET *611 0.00289819
*CONN
*I *8603:A I *D sky130_fd_sc_hd__and2_1
*I *8985:X O *D sky130_fd_sc_hd__clkbuf_1
*CAP
1 *8603:A 0.000563916
2 *8985:X 0.000563916
3 *8749:A0 *8603:A 0
4 *8985:A *8603:A 3.45588e-05
5 *9087:A *8603:A 0.000254319
6 *427:16 *8603:A 0.00011964
7 *506:20 *8603:A 0.000525995
8 *609:10 *8603:A 0.000835847
*RES
1 *8985:X *8603:A 23.79 
*END

*D_NET *612 0.0133301
*CONN
*I *8655:A1 I *D sky130_fd_sc_hd__o21ai_1
*I *8582:C I *D sky130_fd_sc_hd__and3b_2
*I *8986:X O *D sky130_fd_sc_hd__buf_1
*CAP
1 *8655:A1 1.29459e-05
2 *8582:C 0.000271225
3 *8986:X 0.00142498
4 *612:20 0.00207076
5 *612:12 0.00321157
6 *8582:C *8578:B_N 0.000143159
7 *8582:C *8580:B_N 0.000352156
8 *8581:A *8582:C 5.58436e-05
9 *8613:B *612:20 0.000505378
10 *8614:A *612:20 0.000203178
11 *8655:A2 *8582:C 0.00054457
12 *8655:A2 *8655:A1 2.41253e-05
13 *8655:B1 *8582:C 2.16833e-05
14 *8655:B1 *8655:A1 1.00714e-05
15 *8656:S *612:20 0.00042877
16 *8792:D *612:20 3.18219e-05
17 *8807:CLK *612:12 0.00100522
18 *8851:CLK *612:12 0.000582993
19 *8859:A *612:20 0.000169447
20 *8986:A *612:12 3.72916e-05
21 *273:8 *8582:C 0.000196701
22 *408:16 *8582:C 0.000102523
23 *418:8 *8582:C 7.59904e-05
24 *437:26 *8582:C 5.78185e-05
25 *467:8 *612:20 0.00119352
26 *489:63 *612:20 0.000302528
27 *568:24 *8582:C 0.000293812
*RES
1 *8986:X *612:12 31.16 
2 *612:12 *612:20 40.33 
3 *612:20 *8582:C 16.5875 
4 *612:20 *8655:A1 1.98625 
*END

*D_NET *613 0.00422116
*CONN
*I *8580:B_N I *D sky130_fd_sc_hd__or2b_1
*I *8582:A_N I *D sky130_fd_sc_hd__and3b_2
*I *8650:A I *D sky130_fd_sc_hd__or3b_2
*I *8578:A I *D sky130_fd_sc_hd__or2b_1
*I *8791:Q O *D sky130_fd_sc_hd__dfrtp_1
*CAP
1 *8580:B_N 0.00011386
2 *8582:A_N 0
3 *8650:A 0.000183419
4 *8578:A 5.74715e-05
5 *8791:Q 0.000332268
6 *613:29 0.0002811
7 *613:12 0.00022147
8 *613:8 0.000512446
9 *8580:B_N *8883:A 0.000233004
10 *8650:A *8578:B_N 4.18603e-06
11 *8650:A *8650:B 0
12 *613:8 *8883:A 1.12578e-05
13 *613:29 *8578:B_N 0.000158965
14 *8582:C *8580:B_N 0.000352156
15 *8792:RESET_B *8650:A 0
16 *8792:RESET_B *613:29 2.23407e-05
17 *8853:RESET_B *8650:A 2.92496e-05
18 *8872:A *8650:A 0.000163199
19 *8873:A *8650:A 2.05056e-05
20 *275:22 *613:8 0.000290186
21 *275:22 *613:12 0.000134837
22 *311:14 *8580:B_N 8.57024e-05
23 *311:14 *613:8 0
24 *321:14 *8650:A 1.22676e-05
25 *321:126 *8650:A 5.65627e-05
26 *321:126 *613:29 5.30673e-05
27 *408:16 *613:12 4.47458e-05
28 *408:16 *613:29 1.7396e-05
29 *418:8 *8580:B_N 0.000182896
30 *437:26 *8578:A 8.65961e-05
31 *437:26 *613:29 0.000272984
32 *512:14 *8650:A 0.000277223
33 *568:24 *613:29 9.80032e-06
*RES
1 *8791:Q *613:8 6.115 
2 *613:8 *613:12 3.635 
3 *613:12 *8578:A 4.395 
4 *613:12 *613:29 5.495 
5 *613:29 *8650:A 10.355 
6 *613:29 *8582:A_N 1.6 
7 *613:8 *8580:B_N 6.535 
*END

*D_NET *614 0.00379435
*CONN
*I *8578:B_N I *D sky130_fd_sc_hd__or2b_1
*I *8582:B I *D sky130_fd_sc_hd__and3b_2
*I *8650:B I *D sky130_fd_sc_hd__or3b_2
*I *8883:A I *D sky130_fd_sc_hd__dlygate4sd3_1
*I *8792:Q O *D sky130_fd_sc_hd__dfrtp_1
*CAP
1 *8578:B_N 8.04186e-05
2 *8582:B 2.6834e-05
3 *8650:B 0.000434227
4 *8883:A 8.3376e-05
5 *8792:Q 0.000265951
6 *614:27 0.000461061
7 *614:25 0.000205491
8 *614:10 0.0004744
9 *8580:B_N *8883:A 0.000233004
10 *8582:C *8578:B_N 0.000143159
11 *8645:A *614:10 0
12 *8650:A *8578:B_N 4.18603e-06
13 *8650:A *8650:B 0
14 *8792:RESET_B *8578:B_N 3.67779e-05
15 *8792:RESET_B *614:10 0.000131868
16 *8792:RESET_B *614:25 6.73991e-05
17 *8853:RESET_B *8650:B 0
18 *275:22 *8883:A 4.41506e-05
19 *275:78 *8650:B 0
20 *311:36 *614:10 9.92913e-05
21 *321:14 *8578:B_N 0
22 *321:14 *8650:B 3.98213e-05
23 *321:14 *614:10 0
24 *321:14 *614:25 0
25 *418:8 *8883:A 0.000340209
26 *437:26 *8578:B_N 2.16917e-05
27 *437:26 *8582:B 4.82919e-05
28 *437:26 *8650:B 0.000350486
29 *512:14 *8650:B 0
30 *568:24 *8578:B_N 3.20286e-05
31 *613:8 *8883:A 1.12578e-05
32 *613:29 *8578:B_N 0.000158965
*RES
1 *8792:Q *614:10 7.41 
2 *614:10 *8883:A 6.81 
3 *614:10 *614:25 1.935 
4 *614:25 *614:27 2 
5 *614:27 *8650:B 12.23 
6 *614:27 *8582:B 2.05 
7 *614:25 *8578:B_N 6.3 
*END
