*SPEF "ieee 1481-1999"
*DESIGN "apb_master_slave_interface"
*DATE "11:11:11 Fri 11 11, 1111"
*VENDOR "OpenRCX"
*PROGRAM "Parallel Extraction"
*VERSION "1.0"
*DESIGN_FLOW "NAME_SCOPE LOCAL" "PIN_CAP NONE"
*DIVIDER /
*DELIMITER :
*BUS_DELIMITER []
*T_UNIT 1 NS
*C_UNIT 1 PF
*R_UNIT 1 OHM
*L_UNIT 1 HENRY

*NAME_MAP
*3 clk
*4 m_addr[0]
*5 m_addr[10]
*6 m_addr[11]
*7 m_addr[12]
*8 m_addr[13]
*9 m_addr[14]
*10 m_addr[15]
*11 m_addr[16]
*12 m_addr[17]
*13 m_addr[18]
*14 m_addr[19]
*15 m_addr[1]
*16 m_addr[20]
*17 m_addr[21]
*18 m_addr[22]
*19 m_addr[23]
*20 m_addr[24]
*21 m_addr[25]
*22 m_addr[26]
*23 m_addr[27]
*24 m_addr[28]
*25 m_addr[29]
*26 m_addr[2]
*27 m_addr[30]
*28 m_addr[31]
*29 m_addr[3]
*30 m_addr[4]
*31 m_addr[5]
*32 m_addr[6]
*33 m_addr[7]
*34 m_addr[8]
*35 m_addr[9]
*36 m_rdata[0]
*37 m_rdata[10]
*38 m_rdata[11]
*39 m_rdata[12]
*40 m_rdata[13]
*41 m_rdata[14]
*42 m_rdata[15]
*43 m_rdata[16]
*44 m_rdata[17]
*45 m_rdata[18]
*46 m_rdata[19]
*47 m_rdata[1]
*48 m_rdata[20]
*49 m_rdata[21]
*50 m_rdata[22]
*51 m_rdata[23]
*52 m_rdata[24]
*53 m_rdata[25]
*54 m_rdata[26]
*55 m_rdata[27]
*56 m_rdata[28]
*57 m_rdata[29]
*58 m_rdata[2]
*59 m_rdata[30]
*60 m_rdata[31]
*61 m_rdata[3]
*62 m_rdata[4]
*63 m_rdata[5]
*64 m_rdata[6]
*65 m_rdata[7]
*66 m_rdata[8]
*67 m_rdata[9]
*68 m_ready
*69 m_req
*70 m_wdata[0]
*71 m_wdata[10]
*72 m_wdata[11]
*73 m_wdata[12]
*74 m_wdata[13]
*75 m_wdata[14]
*76 m_wdata[15]
*77 m_wdata[16]
*78 m_wdata[17]
*79 m_wdata[18]
*80 m_wdata[19]
*81 m_wdata[1]
*82 m_wdata[20]
*83 m_wdata[21]
*84 m_wdata[22]
*85 m_wdata[23]
*86 m_wdata[24]
*87 m_wdata[25]
*88 m_wdata[26]
*89 m_wdata[27]
*90 m_wdata[28]
*91 m_wdata[29]
*92 m_wdata[2]
*93 m_wdata[30]
*94 m_wdata[31]
*95 m_wdata[3]
*96 m_wdata[4]
*97 m_wdata[5]
*98 m_wdata[6]
*99 m_wdata[7]
*100 m_wdata[8]
*101 m_wdata[9]
*102 m_write
*103 paddr[0]
*104 paddr[10]
*105 paddr[11]
*106 paddr[12]
*107 paddr[13]
*108 paddr[14]
*109 paddr[15]
*110 paddr[16]
*111 paddr[17]
*112 paddr[18]
*113 paddr[19]
*114 paddr[1]
*115 paddr[20]
*116 paddr[21]
*117 paddr[22]
*118 paddr[23]
*119 paddr[24]
*120 paddr[25]
*121 paddr[26]
*122 paddr[27]
*123 paddr[28]
*124 paddr[29]
*125 paddr[2]
*126 paddr[30]
*127 paddr[31]
*128 paddr[3]
*129 paddr[4]
*130 paddr[5]
*131 paddr[6]
*132 paddr[7]
*133 paddr[8]
*134 paddr[9]
*135 pclk
*136 penable
*137 prdata[0]
*138 prdata[10]
*139 prdata[11]
*140 prdata[12]
*141 prdata[13]
*142 prdata[14]
*143 prdata[15]
*144 prdata[16]
*145 prdata[17]
*146 prdata[18]
*147 prdata[19]
*148 prdata[1]
*149 prdata[20]
*150 prdata[21]
*151 prdata[22]
*152 prdata[23]
*153 prdata[24]
*154 prdata[25]
*155 prdata[26]
*156 prdata[27]
*157 prdata[28]
*158 prdata[29]
*159 prdata[2]
*160 prdata[30]
*161 prdata[31]
*162 prdata[3]
*163 prdata[4]
*164 prdata[5]
*165 prdata[6]
*166 prdata[7]
*167 prdata[8]
*168 prdata[9]
*169 pready
*170 presetn
*171 psel
*172 pwdata[0]
*173 pwdata[10]
*174 pwdata[11]
*175 pwdata[12]
*176 pwdata[13]
*177 pwdata[14]
*178 pwdata[15]
*179 pwdata[16]
*180 pwdata[17]
*181 pwdata[18]
*182 pwdata[19]
*183 pwdata[1]
*184 pwdata[20]
*185 pwdata[21]
*186 pwdata[22]
*187 pwdata[23]
*188 pwdata[24]
*189 pwdata[25]
*190 pwdata[26]
*191 pwdata[27]
*192 pwdata[28]
*193 pwdata[29]
*194 pwdata[2]
*195 pwdata[30]
*196 pwdata[31]
*197 pwdata[3]
*198 pwdata[4]
*199 pwdata[5]
*200 pwdata[6]
*201 pwdata[7]
*202 pwdata[8]
*203 pwdata[9]
*204 pwrite
*205 rstn
*206 _000_
*207 _001_
*208 _002_
*209 _003_
*210 _004_
*211 _005_
*212 _006_
*213 _007_
*214 _008_
*215 _009_
*216 _010_
*217 _011_
*218 _012_
*219 _013_
*220 _014_
*221 _015_
*222 _016_
*223 _017_
*224 _018_
*225 _019_
*226 _020_
*227 _021_
*228 _022_
*229 _023_
*230 _024_
*231 _025_
*232 _026_
*233 _027_
*234 _028_
*235 _029_
*236 _030_
*237 _031_
*238 _032_
*239 _033_
*240 _034_
*241 _035_
*242 _036_
*243 _037_
*244 _038_
*245 _039_
*246 _040_
*247 _041_
*248 _042_
*249 _043_
*250 _044_
*251 _045_
*252 _046_
*253 _047_
*254 _048_
*255 _049_
*256 _050_
*257 _051_
*258 _052_
*259 _053_
*260 _054_
*261 _055_
*262 _056_
*263 _057_
*264 _058_
*265 _059_
*266 _060_
*267 _061_
*268 _062_
*269 _063_
*270 _064_
*271 _065_
*272 _066_
*273 _067_
*274 _068_
*275 _069_
*276 _070_
*277 _071_
*278 _072_
*279 _073_
*280 _074_
*281 _075_
*282 _076_
*283 _077_
*284 _078_
*285 _079_
*286 _080_
*287 _081_
*288 _082_
*289 _083_
*290 _084_
*291 _085_
*292 _086_
*293 _087_
*294 _088_
*295 _089_
*296 _090_
*297 _091_
*298 _092_
*299 _093_
*300 _094_
*301 _095_
*302 _096_
*303 _097_
*304 _098_
*305 _099_
*306 _100_
*307 _101_
*308 _102_
*309 _103_
*310 _104_
*311 _105_
*312 _106_
*313 _107_
*314 _108_
*315 _109_
*316 _110_
*317 _111_
*318 _112_
*319 _113_
*320 _114_
*321 _115_
*322 _116_
*323 _117_
*324 _118_
*325 _119_
*326 _120_
*327 _121_
*328 _122_
*329 _123_
*330 _124_
*331 _125_
*332 _126_
*333 _127_
*334 _128_
*335 _129_
*336 _130_
*337 _131_
*338 _132_
*339 _133_
*340 _134_
*341 _135_
*342 _136_
*343 _137_
*344 _138_
*345 _139_
*346 _140_
*347 _141_
*348 _142_
*349 _143_
*350 _144_
*351 _145_
*352 _146_
*353 _147_
*354 _148_
*355 _149_
*356 _150_
*357 _151_
*358 _152_
*359 _153_
*360 _154_
*361 _155_
*362 _156_
*363 _157_
*364 _158_
*365 _159_
*366 _160_
*367 _161_
*368 _162_
*369 _163_
*370 _164_
*371 _165_
*372 _166_
*373 _167_
*374 _168_
*375 _169_
*376 _170_
*377 _171_
*378 _172_
*379 _173_
*380 _174_
*381 _175_
*382 _176_
*383 clknet_0_clk
*384 clknet_3_0__leaf_clk
*385 clknet_3_1__leaf_clk
*386 clknet_3_2__leaf_clk
*387 clknet_3_3__leaf_clk
*388 clknet_3_4__leaf_clk
*389 clknet_3_5__leaf_clk
*390 clknet_3_6__leaf_clk
*391 clknet_3_7__leaf_clk
*392 net1
*393 net10
*394 net100
*395 net101
*396 net102
*397 net103
*398 net104
*399 net105
*400 net106
*401 net107
*402 net108
*403 net109
*404 net11
*405 net110
*406 net111
*407 net112
*408 net113
*409 net114
*410 net115
*411 net116
*412 net117
*413 net118
*414 net119
*415 net12
*416 net120
*417 net121
*418 net122
*419 net123
*420 net124
*421 net125
*422 net126
*423 net127
*424 net128
*425 net129
*426 net13
*427 net130
*428 net131
*429 net132
*430 net133
*431 net134
*432 net135
*433 net136
*434 net137
*435 net138
*436 net139
*437 net14
*438 net140
*439 net141
*440 net142
*441 net143
*442 net144
*443 net145
*444 net146
*445 net147
*446 net148
*447 net149
*448 net15
*449 net150
*450 net151
*451 net152
*452 net153
*453 net154
*454 net155
*455 net156
*456 net157
*457 net158
*458 net159
*459 net16
*460 net160
*461 net161
*462 net162
*463 net163
*464 net164
*465 net165
*466 net166
*467 net167
*468 net168
*469 net169
*470 net17
*471 net170
*472 net171
*473 net172
*474 net173
*475 net174
*476 net175
*477 net176
*478 net177
*479 net178
*480 net179
*481 net18
*482 net180
*483 net181
*484 net182
*485 net183
*486 net184
*487 net185
*488 net186
*489 net187
*490 net188
*491 net189
*492 net19
*493 net190
*494 net191
*495 net192
*496 net193
*497 net194
*498 net195
*499 net196
*500 net197
*501 net198
*502 net199
*503 net2
*504 net20
*505 net200
*506 net201
*507 net202
*508 net203
*509 net204
*510 net205
*511 net206
*512 net207
*513 net208
*514 net209
*515 net21
*516 net210
*517 net211
*518 net212
*519 net213
*520 net214
*521 net215
*522 net216
*523 net217
*524 net218
*525 net219
*526 net22
*527 net220
*528 net221
*529 net23
*530 net24
*531 net25
*532 net26
*533 net27
*534 net28
*535 net29
*536 net3
*537 net30
*538 net31
*539 net32
*540 net33
*541 net34
*542 net35
*543 net36
*544 net37
*545 net38
*546 net39
*547 net4
*548 net40
*549 net41
*550 net42
*551 net43
*552 net44
*553 net45
*554 net46
*555 net47
*556 net48
*557 net49
*558 net5
*559 net50
*560 net51
*561 net52
*562 net53
*563 net54
*564 net55
*565 net56
*566 net57
*567 net58
*568 net59
*569 net6
*570 net60
*571 net61
*572 net62
*573 net63
*574 net64
*575 net65
*576 net66
*577 net67
*578 net68
*579 net69
*580 net7
*581 net70
*582 net71
*583 net72
*584 net73
*585 net74
*586 net75
*587 net76
*588 net77
*589 net78
*590 net79
*591 net8
*592 net80
*593 net81
*594 net82
*595 net83
*596 net84
*597 net85
*598 net86
*599 net87
*600 net88
*601 net89
*602 net9
*603 net90
*604 net91
*605 net92
*606 net93
*607 net94
*608 net95
*609 net96
*610 net97
*611 net98
*612 net99
*613 state\[0\]
*614 state\[1\]
*615 ANTENNA_1
*616 ANTENNA_2
*617 ANTENNA_3
*618 ANTENNA_4
*619 FILLER_0_0_104
*620 FILLER_0_0_119
*621 FILLER_0_0_126
*622 FILLER_0_0_141
*623 FILLER_0_0_149
*624 FILLER_0_0_153
*625 FILLER_0_0_161
*626 FILLER_0_0_167
*627 FILLER_0_0_169
*628 FILLER_0_0_175
*629 FILLER_0_0_182
*630 FILLER_0_0_19
*631 FILLER_0_0_191
*632 FILLER_0_0_195
*633 FILLER_0_0_197
*634 FILLER_0_0_202
*635 FILLER_0_0_210
*636 FILLER_0_0_216
*637 FILLER_0_0_231
*638 FILLER_0_0_245
*639 FILLER_0_0_251
*640 FILLER_0_0_253
*641 FILLER_0_0_261
*642 FILLER_0_0_265
*643 FILLER_0_0_273
*644 FILLER_0_0_279
*645 FILLER_0_0_281
*646 FILLER_0_0_289
*647 FILLER_0_0_29
*648 FILLER_0_0_293
*649 FILLER_0_0_301
*650 FILLER_0_0_309
*651 FILLER_0_0_317
*652 FILLER_0_0_328
*653 FILLER_0_0_337
*654 FILLER_0_0_342
*655 FILLER_0_0_35
*656 FILLER_0_0_350
*657 FILLER_0_0_359
*658 FILLER_0_0_363
*659 FILLER_0_0_371
*660 FILLER_0_0_380
*661 FILLER_0_0_391
*662 FILLER_0_0_393
*663 FILLER_0_0_401
*664 FILLER_0_0_405
*665 FILLER_0_0_417
*666 FILLER_0_0_42
*667 FILLER_0_0_427
*668 FILLER_0_0_442
*669 FILLER_0_0_455
*670 FILLER_0_0_463
*671 FILLER_0_0_468
*672 FILLER_0_0_477
*673 FILLER_0_0_485
*674 FILLER_0_0_499
*675 FILLER_0_0_503
*676 FILLER_0_0_511
*677 FILLER_0_0_518
*678 FILLER_0_0_526
*679 FILLER_0_0_531
*680 FILLER_0_0_533
*681 FILLER_0_0_541
*682 FILLER_0_0_546
*683 FILLER_0_0_558
*684 FILLER_0_0_57
*685 FILLER_0_0_570
*686 FILLER_0_0_576
*687 FILLER_0_0_581
*688 FILLER_0_0_587
*689 FILLER_0_0_589
*690 FILLER_0_0_595
*691 FILLER_0_0_62
*692 FILLER_0_0_623
*693 FILLER_0_0_70
*694 FILLER_0_0_76
*695 FILLER_0_0_85
*696 FILLER_0_0_90
*697 FILLER_0_0_98
*698 FILLER_0_100_109
*699 FILLER_0_100_121
*700 FILLER_0_100_133
*701 FILLER_0_100_139
*702 FILLER_0_100_14
*703 FILLER_0_100_141
*704 FILLER_0_100_153
*705 FILLER_0_100_165
*706 FILLER_0_100_177
*707 FILLER_0_100_189
*708 FILLER_0_100_195
*709 FILLER_0_100_197
*710 FILLER_0_100_209
*711 FILLER_0_100_221
*712 FILLER_0_100_233
*713 FILLER_0_100_245
*714 FILLER_0_100_251
*715 FILLER_0_100_253
*716 FILLER_0_100_26
*717 FILLER_0_100_265
*718 FILLER_0_100_277
*719 FILLER_0_100_29
*720 FILLER_0_100_297
*721 FILLER_0_100_305
*722 FILLER_0_100_314
*723 FILLER_0_100_321
*724 FILLER_0_100_333
*725 FILLER_0_100_345
*726 FILLER_0_100_357
*727 FILLER_0_100_363
*728 FILLER_0_100_365
*729 FILLER_0_100_377
*730 FILLER_0_100_389
*731 FILLER_0_100_401
*732 FILLER_0_100_41
*733 FILLER_0_100_413
*734 FILLER_0_100_419
*735 FILLER_0_100_421
*736 FILLER_0_100_433
*737 FILLER_0_100_445
*738 FILLER_0_100_457
*739 FILLER_0_100_469
*740 FILLER_0_100_475
*741 FILLER_0_100_477
*742 FILLER_0_100_489
*743 FILLER_0_100_501
*744 FILLER_0_100_513
*745 FILLER_0_100_525
*746 FILLER_0_100_53
*747 FILLER_0_100_531
*748 FILLER_0_100_533
*749 FILLER_0_100_545
*750 FILLER_0_100_557
*751 FILLER_0_100_569
*752 FILLER_0_100_581
*753 FILLER_0_100_587
*754 FILLER_0_100_589
*755 FILLER_0_100_601
*756 FILLER_0_100_613
*757 FILLER_0_100_65
*758 FILLER_0_100_77
*759 FILLER_0_100_83
*760 FILLER_0_100_85
*761 FILLER_0_100_97
*762 FILLER_0_101_100
*763 FILLER_0_101_111
*764 FILLER_0_101_113
*765 FILLER_0_101_121
*766 FILLER_0_101_128
*767 FILLER_0_101_135
*768 FILLER_0_101_139
*769 FILLER_0_101_141
*770 FILLER_0_101_149
*771 FILLER_0_101_15
*772 FILLER_0_101_163
*773 FILLER_0_101_167
*774 FILLER_0_101_169
*775 FILLER_0_101_175
*776 FILLER_0_101_183
*777 FILLER_0_101_188
*778 FILLER_0_101_20
*779 FILLER_0_101_203
*780 FILLER_0_101_212
*781 FILLER_0_101_231
*782 FILLER_0_101_237
*783 FILLER_0_101_249
*784 FILLER_0_101_259
*785 FILLER_0_101_268
*786 FILLER_0_101_272
*787 FILLER_0_101_281
*788 FILLER_0_101_289
*789 FILLER_0_101_29
*790 FILLER_0_101_303
*791 FILLER_0_101_307
*792 FILLER_0_101_309
*793 FILLER_0_101_314
*794 FILLER_0_101_322
*795 FILLER_0_101_331
*796 FILLER_0_101_335
*797 FILLER_0_101_337
*798 FILLER_0_101_345
*799 FILLER_0_101_349
*800 FILLER_0_101_357
*801 FILLER_0_101_363
*802 FILLER_0_101_365
*803 FILLER_0_101_37
*804 FILLER_0_101_373
*805 FILLER_0_101_377
*806 FILLER_0_101_385
*807 FILLER_0_101_391
*808 FILLER_0_101_393
*809 FILLER_0_101_401
*810 FILLER_0_101_412
*811 FILLER_0_101_421
*812 FILLER_0_101_429
*813 FILLER_0_101_440
*814 FILLER_0_101_449
*815 FILLER_0_101_457
*816 FILLER_0_101_464
*817 FILLER_0_101_475
*818 FILLER_0_101_477
*819 FILLER_0_101_485
*820 FILLER_0_101_492
*821 FILLER_0_101_503
*822 FILLER_0_101_505
*823 FILLER_0_101_51
*824 FILLER_0_101_513
*825 FILLER_0_101_520
*826 FILLER_0_101_524
*827 FILLER_0_101_533
*828 FILLER_0_101_538
*829 FILLER_0_101_546
*830 FILLER_0_101_55
*831 FILLER_0_101_555
*832 FILLER_0_101_559
*833 FILLER_0_101_561
*834 FILLER_0_101_566
*835 FILLER_0_101_57
*836 FILLER_0_101_574
*837 FILLER_0_101_580
*838 FILLER_0_101_595
*839 FILLER_0_101_604
*840 FILLER_0_101_617
*841 FILLER_0_101_65
*842 FILLER_0_101_76
*843 FILLER_0_101_83
*844 FILLER_0_101_85
*845 FILLER_0_101_93
*846 FILLER_0_10_109
*847 FILLER_0_10_121
*848 FILLER_0_10_133
*849 FILLER_0_10_139
*850 FILLER_0_10_141
*851 FILLER_0_10_15
*852 FILLER_0_10_153
*853 FILLER_0_10_165
*854 FILLER_0_10_177
*855 FILLER_0_10_189
*856 FILLER_0_10_195
*857 FILLER_0_10_197
*858 FILLER_0_10_209
*859 FILLER_0_10_221
*860 FILLER_0_10_233
*861 FILLER_0_10_245
*862 FILLER_0_10_251
*863 FILLER_0_10_253
*864 FILLER_0_10_265
*865 FILLER_0_10_27
*866 FILLER_0_10_277
*867 FILLER_0_10_289
*868 FILLER_0_10_29
*869 FILLER_0_10_3
*870 FILLER_0_10_301
*871 FILLER_0_10_307
*872 FILLER_0_10_309
*873 FILLER_0_10_321
*874 FILLER_0_10_333
*875 FILLER_0_10_345
*876 FILLER_0_10_357
*877 FILLER_0_10_363
*878 FILLER_0_10_365
*879 FILLER_0_10_377
*880 FILLER_0_10_389
*881 FILLER_0_10_401
*882 FILLER_0_10_41
*883 FILLER_0_10_413
*884 FILLER_0_10_419
*885 FILLER_0_10_421
*886 FILLER_0_10_433
*887 FILLER_0_10_445
*888 FILLER_0_10_457
*889 FILLER_0_10_469
*890 FILLER_0_10_475
*891 FILLER_0_10_477
*892 FILLER_0_10_489
*893 FILLER_0_10_501
*894 FILLER_0_10_513
*895 FILLER_0_10_525
*896 FILLER_0_10_53
*897 FILLER_0_10_531
*898 FILLER_0_10_533
*899 FILLER_0_10_545
*900 FILLER_0_10_557
*901 FILLER_0_10_569
*902 FILLER_0_10_581
*903 FILLER_0_10_587
*904 FILLER_0_10_589
*905 FILLER_0_10_601
*906 FILLER_0_10_613
*907 FILLER_0_10_65
*908 FILLER_0_10_77
*909 FILLER_0_10_83
*910 FILLER_0_10_85
*911 FILLER_0_10_97
*912 FILLER_0_11_109
*913 FILLER_0_11_113
*914 FILLER_0_11_125
*915 FILLER_0_11_137
*916 FILLER_0_11_149
*917 FILLER_0_11_161
*918 FILLER_0_11_167
*919 FILLER_0_11_169
*920 FILLER_0_11_181
*921 FILLER_0_11_193
*922 FILLER_0_11_205
*923 FILLER_0_11_21
*924 FILLER_0_11_217
*925 FILLER_0_11_223
*926 FILLER_0_11_225
*927 FILLER_0_11_237
*928 FILLER_0_11_249
*929 FILLER_0_11_261
*930 FILLER_0_11_273
*931 FILLER_0_11_279
*932 FILLER_0_11_281
*933 FILLER_0_11_293
*934 FILLER_0_11_305
*935 FILLER_0_11_317
*936 FILLER_0_11_329
*937 FILLER_0_11_33
*938 FILLER_0_11_335
*939 FILLER_0_11_337
*940 FILLER_0_11_349
*941 FILLER_0_11_361
*942 FILLER_0_11_373
*943 FILLER_0_11_385
*944 FILLER_0_11_391
*945 FILLER_0_11_393
*946 FILLER_0_11_405
*947 FILLER_0_11_417
*948 FILLER_0_11_429
*949 FILLER_0_11_441
*950 FILLER_0_11_447
*951 FILLER_0_11_449
*952 FILLER_0_11_45
*953 FILLER_0_11_461
*954 FILLER_0_11_473
*955 FILLER_0_11_485
*956 FILLER_0_11_497
*957 FILLER_0_11_503
*958 FILLER_0_11_505
*959 FILLER_0_11_517
*960 FILLER_0_11_529
*961 FILLER_0_11_53
*962 FILLER_0_11_541
*963 FILLER_0_11_553
*964 FILLER_0_11_559
*965 FILLER_0_11_561
*966 FILLER_0_11_57
*967 FILLER_0_11_573
*968 FILLER_0_11_585
*969 FILLER_0_11_597
*970 FILLER_0_11_609
*971 FILLER_0_11_61
*972 FILLER_0_11_615
*973 FILLER_0_11_617
*974 FILLER_0_11_73
*975 FILLER_0_11_85
*976 FILLER_0_11_9
*977 FILLER_0_11_97
*978 FILLER_0_12_109
*979 FILLER_0_12_121
*980 FILLER_0_12_133
*981 FILLER_0_12_139
*982 FILLER_0_12_141
*983 FILLER_0_12_15
*984 FILLER_0_12_153
*985 FILLER_0_12_165
*986 FILLER_0_12_177
*987 FILLER_0_12_189
*988 FILLER_0_12_195
*989 FILLER_0_12_197
*990 FILLER_0_12_209
*991 FILLER_0_12_221
*992 FILLER_0_12_233
*993 FILLER_0_12_245
*994 FILLER_0_12_251
*995 FILLER_0_12_253
*996 FILLER_0_12_265
*997 FILLER_0_12_27
*998 FILLER_0_12_277
*999 FILLER_0_12_289
*1000 FILLER_0_12_29
*1001 FILLER_0_12_3
*1002 FILLER_0_12_301
*1003 FILLER_0_12_307
*1004 FILLER_0_12_309
*1005 FILLER_0_12_321
*1006 FILLER_0_12_333
*1007 FILLER_0_12_345
*1008 FILLER_0_12_357
*1009 FILLER_0_12_363
*1010 FILLER_0_12_365
*1011 FILLER_0_12_377
*1012 FILLER_0_12_389
*1013 FILLER_0_12_401
*1014 FILLER_0_12_41
*1015 FILLER_0_12_413
*1016 FILLER_0_12_419
*1017 FILLER_0_12_421
*1018 FILLER_0_12_433
*1019 FILLER_0_12_445
*1020 FILLER_0_12_457
*1021 FILLER_0_12_469
*1022 FILLER_0_12_475
*1023 FILLER_0_12_477
*1024 FILLER_0_12_489
*1025 FILLER_0_12_49
*1026 FILLER_0_12_501
*1027 FILLER_0_12_513
*1028 FILLER_0_12_525
*1029 FILLER_0_12_531
*1030 FILLER_0_12_533
*1031 FILLER_0_12_545
*1032 FILLER_0_12_557
*1033 FILLER_0_12_569
*1034 FILLER_0_12_581
*1035 FILLER_0_12_587
*1036 FILLER_0_12_589
*1037 FILLER_0_12_601
*1038 FILLER_0_12_613
*1039 FILLER_0_12_81
*1040 FILLER_0_12_85
*1041 FILLER_0_12_97
*1042 FILLER_0_13_105
*1043 FILLER_0_13_111
*1044 FILLER_0_13_113
*1045 FILLER_0_13_125
*1046 FILLER_0_13_137
*1047 FILLER_0_13_149
*1048 FILLER_0_13_15
*1049 FILLER_0_13_161
*1050 FILLER_0_13_167
*1051 FILLER_0_13_169
*1052 FILLER_0_13_181
*1053 FILLER_0_13_193
*1054 FILLER_0_13_205
*1055 FILLER_0_13_217
*1056 FILLER_0_13_223
*1057 FILLER_0_13_225
*1058 FILLER_0_13_237
*1059 FILLER_0_13_249
*1060 FILLER_0_13_261
*1061 FILLER_0_13_27
*1062 FILLER_0_13_273
*1063 FILLER_0_13_279
*1064 FILLER_0_13_281
*1065 FILLER_0_13_293
*1066 FILLER_0_13_3
*1067 FILLER_0_13_305
*1068 FILLER_0_13_317
*1069 FILLER_0_13_329
*1070 FILLER_0_13_335
*1071 FILLER_0_13_337
*1072 FILLER_0_13_349
*1073 FILLER_0_13_361
*1074 FILLER_0_13_373
*1075 FILLER_0_13_385
*1076 FILLER_0_13_39
*1077 FILLER_0_13_391
*1078 FILLER_0_13_393
*1079 FILLER_0_13_405
*1080 FILLER_0_13_417
*1081 FILLER_0_13_429
*1082 FILLER_0_13_441
*1083 FILLER_0_13_447
*1084 FILLER_0_13_449
*1085 FILLER_0_13_461
*1086 FILLER_0_13_473
*1087 FILLER_0_13_485
*1088 FILLER_0_13_497
*1089 FILLER_0_13_503
*1090 FILLER_0_13_505
*1091 FILLER_0_13_51
*1092 FILLER_0_13_517
*1093 FILLER_0_13_529
*1094 FILLER_0_13_541
*1095 FILLER_0_13_55
*1096 FILLER_0_13_553
*1097 FILLER_0_13_559
*1098 FILLER_0_13_561
*1099 FILLER_0_13_57
*1100 FILLER_0_13_573
*1101 FILLER_0_13_585
*1102 FILLER_0_13_597
*1103 FILLER_0_13_609
*1104 FILLER_0_13_615
*1105 FILLER_0_13_617
*1106 FILLER_0_13_69
*1107 FILLER_0_13_81
*1108 FILLER_0_13_93
*1109 FILLER_0_14_109
*1110 FILLER_0_14_121
*1111 FILLER_0_14_133
*1112 FILLER_0_14_139
*1113 FILLER_0_14_141
*1114 FILLER_0_14_153
*1115 FILLER_0_14_165
*1116 FILLER_0_14_177
*1117 FILLER_0_14_189
*1118 FILLER_0_14_195
*1119 FILLER_0_14_197
*1120 FILLER_0_14_209
*1121 FILLER_0_14_21
*1122 FILLER_0_14_221
*1123 FILLER_0_14_233
*1124 FILLER_0_14_245
*1125 FILLER_0_14_251
*1126 FILLER_0_14_253
*1127 FILLER_0_14_265
*1128 FILLER_0_14_27
*1129 FILLER_0_14_277
*1130 FILLER_0_14_289
*1131 FILLER_0_14_29
*1132 FILLER_0_14_301
*1133 FILLER_0_14_307
*1134 FILLER_0_14_309
*1135 FILLER_0_14_321
*1136 FILLER_0_14_333
*1137 FILLER_0_14_345
*1138 FILLER_0_14_357
*1139 FILLER_0_14_363
*1140 FILLER_0_14_365
*1141 FILLER_0_14_377
*1142 FILLER_0_14_389
*1143 FILLER_0_14_401
*1144 FILLER_0_14_41
*1145 FILLER_0_14_413
*1146 FILLER_0_14_419
*1147 FILLER_0_14_421
*1148 FILLER_0_14_433
*1149 FILLER_0_14_445
*1150 FILLER_0_14_457
*1151 FILLER_0_14_469
*1152 FILLER_0_14_475
*1153 FILLER_0_14_477
*1154 FILLER_0_14_489
*1155 FILLER_0_14_501
*1156 FILLER_0_14_513
*1157 FILLER_0_14_525
*1158 FILLER_0_14_53
*1159 FILLER_0_14_531
*1160 FILLER_0_14_533
*1161 FILLER_0_14_545
*1162 FILLER_0_14_557
*1163 FILLER_0_14_569
*1164 FILLER_0_14_581
*1165 FILLER_0_14_587
*1166 FILLER_0_14_589
*1167 FILLER_0_14_601
*1168 FILLER_0_14_613
*1169 FILLER_0_14_65
*1170 FILLER_0_14_77
*1171 FILLER_0_14_83
*1172 FILLER_0_14_85
*1173 FILLER_0_14_9
*1174 FILLER_0_14_97
*1175 FILLER_0_15_105
*1176 FILLER_0_15_111
*1177 FILLER_0_15_113
*1178 FILLER_0_15_125
*1179 FILLER_0_15_137
*1180 FILLER_0_15_149
*1181 FILLER_0_15_15
*1182 FILLER_0_15_161
*1183 FILLER_0_15_167
*1184 FILLER_0_15_169
*1185 FILLER_0_15_181
*1186 FILLER_0_15_193
*1187 FILLER_0_15_205
*1188 FILLER_0_15_217
*1189 FILLER_0_15_223
*1190 FILLER_0_15_225
*1191 FILLER_0_15_237
*1192 FILLER_0_15_249
*1193 FILLER_0_15_261
*1194 FILLER_0_15_27
*1195 FILLER_0_15_273
*1196 FILLER_0_15_279
*1197 FILLER_0_15_281
*1198 FILLER_0_15_293
*1199 FILLER_0_15_3
*1200 FILLER_0_15_305
*1201 FILLER_0_15_317
*1202 FILLER_0_15_329
*1203 FILLER_0_15_335
*1204 FILLER_0_15_337
*1205 FILLER_0_15_349
*1206 FILLER_0_15_361
*1207 FILLER_0_15_373
*1208 FILLER_0_15_385
*1209 FILLER_0_15_39
*1210 FILLER_0_15_391
*1211 FILLER_0_15_393
*1212 FILLER_0_15_405
*1213 FILLER_0_15_417
*1214 FILLER_0_15_429
*1215 FILLER_0_15_441
*1216 FILLER_0_15_447
*1217 FILLER_0_15_449
*1218 FILLER_0_15_461
*1219 FILLER_0_15_473
*1220 FILLER_0_15_485
*1221 FILLER_0_15_497
*1222 FILLER_0_15_503
*1223 FILLER_0_15_505
*1224 FILLER_0_15_51
*1225 FILLER_0_15_517
*1226 FILLER_0_15_529
*1227 FILLER_0_15_541
*1228 FILLER_0_15_55
*1229 FILLER_0_15_553
*1230 FILLER_0_15_559
*1231 FILLER_0_15_561
*1232 FILLER_0_15_57
*1233 FILLER_0_15_573
*1234 FILLER_0_15_585
*1235 FILLER_0_15_597
*1236 FILLER_0_15_609
*1237 FILLER_0_15_615
*1238 FILLER_0_15_617
*1239 FILLER_0_15_69
*1240 FILLER_0_15_81
*1241 FILLER_0_15_93
*1242 FILLER_0_16_109
*1243 FILLER_0_16_121
*1244 FILLER_0_16_133
*1245 FILLER_0_16_139
*1246 FILLER_0_16_141
*1247 FILLER_0_16_153
*1248 FILLER_0_16_165
*1249 FILLER_0_16_177
*1250 FILLER_0_16_189
*1251 FILLER_0_16_195
*1252 FILLER_0_16_197
*1253 FILLER_0_16_209
*1254 FILLER_0_16_21
*1255 FILLER_0_16_221
*1256 FILLER_0_16_233
*1257 FILLER_0_16_245
*1258 FILLER_0_16_251
*1259 FILLER_0_16_253
*1260 FILLER_0_16_265
*1261 FILLER_0_16_27
*1262 FILLER_0_16_277
*1263 FILLER_0_16_289
*1264 FILLER_0_16_29
*1265 FILLER_0_16_301
*1266 FILLER_0_16_307
*1267 FILLER_0_16_309
*1268 FILLER_0_16_321
*1269 FILLER_0_16_333
*1270 FILLER_0_16_345
*1271 FILLER_0_16_357
*1272 FILLER_0_16_363
*1273 FILLER_0_16_365
*1274 FILLER_0_16_377
*1275 FILLER_0_16_389
*1276 FILLER_0_16_401
*1277 FILLER_0_16_41
*1278 FILLER_0_16_413
*1279 FILLER_0_16_419
*1280 FILLER_0_16_421
*1281 FILLER_0_16_433
*1282 FILLER_0_16_445
*1283 FILLER_0_16_457
*1284 FILLER_0_16_469
*1285 FILLER_0_16_475
*1286 FILLER_0_16_477
*1287 FILLER_0_16_489
*1288 FILLER_0_16_501
*1289 FILLER_0_16_513
*1290 FILLER_0_16_525
*1291 FILLER_0_16_53
*1292 FILLER_0_16_531
*1293 FILLER_0_16_533
*1294 FILLER_0_16_545
*1295 FILLER_0_16_557
*1296 FILLER_0_16_569
*1297 FILLER_0_16_581
*1298 FILLER_0_16_587
*1299 FILLER_0_16_589
*1300 FILLER_0_16_601
*1301 FILLER_0_16_613
*1302 FILLER_0_16_65
*1303 FILLER_0_16_77
*1304 FILLER_0_16_83
*1305 FILLER_0_16_85
*1306 FILLER_0_16_9
*1307 FILLER_0_16_97
*1308 FILLER_0_17_105
*1309 FILLER_0_17_111
*1310 FILLER_0_17_113
*1311 FILLER_0_17_125
*1312 FILLER_0_17_137
*1313 FILLER_0_17_149
*1314 FILLER_0_17_15
*1315 FILLER_0_17_161
*1316 FILLER_0_17_167
*1317 FILLER_0_17_169
*1318 FILLER_0_17_181
*1319 FILLER_0_17_193
*1320 FILLER_0_17_205
*1321 FILLER_0_17_217
*1322 FILLER_0_17_223
*1323 FILLER_0_17_225
*1324 FILLER_0_17_237
*1325 FILLER_0_17_249
*1326 FILLER_0_17_261
*1327 FILLER_0_17_27
*1328 FILLER_0_17_273
*1329 FILLER_0_17_279
*1330 FILLER_0_17_281
*1331 FILLER_0_17_293
*1332 FILLER_0_17_3
*1333 FILLER_0_17_305
*1334 FILLER_0_17_317
*1335 FILLER_0_17_329
*1336 FILLER_0_17_335
*1337 FILLER_0_17_337
*1338 FILLER_0_17_349
*1339 FILLER_0_17_361
*1340 FILLER_0_17_373
*1341 FILLER_0_17_385
*1342 FILLER_0_17_39
*1343 FILLER_0_17_391
*1344 FILLER_0_17_393
*1345 FILLER_0_17_405
*1346 FILLER_0_17_417
*1347 FILLER_0_17_429
*1348 FILLER_0_17_441
*1349 FILLER_0_17_447
*1350 FILLER_0_17_449
*1351 FILLER_0_17_461
*1352 FILLER_0_17_473
*1353 FILLER_0_17_485
*1354 FILLER_0_17_497
*1355 FILLER_0_17_503
*1356 FILLER_0_17_505
*1357 FILLER_0_17_51
*1358 FILLER_0_17_517
*1359 FILLER_0_17_529
*1360 FILLER_0_17_541
*1361 FILLER_0_17_55
*1362 FILLER_0_17_553
*1363 FILLER_0_17_559
*1364 FILLER_0_17_561
*1365 FILLER_0_17_57
*1366 FILLER_0_17_573
*1367 FILLER_0_17_585
*1368 FILLER_0_17_597
*1369 FILLER_0_17_609
*1370 FILLER_0_17_615
*1371 FILLER_0_17_617
*1372 FILLER_0_17_69
*1373 FILLER_0_17_81
*1374 FILLER_0_17_93
*1375 FILLER_0_18_109
*1376 FILLER_0_18_121
*1377 FILLER_0_18_133
*1378 FILLER_0_18_139
*1379 FILLER_0_18_141
*1380 FILLER_0_18_15
*1381 FILLER_0_18_153
*1382 FILLER_0_18_165
*1383 FILLER_0_18_177
*1384 FILLER_0_18_189
*1385 FILLER_0_18_195
*1386 FILLER_0_18_197
*1387 FILLER_0_18_209
*1388 FILLER_0_18_221
*1389 FILLER_0_18_233
*1390 FILLER_0_18_245
*1391 FILLER_0_18_251
*1392 FILLER_0_18_253
*1393 FILLER_0_18_265
*1394 FILLER_0_18_27
*1395 FILLER_0_18_277
*1396 FILLER_0_18_289
*1397 FILLER_0_18_29
*1398 FILLER_0_18_3
*1399 FILLER_0_18_301
*1400 FILLER_0_18_307
*1401 FILLER_0_18_309
*1402 FILLER_0_18_321
*1403 FILLER_0_18_333
*1404 FILLER_0_18_345
*1405 FILLER_0_18_357
*1406 FILLER_0_18_363
*1407 FILLER_0_18_365
*1408 FILLER_0_18_377
*1409 FILLER_0_18_389
*1410 FILLER_0_18_401
*1411 FILLER_0_18_41
*1412 FILLER_0_18_413
*1413 FILLER_0_18_419
*1414 FILLER_0_18_421
*1415 FILLER_0_18_433
*1416 FILLER_0_18_445
*1417 FILLER_0_18_457
*1418 FILLER_0_18_469
*1419 FILLER_0_18_475
*1420 FILLER_0_18_477
*1421 FILLER_0_18_489
*1422 FILLER_0_18_501
*1423 FILLER_0_18_513
*1424 FILLER_0_18_525
*1425 FILLER_0_18_53
*1426 FILLER_0_18_531
*1427 FILLER_0_18_533
*1428 FILLER_0_18_545
*1429 FILLER_0_18_557
*1430 FILLER_0_18_569
*1431 FILLER_0_18_581
*1432 FILLER_0_18_587
*1433 FILLER_0_18_589
*1434 FILLER_0_18_601
*1435 FILLER_0_18_613
*1436 FILLER_0_18_65
*1437 FILLER_0_18_77
*1438 FILLER_0_18_83
*1439 FILLER_0_18_85
*1440 FILLER_0_18_97
*1441 FILLER_0_19_105
*1442 FILLER_0_19_111
*1443 FILLER_0_19_113
*1444 FILLER_0_19_125
*1445 FILLER_0_19_137
*1446 FILLER_0_19_149
*1447 FILLER_0_19_161
*1448 FILLER_0_19_167
*1449 FILLER_0_19_169
*1450 FILLER_0_19_18
*1451 FILLER_0_19_181
*1452 FILLER_0_19_193
*1453 FILLER_0_19_205
*1454 FILLER_0_19_217
*1455 FILLER_0_19_223
*1456 FILLER_0_19_225
*1457 FILLER_0_19_237
*1458 FILLER_0_19_241
*1459 FILLER_0_19_262
*1460 FILLER_0_19_274
*1461 FILLER_0_19_281
*1462 FILLER_0_19_293
*1463 FILLER_0_19_30
*1464 FILLER_0_19_305
*1465 FILLER_0_19_317
*1466 FILLER_0_19_329
*1467 FILLER_0_19_335
*1468 FILLER_0_19_337
*1469 FILLER_0_19_349
*1470 FILLER_0_19_361
*1471 FILLER_0_19_373
*1472 FILLER_0_19_385
*1473 FILLER_0_19_391
*1474 FILLER_0_19_393
*1475 FILLER_0_19_405
*1476 FILLER_0_19_417
*1477 FILLER_0_19_42
*1478 FILLER_0_19_429
*1479 FILLER_0_19_441
*1480 FILLER_0_19_447
*1481 FILLER_0_19_449
*1482 FILLER_0_19_461
*1483 FILLER_0_19_473
*1484 FILLER_0_19_485
*1485 FILLER_0_19_497
*1486 FILLER_0_19_503
*1487 FILLER_0_19_505
*1488 FILLER_0_19_517
*1489 FILLER_0_19_529
*1490 FILLER_0_19_54
*1491 FILLER_0_19_541
*1492 FILLER_0_19_553
*1493 FILLER_0_19_559
*1494 FILLER_0_19_561
*1495 FILLER_0_19_57
*1496 FILLER_0_19_573
*1497 FILLER_0_19_585
*1498 FILLER_0_19_597
*1499 FILLER_0_19_6
*1500 FILLER_0_19_609
*1501 FILLER_0_19_615
*1502 FILLER_0_19_617
*1503 FILLER_0_19_69
*1504 FILLER_0_19_81
*1505 FILLER_0_19_93
*1506 FILLER_0_1_105
*1507 FILLER_0_1_111
*1508 FILLER_0_1_113
*1509 FILLER_0_1_125
*1510 FILLER_0_1_137
*1511 FILLER_0_1_149
*1512 FILLER_0_1_161
*1513 FILLER_0_1_167
*1514 FILLER_0_1_169
*1515 FILLER_0_1_17
*1516 FILLER_0_1_173
*1517 FILLER_0_1_177
*1518 FILLER_0_1_189
*1519 FILLER_0_1_201
*1520 FILLER_0_1_213
*1521 FILLER_0_1_221
*1522 FILLER_0_1_225
*1523 FILLER_0_1_237
*1524 FILLER_0_1_242
*1525 FILLER_0_1_252
*1526 FILLER_0_1_264
*1527 FILLER_0_1_276
*1528 FILLER_0_1_281
*1529 FILLER_0_1_29
*1530 FILLER_0_1_3
*1531 FILLER_0_1_331
*1532 FILLER_0_1_335
*1533 FILLER_0_1_337
*1534 FILLER_0_1_349
*1535 FILLER_0_1_361
*1536 FILLER_0_1_373
*1537 FILLER_0_1_381
*1538 FILLER_0_1_387
*1539 FILLER_0_1_402
*1540 FILLER_0_1_41
*1541 FILLER_0_1_414
*1542 FILLER_0_1_426
*1543 FILLER_0_1_438
*1544 FILLER_0_1_446
*1545 FILLER_0_1_449
*1546 FILLER_0_1_461
*1547 FILLER_0_1_473
*1548 FILLER_0_1_485
*1549 FILLER_0_1_497
*1550 FILLER_0_1_503
*1551 FILLER_0_1_505
*1552 FILLER_0_1_517
*1553 FILLER_0_1_529
*1554 FILLER_0_1_53
*1555 FILLER_0_1_541
*1556 FILLER_0_1_553
*1557 FILLER_0_1_559
*1558 FILLER_0_1_561
*1559 FILLER_0_1_57
*1560 FILLER_0_1_573
*1561 FILLER_0_1_585
*1562 FILLER_0_1_597
*1563 FILLER_0_1_609
*1564 FILLER_0_1_617
*1565 FILLER_0_1_69
*1566 FILLER_0_1_81
*1567 FILLER_0_1_93
*1568 FILLER_0_20_109
*1569 FILLER_0_20_121
*1570 FILLER_0_20_133
*1571 FILLER_0_20_139
*1572 FILLER_0_20_141
*1573 FILLER_0_20_153
*1574 FILLER_0_20_165
*1575 FILLER_0_20_177
*1576 FILLER_0_20_189
*1577 FILLER_0_20_19
*1578 FILLER_0_20_195
*1579 FILLER_0_20_197
*1580 FILLER_0_20_209
*1581 FILLER_0_20_221
*1582 FILLER_0_20_233
*1583 FILLER_0_20_245
*1584 FILLER_0_20_251
*1585 FILLER_0_20_253
*1586 FILLER_0_20_265
*1587 FILLER_0_20_27
*1588 FILLER_0_20_277
*1589 FILLER_0_20_289
*1590 FILLER_0_20_29
*1591 FILLER_0_20_301
*1592 FILLER_0_20_307
*1593 FILLER_0_20_309
*1594 FILLER_0_20_321
*1595 FILLER_0_20_333
*1596 FILLER_0_20_345
*1597 FILLER_0_20_357
*1598 FILLER_0_20_363
*1599 FILLER_0_20_365
*1600 FILLER_0_20_377
*1601 FILLER_0_20_389
*1602 FILLER_0_20_401
*1603 FILLER_0_20_41
*1604 FILLER_0_20_413
*1605 FILLER_0_20_419
*1606 FILLER_0_20_421
*1607 FILLER_0_20_436
*1608 FILLER_0_20_447
*1609 FILLER_0_20_459
*1610 FILLER_0_20_471
*1611 FILLER_0_20_475
*1612 FILLER_0_20_477
*1613 FILLER_0_20_489
*1614 FILLER_0_20_501
*1615 FILLER_0_20_513
*1616 FILLER_0_20_525
*1617 FILLER_0_20_53
*1618 FILLER_0_20_531
*1619 FILLER_0_20_533
*1620 FILLER_0_20_545
*1621 FILLER_0_20_557
*1622 FILLER_0_20_569
*1623 FILLER_0_20_581
*1624 FILLER_0_20_587
*1625 FILLER_0_20_589
*1626 FILLER_0_20_601
*1627 FILLER_0_20_613
*1628 FILLER_0_20_621
*1629 FILLER_0_20_65
*1630 FILLER_0_20_7
*1631 FILLER_0_20_77
*1632 FILLER_0_20_83
*1633 FILLER_0_20_85
*1634 FILLER_0_20_97
*1635 FILLER_0_21_105
*1636 FILLER_0_21_111
*1637 FILLER_0_21_113
*1638 FILLER_0_21_125
*1639 FILLER_0_21_137
*1640 FILLER_0_21_149
*1641 FILLER_0_21_15
*1642 FILLER_0_21_161
*1643 FILLER_0_21_167
*1644 FILLER_0_21_169
*1645 FILLER_0_21_181
*1646 FILLER_0_21_193
*1647 FILLER_0_21_205
*1648 FILLER_0_21_217
*1649 FILLER_0_21_223
*1650 FILLER_0_21_225
*1651 FILLER_0_21_237
*1652 FILLER_0_21_249
*1653 FILLER_0_21_261
*1654 FILLER_0_21_27
*1655 FILLER_0_21_273
*1656 FILLER_0_21_279
*1657 FILLER_0_21_281
*1658 FILLER_0_21_293
*1659 FILLER_0_21_3
*1660 FILLER_0_21_305
*1661 FILLER_0_21_317
*1662 FILLER_0_21_329
*1663 FILLER_0_21_335
*1664 FILLER_0_21_337
*1665 FILLER_0_21_349
*1666 FILLER_0_21_361
*1667 FILLER_0_21_373
*1668 FILLER_0_21_385
*1669 FILLER_0_21_39
*1670 FILLER_0_21_391
*1671 FILLER_0_21_393
*1672 FILLER_0_21_405
*1673 FILLER_0_21_417
*1674 FILLER_0_21_425
*1675 FILLER_0_21_446
*1676 FILLER_0_21_449
*1677 FILLER_0_21_461
*1678 FILLER_0_21_473
*1679 FILLER_0_21_485
*1680 FILLER_0_21_497
*1681 FILLER_0_21_503
*1682 FILLER_0_21_505
*1683 FILLER_0_21_51
*1684 FILLER_0_21_517
*1685 FILLER_0_21_529
*1686 FILLER_0_21_541
*1687 FILLER_0_21_55
*1688 FILLER_0_21_553
*1689 FILLER_0_21_559
*1690 FILLER_0_21_561
*1691 FILLER_0_21_57
*1692 FILLER_0_21_573
*1693 FILLER_0_21_585
*1694 FILLER_0_21_597
*1695 FILLER_0_21_609
*1696 FILLER_0_21_615
*1697 FILLER_0_21_617
*1698 FILLER_0_21_69
*1699 FILLER_0_21_81
*1700 FILLER_0_21_93
*1701 FILLER_0_22_109
*1702 FILLER_0_22_121
*1703 FILLER_0_22_133
*1704 FILLER_0_22_139
*1705 FILLER_0_22_141
*1706 FILLER_0_22_153
*1707 FILLER_0_22_165
*1708 FILLER_0_22_177
*1709 FILLER_0_22_189
*1710 FILLER_0_22_195
*1711 FILLER_0_22_197
*1712 FILLER_0_22_209
*1713 FILLER_0_22_21
*1714 FILLER_0_22_221
*1715 FILLER_0_22_233
*1716 FILLER_0_22_245
*1717 FILLER_0_22_251
*1718 FILLER_0_22_253
*1719 FILLER_0_22_265
*1720 FILLER_0_22_27
*1721 FILLER_0_22_277
*1722 FILLER_0_22_289
*1723 FILLER_0_22_29
*1724 FILLER_0_22_301
*1725 FILLER_0_22_307
*1726 FILLER_0_22_309
*1727 FILLER_0_22_321
*1728 FILLER_0_22_333
*1729 FILLER_0_22_345
*1730 FILLER_0_22_357
*1731 FILLER_0_22_363
*1732 FILLER_0_22_365
*1733 FILLER_0_22_377
*1734 FILLER_0_22_389
*1735 FILLER_0_22_401
*1736 FILLER_0_22_41
*1737 FILLER_0_22_413
*1738 FILLER_0_22_419
*1739 FILLER_0_22_421
*1740 FILLER_0_22_433
*1741 FILLER_0_22_445
*1742 FILLER_0_22_457
*1743 FILLER_0_22_469
*1744 FILLER_0_22_475
*1745 FILLER_0_22_477
*1746 FILLER_0_22_489
*1747 FILLER_0_22_501
*1748 FILLER_0_22_513
*1749 FILLER_0_22_525
*1750 FILLER_0_22_53
*1751 FILLER_0_22_531
*1752 FILLER_0_22_533
*1753 FILLER_0_22_545
*1754 FILLER_0_22_557
*1755 FILLER_0_22_569
*1756 FILLER_0_22_581
*1757 FILLER_0_22_587
*1758 FILLER_0_22_589
*1759 FILLER_0_22_601
*1760 FILLER_0_22_613
*1761 FILLER_0_22_65
*1762 FILLER_0_22_77
*1763 FILLER_0_22_83
*1764 FILLER_0_22_85
*1765 FILLER_0_22_9
*1766 FILLER_0_22_97
*1767 FILLER_0_23_105
*1768 FILLER_0_23_111
*1769 FILLER_0_23_113
*1770 FILLER_0_23_125
*1771 FILLER_0_23_137
*1772 FILLER_0_23_149
*1773 FILLER_0_23_15
*1774 FILLER_0_23_161
*1775 FILLER_0_23_167
*1776 FILLER_0_23_169
*1777 FILLER_0_23_181
*1778 FILLER_0_23_193
*1779 FILLER_0_23_205
*1780 FILLER_0_23_217
*1781 FILLER_0_23_223
*1782 FILLER_0_23_225
*1783 FILLER_0_23_237
*1784 FILLER_0_23_249
*1785 FILLER_0_23_261
*1786 FILLER_0_23_27
*1787 FILLER_0_23_273
*1788 FILLER_0_23_279
*1789 FILLER_0_23_281
*1790 FILLER_0_23_293
*1791 FILLER_0_23_3
*1792 FILLER_0_23_305
*1793 FILLER_0_23_317
*1794 FILLER_0_23_329
*1795 FILLER_0_23_335
*1796 FILLER_0_23_337
*1797 FILLER_0_23_349
*1798 FILLER_0_23_361
*1799 FILLER_0_23_373
*1800 FILLER_0_23_385
*1801 FILLER_0_23_39
*1802 FILLER_0_23_391
*1803 FILLER_0_23_393
*1804 FILLER_0_23_405
*1805 FILLER_0_23_417
*1806 FILLER_0_23_429
*1807 FILLER_0_23_441
*1808 FILLER_0_23_447
*1809 FILLER_0_23_449
*1810 FILLER_0_23_461
*1811 FILLER_0_23_473
*1812 FILLER_0_23_485
*1813 FILLER_0_23_497
*1814 FILLER_0_23_503
*1815 FILLER_0_23_505
*1816 FILLER_0_23_51
*1817 FILLER_0_23_517
*1818 FILLER_0_23_529
*1819 FILLER_0_23_541
*1820 FILLER_0_23_55
*1821 FILLER_0_23_553
*1822 FILLER_0_23_559
*1823 FILLER_0_23_561
*1824 FILLER_0_23_57
*1825 FILLER_0_23_573
*1826 FILLER_0_23_585
*1827 FILLER_0_23_597
*1828 FILLER_0_23_609
*1829 FILLER_0_23_615
*1830 FILLER_0_23_617
*1831 FILLER_0_23_69
*1832 FILLER_0_23_81
*1833 FILLER_0_23_93
*1834 FILLER_0_24_109
*1835 FILLER_0_24_121
*1836 FILLER_0_24_133
*1837 FILLER_0_24_139
*1838 FILLER_0_24_141
*1839 FILLER_0_24_15
*1840 FILLER_0_24_153
*1841 FILLER_0_24_165
*1842 FILLER_0_24_177
*1843 FILLER_0_24_189
*1844 FILLER_0_24_195
*1845 FILLER_0_24_197
*1846 FILLER_0_24_209
*1847 FILLER_0_24_221
*1848 FILLER_0_24_233
*1849 FILLER_0_24_245
*1850 FILLER_0_24_251
*1851 FILLER_0_24_253
*1852 FILLER_0_24_265
*1853 FILLER_0_24_27
*1854 FILLER_0_24_277
*1855 FILLER_0_24_289
*1856 FILLER_0_24_29
*1857 FILLER_0_24_3
*1858 FILLER_0_24_301
*1859 FILLER_0_24_307
*1860 FILLER_0_24_309
*1861 FILLER_0_24_321
*1862 FILLER_0_24_333
*1863 FILLER_0_24_345
*1864 FILLER_0_24_357
*1865 FILLER_0_24_363
*1866 FILLER_0_24_365
*1867 FILLER_0_24_377
*1868 FILLER_0_24_389
*1869 FILLER_0_24_401
*1870 FILLER_0_24_41
*1871 FILLER_0_24_413
*1872 FILLER_0_24_419
*1873 FILLER_0_24_421
*1874 FILLER_0_24_433
*1875 FILLER_0_24_441
*1876 FILLER_0_24_448
*1877 FILLER_0_24_456
*1878 FILLER_0_24_468
*1879 FILLER_0_24_477
*1880 FILLER_0_24_489
*1881 FILLER_0_24_501
*1882 FILLER_0_24_513
*1883 FILLER_0_24_525
*1884 FILLER_0_24_53
*1885 FILLER_0_24_531
*1886 FILLER_0_24_533
*1887 FILLER_0_24_545
*1888 FILLER_0_24_557
*1889 FILLER_0_24_569
*1890 FILLER_0_24_581
*1891 FILLER_0_24_587
*1892 FILLER_0_24_589
*1893 FILLER_0_24_601
*1894 FILLER_0_24_613
*1895 FILLER_0_24_65
*1896 FILLER_0_24_77
*1897 FILLER_0_24_83
*1898 FILLER_0_24_85
*1899 FILLER_0_24_97
*1900 FILLER_0_25_105
*1901 FILLER_0_25_111
*1902 FILLER_0_25_113
*1903 FILLER_0_25_125
*1904 FILLER_0_25_137
*1905 FILLER_0_25_149
*1906 FILLER_0_25_161
*1907 FILLER_0_25_167
*1908 FILLER_0_25_169
*1909 FILLER_0_25_181
*1910 FILLER_0_25_19
*1911 FILLER_0_25_193
*1912 FILLER_0_25_205
*1913 FILLER_0_25_217
*1914 FILLER_0_25_223
*1915 FILLER_0_25_225
*1916 FILLER_0_25_237
*1917 FILLER_0_25_249
*1918 FILLER_0_25_261
*1919 FILLER_0_25_273
*1920 FILLER_0_25_279
*1921 FILLER_0_25_281
*1922 FILLER_0_25_293
*1923 FILLER_0_25_305
*1924 FILLER_0_25_31
*1925 FILLER_0_25_317
*1926 FILLER_0_25_329
*1927 FILLER_0_25_335
*1928 FILLER_0_25_337
*1929 FILLER_0_25_349
*1930 FILLER_0_25_361
*1931 FILLER_0_25_373
*1932 FILLER_0_25_385
*1933 FILLER_0_25_391
*1934 FILLER_0_25_393
*1935 FILLER_0_25_405
*1936 FILLER_0_25_417
*1937 FILLER_0_25_429
*1938 FILLER_0_25_43
*1939 FILLER_0_25_441
*1940 FILLER_0_25_447
*1941 FILLER_0_25_449
*1942 FILLER_0_25_461
*1943 FILLER_0_25_473
*1944 FILLER_0_25_485
*1945 FILLER_0_25_497
*1946 FILLER_0_25_503
*1947 FILLER_0_25_505
*1948 FILLER_0_25_517
*1949 FILLER_0_25_529
*1950 FILLER_0_25_541
*1951 FILLER_0_25_55
*1952 FILLER_0_25_553
*1953 FILLER_0_25_559
*1954 FILLER_0_25_561
*1955 FILLER_0_25_57
*1956 FILLER_0_25_573
*1957 FILLER_0_25_585
*1958 FILLER_0_25_597
*1959 FILLER_0_25_609
*1960 FILLER_0_25_615
*1961 FILLER_0_25_617
*1962 FILLER_0_25_69
*1963 FILLER_0_25_7
*1964 FILLER_0_25_81
*1965 FILLER_0_25_93
*1966 FILLER_0_26_109
*1967 FILLER_0_26_121
*1968 FILLER_0_26_133
*1969 FILLER_0_26_139
*1970 FILLER_0_26_141
*1971 FILLER_0_26_15
*1972 FILLER_0_26_153
*1973 FILLER_0_26_165
*1974 FILLER_0_26_177
*1975 FILLER_0_26_189
*1976 FILLER_0_26_195
*1977 FILLER_0_26_197
*1978 FILLER_0_26_209
*1979 FILLER_0_26_221
*1980 FILLER_0_26_233
*1981 FILLER_0_26_245
*1982 FILLER_0_26_251
*1983 FILLER_0_26_253
*1984 FILLER_0_26_265
*1985 FILLER_0_26_27
*1986 FILLER_0_26_277
*1987 FILLER_0_26_289
*1988 FILLER_0_26_29
*1989 FILLER_0_26_3
*1990 FILLER_0_26_301
*1991 FILLER_0_26_307
*1992 FILLER_0_26_309
*1993 FILLER_0_26_321
*1994 FILLER_0_26_333
*1995 FILLER_0_26_345
*1996 FILLER_0_26_357
*1997 FILLER_0_26_363
*1998 FILLER_0_26_365
*1999 FILLER_0_26_377
*2000 FILLER_0_26_389
*2001 FILLER_0_26_401
*2002 FILLER_0_26_41
*2003 FILLER_0_26_413
*2004 FILLER_0_26_419
*2005 FILLER_0_26_421
*2006 FILLER_0_26_433
*2007 FILLER_0_26_445
*2008 FILLER_0_26_457
*2009 FILLER_0_26_469
*2010 FILLER_0_26_475
*2011 FILLER_0_26_477
*2012 FILLER_0_26_489
*2013 FILLER_0_26_501
*2014 FILLER_0_26_513
*2015 FILLER_0_26_525
*2016 FILLER_0_26_53
*2017 FILLER_0_26_531
*2018 FILLER_0_26_533
*2019 FILLER_0_26_545
*2020 FILLER_0_26_557
*2021 FILLER_0_26_569
*2022 FILLER_0_26_581
*2023 FILLER_0_26_587
*2024 FILLER_0_26_589
*2025 FILLER_0_26_601
*2026 FILLER_0_26_613
*2027 FILLER_0_26_621
*2028 FILLER_0_26_65
*2029 FILLER_0_26_77
*2030 FILLER_0_26_83
*2031 FILLER_0_26_85
*2032 FILLER_0_26_97
*2033 FILLER_0_27_105
*2034 FILLER_0_27_111
*2035 FILLER_0_27_113
*2036 FILLER_0_27_125
*2037 FILLER_0_27_13
*2038 FILLER_0_27_137
*2039 FILLER_0_27_149
*2040 FILLER_0_27_161
*2041 FILLER_0_27_167
*2042 FILLER_0_27_169
*2043 FILLER_0_27_181
*2044 FILLER_0_27_193
*2045 FILLER_0_27_205
*2046 FILLER_0_27_217
*2047 FILLER_0_27_223
*2048 FILLER_0_27_225
*2049 FILLER_0_27_237
*2050 FILLER_0_27_249
*2051 FILLER_0_27_25
*2052 FILLER_0_27_261
*2053 FILLER_0_27_273
*2054 FILLER_0_27_279
*2055 FILLER_0_27_281
*2056 FILLER_0_27_293
*2057 FILLER_0_27_305
*2058 FILLER_0_27_317
*2059 FILLER_0_27_329
*2060 FILLER_0_27_335
*2061 FILLER_0_27_337
*2062 FILLER_0_27_349
*2063 FILLER_0_27_361
*2064 FILLER_0_27_37
*2065 FILLER_0_27_373
*2066 FILLER_0_27_385
*2067 FILLER_0_27_391
*2068 FILLER_0_27_393
*2069 FILLER_0_27_405
*2070 FILLER_0_27_417
*2071 FILLER_0_27_429
*2072 FILLER_0_27_441
*2073 FILLER_0_27_447
*2074 FILLER_0_27_449
*2075 FILLER_0_27_461
*2076 FILLER_0_27_473
*2077 FILLER_0_27_485
*2078 FILLER_0_27_49
*2079 FILLER_0_27_497
*2080 FILLER_0_27_503
*2081 FILLER_0_27_505
*2082 FILLER_0_27_517
*2083 FILLER_0_27_529
*2084 FILLER_0_27_541
*2085 FILLER_0_27_55
*2086 FILLER_0_27_553
*2087 FILLER_0_27_559
*2088 FILLER_0_27_561
*2089 FILLER_0_27_57
*2090 FILLER_0_27_573
*2091 FILLER_0_27_585
*2092 FILLER_0_27_597
*2093 FILLER_0_27_609
*2094 FILLER_0_27_615
*2095 FILLER_0_27_617
*2096 FILLER_0_27_69
*2097 FILLER_0_27_81
*2098 FILLER_0_27_93
*2099 FILLER_0_28_109
*2100 FILLER_0_28_121
*2101 FILLER_0_28_133
*2102 FILLER_0_28_139
*2103 FILLER_0_28_141
*2104 FILLER_0_28_15
*2105 FILLER_0_28_153
*2106 FILLER_0_28_165
*2107 FILLER_0_28_177
*2108 FILLER_0_28_189
*2109 FILLER_0_28_195
*2110 FILLER_0_28_197
*2111 FILLER_0_28_209
*2112 FILLER_0_28_221
*2113 FILLER_0_28_233
*2114 FILLER_0_28_245
*2115 FILLER_0_28_251
*2116 FILLER_0_28_253
*2117 FILLER_0_28_265
*2118 FILLER_0_28_27
*2119 FILLER_0_28_277
*2120 FILLER_0_28_289
*2121 FILLER_0_28_29
*2122 FILLER_0_28_294
*2123 FILLER_0_28_3
*2124 FILLER_0_28_306
*2125 FILLER_0_28_309
*2126 FILLER_0_28_321
*2127 FILLER_0_28_333
*2128 FILLER_0_28_345
*2129 FILLER_0_28_357
*2130 FILLER_0_28_363
*2131 FILLER_0_28_365
*2132 FILLER_0_28_377
*2133 FILLER_0_28_389
*2134 FILLER_0_28_401
*2135 FILLER_0_28_41
*2136 FILLER_0_28_413
*2137 FILLER_0_28_419
*2138 FILLER_0_28_421
*2139 FILLER_0_28_433
*2140 FILLER_0_28_445
*2141 FILLER_0_28_457
*2142 FILLER_0_28_469
*2143 FILLER_0_28_475
*2144 FILLER_0_28_477
*2145 FILLER_0_28_489
*2146 FILLER_0_28_501
*2147 FILLER_0_28_513
*2148 FILLER_0_28_525
*2149 FILLER_0_28_53
*2150 FILLER_0_28_531
*2151 FILLER_0_28_533
*2152 FILLER_0_28_545
*2153 FILLER_0_28_557
*2154 FILLER_0_28_563
*2155 FILLER_0_28_569
*2156 FILLER_0_28_581
*2157 FILLER_0_28_587
*2158 FILLER_0_28_589
*2159 FILLER_0_28_601
*2160 FILLER_0_28_613
*2161 FILLER_0_28_65
*2162 FILLER_0_28_77
*2163 FILLER_0_28_83
*2164 FILLER_0_28_85
*2165 FILLER_0_28_97
*2166 FILLER_0_29_100
*2167 FILLER_0_29_113
*2168 FILLER_0_29_125
*2169 FILLER_0_29_137
*2170 FILLER_0_29_149
*2171 FILLER_0_29_15
*2172 FILLER_0_29_161
*2173 FILLER_0_29_167
*2174 FILLER_0_29_169
*2175 FILLER_0_29_181
*2176 FILLER_0_29_193
*2177 FILLER_0_29_205
*2178 FILLER_0_29_217
*2179 FILLER_0_29_223
*2180 FILLER_0_29_225
*2181 FILLER_0_29_237
*2182 FILLER_0_29_249
*2183 FILLER_0_29_261
*2184 FILLER_0_29_27
*2185 FILLER_0_29_273
*2186 FILLER_0_29_279
*2187 FILLER_0_29_286
*2188 FILLER_0_29_298
*2189 FILLER_0_29_3
*2190 FILLER_0_29_310
*2191 FILLER_0_29_314
*2192 FILLER_0_29_319
*2193 FILLER_0_29_331
*2194 FILLER_0_29_335
*2195 FILLER_0_29_337
*2196 FILLER_0_29_349
*2197 FILLER_0_29_361
*2198 FILLER_0_29_373
*2199 FILLER_0_29_385
*2200 FILLER_0_29_39
*2201 FILLER_0_29_391
*2202 FILLER_0_29_393
*2203 FILLER_0_29_405
*2204 FILLER_0_29_417
*2205 FILLER_0_29_429
*2206 FILLER_0_29_441
*2207 FILLER_0_29_447
*2208 FILLER_0_29_469
*2209 FILLER_0_29_481
*2210 FILLER_0_29_493
*2211 FILLER_0_29_501
*2212 FILLER_0_29_505
*2213 FILLER_0_29_51
*2214 FILLER_0_29_517
*2215 FILLER_0_29_529
*2216 FILLER_0_29_541
*2217 FILLER_0_29_55
*2218 FILLER_0_29_553
*2219 FILLER_0_29_559
*2220 FILLER_0_29_561
*2221 FILLER_0_29_57
*2222 FILLER_0_29_573
*2223 FILLER_0_29_585
*2224 FILLER_0_29_597
*2225 FILLER_0_29_609
*2226 FILLER_0_29_615
*2227 FILLER_0_29_617
*2228 FILLER_0_29_69
*2229 FILLER_0_29_81
*2230 FILLER_0_29_88
*2231 FILLER_0_2_109
*2232 FILLER_0_2_121
*2233 FILLER_0_2_133
*2234 FILLER_0_2_139
*2235 FILLER_0_2_141
*2236 FILLER_0_2_15
*2237 FILLER_0_2_153
*2238 FILLER_0_2_165
*2239 FILLER_0_2_197
*2240 FILLER_0_2_209
*2241 FILLER_0_2_221
*2242 FILLER_0_2_229
*2243 FILLER_0_2_253
*2244 FILLER_0_2_265
*2245 FILLER_0_2_27
*2246 FILLER_0_2_277
*2247 FILLER_0_2_29
*2248 FILLER_0_2_306
*2249 FILLER_0_2_332
*2250 FILLER_0_2_344
*2251 FILLER_0_2_356
*2252 FILLER_0_2_365
*2253 FILLER_0_2_377
*2254 FILLER_0_2_41
*2255 FILLER_0_2_418
*2256 FILLER_0_2_430
*2257 FILLER_0_2_442
*2258 FILLER_0_2_454
*2259 FILLER_0_2_466
*2260 FILLER_0_2_474
*2261 FILLER_0_2_477
*2262 FILLER_0_2_489
*2263 FILLER_0_2_501
*2264 FILLER_0_2_513
*2265 FILLER_0_2_525
*2266 FILLER_0_2_53
*2267 FILLER_0_2_531
*2268 FILLER_0_2_533
*2269 FILLER_0_2_545
*2270 FILLER_0_2_557
*2271 FILLER_0_2_569
*2272 FILLER_0_2_581
*2273 FILLER_0_2_587
*2274 FILLER_0_2_589
*2275 FILLER_0_2_601
*2276 FILLER_0_2_613
*2277 FILLER_0_2_65
*2278 FILLER_0_2_77
*2279 FILLER_0_2_83
*2280 FILLER_0_2_85
*2281 FILLER_0_2_9
*2282 FILLER_0_2_97
*2283 FILLER_0_30_109
*2284 FILLER_0_30_121
*2285 FILLER_0_30_133
*2286 FILLER_0_30_139
*2287 FILLER_0_30_141
*2288 FILLER_0_30_153
*2289 FILLER_0_30_165
*2290 FILLER_0_30_177
*2291 FILLER_0_30_18
*2292 FILLER_0_30_189
*2293 FILLER_0_30_195
*2294 FILLER_0_30_197
*2295 FILLER_0_30_209
*2296 FILLER_0_30_221
*2297 FILLER_0_30_233
*2298 FILLER_0_30_245
*2299 FILLER_0_30_251
*2300 FILLER_0_30_253
*2301 FILLER_0_30_26
*2302 FILLER_0_30_265
*2303 FILLER_0_30_277
*2304 FILLER_0_30_289
*2305 FILLER_0_30_29
*2306 FILLER_0_30_301
*2307 FILLER_0_30_307
*2308 FILLER_0_30_309
*2309 FILLER_0_30_320
*2310 FILLER_0_30_332
*2311 FILLER_0_30_344
*2312 FILLER_0_30_356
*2313 FILLER_0_30_365
*2314 FILLER_0_30_377
*2315 FILLER_0_30_389
*2316 FILLER_0_30_401
*2317 FILLER_0_30_41
*2318 FILLER_0_30_413
*2319 FILLER_0_30_419
*2320 FILLER_0_30_441
*2321 FILLER_0_30_453
*2322 FILLER_0_30_465
*2323 FILLER_0_30_473
*2324 FILLER_0_30_477
*2325 FILLER_0_30_489
*2326 FILLER_0_30_501
*2327 FILLER_0_30_513
*2328 FILLER_0_30_525
*2329 FILLER_0_30_53
*2330 FILLER_0_30_531
*2331 FILLER_0_30_533
*2332 FILLER_0_30_545
*2333 FILLER_0_30_557
*2334 FILLER_0_30_569
*2335 FILLER_0_30_581
*2336 FILLER_0_30_587
*2337 FILLER_0_30_589
*2338 FILLER_0_30_6
*2339 FILLER_0_30_604
*2340 FILLER_0_30_616
*2341 FILLER_0_30_624
*2342 FILLER_0_30_65
*2343 FILLER_0_30_73
*2344 FILLER_0_30_79
*2345 FILLER_0_30_83
*2346 FILLER_0_30_85
*2347 FILLER_0_30_97
*2348 FILLER_0_31_105
*2349 FILLER_0_31_111
*2350 FILLER_0_31_113
*2351 FILLER_0_31_125
*2352 FILLER_0_31_137
*2353 FILLER_0_31_149
*2354 FILLER_0_31_161
*2355 FILLER_0_31_167
*2356 FILLER_0_31_169
*2357 FILLER_0_31_181
*2358 FILLER_0_31_193
*2359 FILLER_0_31_205
*2360 FILLER_0_31_21
*2361 FILLER_0_31_217
*2362 FILLER_0_31_223
*2363 FILLER_0_31_225
*2364 FILLER_0_31_237
*2365 FILLER_0_31_249
*2366 FILLER_0_31_261
*2367 FILLER_0_31_273
*2368 FILLER_0_31_279
*2369 FILLER_0_31_281
*2370 FILLER_0_31_293
*2371 FILLER_0_31_305
*2372 FILLER_0_31_317
*2373 FILLER_0_31_329
*2374 FILLER_0_31_33
*2375 FILLER_0_31_335
*2376 FILLER_0_31_337
*2377 FILLER_0_31_349
*2378 FILLER_0_31_361
*2379 FILLER_0_31_373
*2380 FILLER_0_31_385
*2381 FILLER_0_31_391
*2382 FILLER_0_31_393
*2383 FILLER_0_31_405
*2384 FILLER_0_31_417
*2385 FILLER_0_31_432
*2386 FILLER_0_31_444
*2387 FILLER_0_31_449
*2388 FILLER_0_31_45
*2389 FILLER_0_31_461
*2390 FILLER_0_31_473
*2391 FILLER_0_31_485
*2392 FILLER_0_31_497
*2393 FILLER_0_31_503
*2394 FILLER_0_31_505
*2395 FILLER_0_31_517
*2396 FILLER_0_31_529
*2397 FILLER_0_31_53
*2398 FILLER_0_31_541
*2399 FILLER_0_31_553
*2400 FILLER_0_31_559
*2401 FILLER_0_31_561
*2402 FILLER_0_31_57
*2403 FILLER_0_31_573
*2404 FILLER_0_31_585
*2405 FILLER_0_31_591
*2406 FILLER_0_31_597
*2407 FILLER_0_31_609
*2408 FILLER_0_31_615
*2409 FILLER_0_31_617
*2410 FILLER_0_31_621
*2411 FILLER_0_31_69
*2412 FILLER_0_31_81
*2413 FILLER_0_31_9
*2414 FILLER_0_31_93
*2415 FILLER_0_32_109
*2416 FILLER_0_32_121
*2417 FILLER_0_32_133
*2418 FILLER_0_32_139
*2419 FILLER_0_32_141
*2420 FILLER_0_32_15
*2421 FILLER_0_32_153
*2422 FILLER_0_32_165
*2423 FILLER_0_32_177
*2424 FILLER_0_32_189
*2425 FILLER_0_32_195
*2426 FILLER_0_32_197
*2427 FILLER_0_32_209
*2428 FILLER_0_32_221
*2429 FILLER_0_32_233
*2430 FILLER_0_32_245
*2431 FILLER_0_32_251
*2432 FILLER_0_32_253
*2433 FILLER_0_32_265
*2434 FILLER_0_32_27
*2435 FILLER_0_32_277
*2436 FILLER_0_32_289
*2437 FILLER_0_32_29
*2438 FILLER_0_32_3
*2439 FILLER_0_32_301
*2440 FILLER_0_32_318
*2441 FILLER_0_32_330
*2442 FILLER_0_32_342
*2443 FILLER_0_32_354
*2444 FILLER_0_32_362
*2445 FILLER_0_32_365
*2446 FILLER_0_32_377
*2447 FILLER_0_32_389
*2448 FILLER_0_32_401
*2449 FILLER_0_32_41
*2450 FILLER_0_32_413
*2451 FILLER_0_32_419
*2452 FILLER_0_32_421
*2453 FILLER_0_32_433
*2454 FILLER_0_32_445
*2455 FILLER_0_32_457
*2456 FILLER_0_32_469
*2457 FILLER_0_32_475
*2458 FILLER_0_32_477
*2459 FILLER_0_32_489
*2460 FILLER_0_32_501
*2461 FILLER_0_32_513
*2462 FILLER_0_32_525
*2463 FILLER_0_32_53
*2464 FILLER_0_32_531
*2465 FILLER_0_32_533
*2466 FILLER_0_32_545
*2467 FILLER_0_32_557
*2468 FILLER_0_32_569
*2469 FILLER_0_32_581
*2470 FILLER_0_32_587
*2471 FILLER_0_32_589
*2472 FILLER_0_32_601
*2473 FILLER_0_32_613
*2474 FILLER_0_32_65
*2475 FILLER_0_32_77
*2476 FILLER_0_32_83
*2477 FILLER_0_32_85
*2478 FILLER_0_32_97
*2479 FILLER_0_33_105
*2480 FILLER_0_33_111
*2481 FILLER_0_33_113
*2482 FILLER_0_33_125
*2483 FILLER_0_33_137
*2484 FILLER_0_33_149
*2485 FILLER_0_33_15
*2486 FILLER_0_33_161
*2487 FILLER_0_33_167
*2488 FILLER_0_33_169
*2489 FILLER_0_33_181
*2490 FILLER_0_33_193
*2491 FILLER_0_33_205
*2492 FILLER_0_33_217
*2493 FILLER_0_33_223
*2494 FILLER_0_33_225
*2495 FILLER_0_33_237
*2496 FILLER_0_33_249
*2497 FILLER_0_33_261
*2498 FILLER_0_33_27
*2499 FILLER_0_33_273
*2500 FILLER_0_33_279
*2501 FILLER_0_33_281
*2502 FILLER_0_33_293
*2503 FILLER_0_33_3
*2504 FILLER_0_33_319
*2505 FILLER_0_33_331
*2506 FILLER_0_33_335
*2507 FILLER_0_33_337
*2508 FILLER_0_33_349
*2509 FILLER_0_33_361
*2510 FILLER_0_33_373
*2511 FILLER_0_33_385
*2512 FILLER_0_33_39
*2513 FILLER_0_33_391
*2514 FILLER_0_33_393
*2515 FILLER_0_33_405
*2516 FILLER_0_33_417
*2517 FILLER_0_33_429
*2518 FILLER_0_33_441
*2519 FILLER_0_33_447
*2520 FILLER_0_33_449
*2521 FILLER_0_33_461
*2522 FILLER_0_33_473
*2523 FILLER_0_33_485
*2524 FILLER_0_33_497
*2525 FILLER_0_33_503
*2526 FILLER_0_33_505
*2527 FILLER_0_33_51
*2528 FILLER_0_33_517
*2529 FILLER_0_33_529
*2530 FILLER_0_33_541
*2531 FILLER_0_33_55
*2532 FILLER_0_33_553
*2533 FILLER_0_33_559
*2534 FILLER_0_33_561
*2535 FILLER_0_33_57
*2536 FILLER_0_33_573
*2537 FILLER_0_33_585
*2538 FILLER_0_33_597
*2539 FILLER_0_33_609
*2540 FILLER_0_33_615
*2541 FILLER_0_33_617
*2542 FILLER_0_33_69
*2543 FILLER_0_33_81
*2544 FILLER_0_33_93
*2545 FILLER_0_34_109
*2546 FILLER_0_34_121
*2547 FILLER_0_34_133
*2548 FILLER_0_34_139
*2549 FILLER_0_34_141
*2550 FILLER_0_34_153
*2551 FILLER_0_34_165
*2552 FILLER_0_34_177
*2553 FILLER_0_34_189
*2554 FILLER_0_34_19
*2555 FILLER_0_34_195
*2556 FILLER_0_34_197
*2557 FILLER_0_34_209
*2558 FILLER_0_34_221
*2559 FILLER_0_34_233
*2560 FILLER_0_34_245
*2561 FILLER_0_34_251
*2562 FILLER_0_34_253
*2563 FILLER_0_34_265
*2564 FILLER_0_34_27
*2565 FILLER_0_34_29
*2566 FILLER_0_34_291
*2567 FILLER_0_34_306
*2568 FILLER_0_34_309
*2569 FILLER_0_34_321
*2570 FILLER_0_34_333
*2571 FILLER_0_34_345
*2572 FILLER_0_34_357
*2573 FILLER_0_34_363
*2574 FILLER_0_34_365
*2575 FILLER_0_34_377
*2576 FILLER_0_34_389
*2577 FILLER_0_34_401
*2578 FILLER_0_34_41
*2579 FILLER_0_34_413
*2580 FILLER_0_34_419
*2581 FILLER_0_34_421
*2582 FILLER_0_34_433
*2583 FILLER_0_34_445
*2584 FILLER_0_34_457
*2585 FILLER_0_34_469
*2586 FILLER_0_34_475
*2587 FILLER_0_34_477
*2588 FILLER_0_34_489
*2589 FILLER_0_34_501
*2590 FILLER_0_34_513
*2591 FILLER_0_34_525
*2592 FILLER_0_34_53
*2593 FILLER_0_34_531
*2594 FILLER_0_34_533
*2595 FILLER_0_34_545
*2596 FILLER_0_34_557
*2597 FILLER_0_34_569
*2598 FILLER_0_34_581
*2599 FILLER_0_34_587
*2600 FILLER_0_34_589
*2601 FILLER_0_34_601
*2602 FILLER_0_34_613
*2603 FILLER_0_34_65
*2604 FILLER_0_34_7
*2605 FILLER_0_34_77
*2606 FILLER_0_34_83
*2607 FILLER_0_34_85
*2608 FILLER_0_34_97
*2609 FILLER_0_35_105
*2610 FILLER_0_35_111
*2611 FILLER_0_35_113
*2612 FILLER_0_35_125
*2613 FILLER_0_35_137
*2614 FILLER_0_35_149
*2615 FILLER_0_35_15
*2616 FILLER_0_35_161
*2617 FILLER_0_35_167
*2618 FILLER_0_35_169
*2619 FILLER_0_35_181
*2620 FILLER_0_35_193
*2621 FILLER_0_35_205
*2622 FILLER_0_35_217
*2623 FILLER_0_35_223
*2624 FILLER_0_35_225
*2625 FILLER_0_35_237
*2626 FILLER_0_35_249
*2627 FILLER_0_35_261
*2628 FILLER_0_35_27
*2629 FILLER_0_35_273
*2630 FILLER_0_35_279
*2631 FILLER_0_35_281
*2632 FILLER_0_35_3
*2633 FILLER_0_35_325
*2634 FILLER_0_35_333
*2635 FILLER_0_35_337
*2636 FILLER_0_35_349
*2637 FILLER_0_35_361
*2638 FILLER_0_35_373
*2639 FILLER_0_35_385
*2640 FILLER_0_35_39
*2641 FILLER_0_35_391
*2642 FILLER_0_35_393
*2643 FILLER_0_35_405
*2644 FILLER_0_35_417
*2645 FILLER_0_35_429
*2646 FILLER_0_35_441
*2647 FILLER_0_35_447
*2648 FILLER_0_35_449
*2649 FILLER_0_35_461
*2650 FILLER_0_35_473
*2651 FILLER_0_35_485
*2652 FILLER_0_35_497
*2653 FILLER_0_35_503
*2654 FILLER_0_35_505
*2655 FILLER_0_35_51
*2656 FILLER_0_35_517
*2657 FILLER_0_35_529
*2658 FILLER_0_35_541
*2659 FILLER_0_35_55
*2660 FILLER_0_35_553
*2661 FILLER_0_35_559
*2662 FILLER_0_35_561
*2663 FILLER_0_35_57
*2664 FILLER_0_35_573
*2665 FILLER_0_35_585
*2666 FILLER_0_35_597
*2667 FILLER_0_35_605
*2668 FILLER_0_35_611
*2669 FILLER_0_35_615
*2670 FILLER_0_35_617
*2671 FILLER_0_35_621
*2672 FILLER_0_35_69
*2673 FILLER_0_35_81
*2674 FILLER_0_35_93
*2675 FILLER_0_36_109
*2676 FILLER_0_36_121
*2677 FILLER_0_36_133
*2678 FILLER_0_36_139
*2679 FILLER_0_36_141
*2680 FILLER_0_36_153
*2681 FILLER_0_36_165
*2682 FILLER_0_36_177
*2683 FILLER_0_36_18
*2684 FILLER_0_36_189
*2685 FILLER_0_36_195
*2686 FILLER_0_36_197
*2687 FILLER_0_36_209
*2688 FILLER_0_36_221
*2689 FILLER_0_36_233
*2690 FILLER_0_36_245
*2691 FILLER_0_36_251
*2692 FILLER_0_36_253
*2693 FILLER_0_36_26
*2694 FILLER_0_36_265
*2695 FILLER_0_36_277
*2696 FILLER_0_36_289
*2697 FILLER_0_36_29
*2698 FILLER_0_36_301
*2699 FILLER_0_36_307
*2700 FILLER_0_36_309
*2701 FILLER_0_36_321
*2702 FILLER_0_36_333
*2703 FILLER_0_36_345
*2704 FILLER_0_36_357
*2705 FILLER_0_36_363
*2706 FILLER_0_36_365
*2707 FILLER_0_36_377
*2708 FILLER_0_36_389
*2709 FILLER_0_36_401
*2710 FILLER_0_36_41
*2711 FILLER_0_36_413
*2712 FILLER_0_36_419
*2713 FILLER_0_36_421
*2714 FILLER_0_36_433
*2715 FILLER_0_36_445
*2716 FILLER_0_36_457
*2717 FILLER_0_36_469
*2718 FILLER_0_36_475
*2719 FILLER_0_36_477
*2720 FILLER_0_36_489
*2721 FILLER_0_36_501
*2722 FILLER_0_36_513
*2723 FILLER_0_36_525
*2724 FILLER_0_36_53
*2725 FILLER_0_36_531
*2726 FILLER_0_36_533
*2727 FILLER_0_36_545
*2728 FILLER_0_36_557
*2729 FILLER_0_36_569
*2730 FILLER_0_36_581
*2731 FILLER_0_36_587
*2732 FILLER_0_36_589
*2733 FILLER_0_36_6
*2734 FILLER_0_36_601
*2735 FILLER_0_36_624
*2736 FILLER_0_36_65
*2737 FILLER_0_36_77
*2738 FILLER_0_36_83
*2739 FILLER_0_36_85
*2740 FILLER_0_36_97
*2741 FILLER_0_37_105
*2742 FILLER_0_37_111
*2743 FILLER_0_37_113
*2744 FILLER_0_37_125
*2745 FILLER_0_37_137
*2746 FILLER_0_37_149
*2747 FILLER_0_37_15
*2748 FILLER_0_37_161
*2749 FILLER_0_37_167
*2750 FILLER_0_37_169
*2751 FILLER_0_37_181
*2752 FILLER_0_37_193
*2753 FILLER_0_37_205
*2754 FILLER_0_37_217
*2755 FILLER_0_37_223
*2756 FILLER_0_37_225
*2757 FILLER_0_37_237
*2758 FILLER_0_37_249
*2759 FILLER_0_37_261
*2760 FILLER_0_37_27
*2761 FILLER_0_37_273
*2762 FILLER_0_37_279
*2763 FILLER_0_37_281
*2764 FILLER_0_37_293
*2765 FILLER_0_37_3
*2766 FILLER_0_37_305
*2767 FILLER_0_37_317
*2768 FILLER_0_37_329
*2769 FILLER_0_37_335
*2770 FILLER_0_37_337
*2771 FILLER_0_37_349
*2772 FILLER_0_37_361
*2773 FILLER_0_37_373
*2774 FILLER_0_37_385
*2775 FILLER_0_37_39
*2776 FILLER_0_37_391
*2777 FILLER_0_37_393
*2778 FILLER_0_37_405
*2779 FILLER_0_37_417
*2780 FILLER_0_37_429
*2781 FILLER_0_37_441
*2782 FILLER_0_37_447
*2783 FILLER_0_37_449
*2784 FILLER_0_37_467
*2785 FILLER_0_37_479
*2786 FILLER_0_37_491
*2787 FILLER_0_37_503
*2788 FILLER_0_37_505
*2789 FILLER_0_37_51
*2790 FILLER_0_37_517
*2791 FILLER_0_37_529
*2792 FILLER_0_37_541
*2793 FILLER_0_37_55
*2794 FILLER_0_37_553
*2795 FILLER_0_37_559
*2796 FILLER_0_37_561
*2797 FILLER_0_37_57
*2798 FILLER_0_37_573
*2799 FILLER_0_37_585
*2800 FILLER_0_37_597
*2801 FILLER_0_37_605
*2802 FILLER_0_37_617
*2803 FILLER_0_37_69
*2804 FILLER_0_37_81
*2805 FILLER_0_37_93
*2806 FILLER_0_38_109
*2807 FILLER_0_38_121
*2808 FILLER_0_38_133
*2809 FILLER_0_38_139
*2810 FILLER_0_38_141
*2811 FILLER_0_38_15
*2812 FILLER_0_38_153
*2813 FILLER_0_38_165
*2814 FILLER_0_38_177
*2815 FILLER_0_38_189
*2816 FILLER_0_38_195
*2817 FILLER_0_38_197
*2818 FILLER_0_38_209
*2819 FILLER_0_38_221
*2820 FILLER_0_38_233
*2821 FILLER_0_38_245
*2822 FILLER_0_38_251
*2823 FILLER_0_38_253
*2824 FILLER_0_38_265
*2825 FILLER_0_38_27
*2826 FILLER_0_38_277
*2827 FILLER_0_38_289
*2828 FILLER_0_38_29
*2829 FILLER_0_38_3
*2830 FILLER_0_38_301
*2831 FILLER_0_38_307
*2832 FILLER_0_38_309
*2833 FILLER_0_38_321
*2834 FILLER_0_38_333
*2835 FILLER_0_38_345
*2836 FILLER_0_38_357
*2837 FILLER_0_38_363
*2838 FILLER_0_38_365
*2839 FILLER_0_38_377
*2840 FILLER_0_38_383
*2841 FILLER_0_38_404
*2842 FILLER_0_38_41
*2843 FILLER_0_38_412
*2844 FILLER_0_38_418
*2845 FILLER_0_38_430
*2846 FILLER_0_38_442
*2847 FILLER_0_38_454
*2848 FILLER_0_38_466
*2849 FILLER_0_38_474
*2850 FILLER_0_38_477
*2851 FILLER_0_38_489
*2852 FILLER_0_38_501
*2853 FILLER_0_38_513
*2854 FILLER_0_38_525
*2855 FILLER_0_38_53
*2856 FILLER_0_38_531
*2857 FILLER_0_38_533
*2858 FILLER_0_38_545
*2859 FILLER_0_38_557
*2860 FILLER_0_38_569
*2861 FILLER_0_38_581
*2862 FILLER_0_38_587
*2863 FILLER_0_38_589
*2864 FILLER_0_38_601
*2865 FILLER_0_38_613
*2866 FILLER_0_38_65
*2867 FILLER_0_38_77
*2868 FILLER_0_38_83
*2869 FILLER_0_38_85
*2870 FILLER_0_38_97
*2871 FILLER_0_39_105
*2872 FILLER_0_39_111
*2873 FILLER_0_39_113
*2874 FILLER_0_39_125
*2875 FILLER_0_39_137
*2876 FILLER_0_39_149
*2877 FILLER_0_39_161
*2878 FILLER_0_39_167
*2879 FILLER_0_39_169
*2880 FILLER_0_39_18
*2881 FILLER_0_39_181
*2882 FILLER_0_39_193
*2883 FILLER_0_39_205
*2884 FILLER_0_39_217
*2885 FILLER_0_39_223
*2886 FILLER_0_39_225
*2887 FILLER_0_39_237
*2888 FILLER_0_39_249
*2889 FILLER_0_39_261
*2890 FILLER_0_39_273
*2891 FILLER_0_39_279
*2892 FILLER_0_39_281
*2893 FILLER_0_39_293
*2894 FILLER_0_39_30
*2895 FILLER_0_39_305
*2896 FILLER_0_39_317
*2897 FILLER_0_39_329
*2898 FILLER_0_39_335
*2899 FILLER_0_39_337
*2900 FILLER_0_39_349
*2901 FILLER_0_39_361
*2902 FILLER_0_39_373
*2903 FILLER_0_39_385
*2904 FILLER_0_39_391
*2905 FILLER_0_39_393
*2906 FILLER_0_39_405
*2907 FILLER_0_39_42
*2908 FILLER_0_39_432
*2909 FILLER_0_39_444
*2910 FILLER_0_39_449
*2911 FILLER_0_39_461
*2912 FILLER_0_39_473
*2913 FILLER_0_39_485
*2914 FILLER_0_39_497
*2915 FILLER_0_39_503
*2916 FILLER_0_39_505
*2917 FILLER_0_39_517
*2918 FILLER_0_39_529
*2919 FILLER_0_39_54
*2920 FILLER_0_39_541
*2921 FILLER_0_39_553
*2922 FILLER_0_39_559
*2923 FILLER_0_39_561
*2924 FILLER_0_39_57
*2925 FILLER_0_39_573
*2926 FILLER_0_39_585
*2927 FILLER_0_39_597
*2928 FILLER_0_39_6
*2929 FILLER_0_39_609
*2930 FILLER_0_39_615
*2931 FILLER_0_39_617
*2932 FILLER_0_39_621
*2933 FILLER_0_39_69
*2934 FILLER_0_39_81
*2935 FILLER_0_39_93
*2936 FILLER_0_3_105
*2937 FILLER_0_3_111
*2938 FILLER_0_3_113
*2939 FILLER_0_3_125
*2940 FILLER_0_3_137
*2941 FILLER_0_3_149
*2942 FILLER_0_3_15
*2943 FILLER_0_3_161
*2944 FILLER_0_3_167
*2945 FILLER_0_3_169
*2946 FILLER_0_3_181
*2947 FILLER_0_3_193
*2948 FILLER_0_3_205
*2949 FILLER_0_3_217
*2950 FILLER_0_3_223
*2951 FILLER_0_3_225
*2952 FILLER_0_3_237
*2953 FILLER_0_3_249
*2954 FILLER_0_3_261
*2955 FILLER_0_3_27
*2956 FILLER_0_3_273
*2957 FILLER_0_3_279
*2958 FILLER_0_3_281
*2959 FILLER_0_3_289
*2960 FILLER_0_3_294
*2961 FILLER_0_3_3
*2962 FILLER_0_3_330
*2963 FILLER_0_3_337
*2964 FILLER_0_3_349
*2965 FILLER_0_3_361
*2966 FILLER_0_3_373
*2967 FILLER_0_3_385
*2968 FILLER_0_3_39
*2969 FILLER_0_3_391
*2970 FILLER_0_3_402
*2971 FILLER_0_3_429
*2972 FILLER_0_3_441
*2973 FILLER_0_3_447
*2974 FILLER_0_3_449
*2975 FILLER_0_3_461
*2976 FILLER_0_3_473
*2977 FILLER_0_3_485
*2978 FILLER_0_3_497
*2979 FILLER_0_3_503
*2980 FILLER_0_3_505
*2981 FILLER_0_3_51
*2982 FILLER_0_3_517
*2983 FILLER_0_3_529
*2984 FILLER_0_3_541
*2985 FILLER_0_3_55
*2986 FILLER_0_3_553
*2987 FILLER_0_3_559
*2988 FILLER_0_3_561
*2989 FILLER_0_3_57
*2990 FILLER_0_3_573
*2991 FILLER_0_3_585
*2992 FILLER_0_3_597
*2993 FILLER_0_3_609
*2994 FILLER_0_3_615
*2995 FILLER_0_3_617
*2996 FILLER_0_3_69
*2997 FILLER_0_3_81
*2998 FILLER_0_3_93
*2999 FILLER_0_40_109
*3000 FILLER_0_40_121
*3001 FILLER_0_40_133
*3002 FILLER_0_40_139
*3003 FILLER_0_40_141
*3004 FILLER_0_40_15
*3005 FILLER_0_40_153
*3006 FILLER_0_40_165
*3007 FILLER_0_40_177
*3008 FILLER_0_40_189
*3009 FILLER_0_40_195
*3010 FILLER_0_40_197
*3011 FILLER_0_40_209
*3012 FILLER_0_40_221
*3013 FILLER_0_40_233
*3014 FILLER_0_40_245
*3015 FILLER_0_40_251
*3016 FILLER_0_40_253
*3017 FILLER_0_40_265
*3018 FILLER_0_40_27
*3019 FILLER_0_40_277
*3020 FILLER_0_40_289
*3021 FILLER_0_40_29
*3022 FILLER_0_40_3
*3023 FILLER_0_40_301
*3024 FILLER_0_40_307
*3025 FILLER_0_40_309
*3026 FILLER_0_40_321
*3027 FILLER_0_40_333
*3028 FILLER_0_40_345
*3029 FILLER_0_40_357
*3030 FILLER_0_40_363
*3031 FILLER_0_40_365
*3032 FILLER_0_40_377
*3033 FILLER_0_40_389
*3034 FILLER_0_40_401
*3035 FILLER_0_40_41
*3036 FILLER_0_40_413
*3037 FILLER_0_40_419
*3038 FILLER_0_40_421
*3039 FILLER_0_40_433
*3040 FILLER_0_40_445
*3041 FILLER_0_40_457
*3042 FILLER_0_40_469
*3043 FILLER_0_40_475
*3044 FILLER_0_40_477
*3045 FILLER_0_40_489
*3046 FILLER_0_40_501
*3047 FILLER_0_40_513
*3048 FILLER_0_40_525
*3049 FILLER_0_40_53
*3050 FILLER_0_40_531
*3051 FILLER_0_40_533
*3052 FILLER_0_40_545
*3053 FILLER_0_40_557
*3054 FILLER_0_40_569
*3055 FILLER_0_40_581
*3056 FILLER_0_40_587
*3057 FILLER_0_40_589
*3058 FILLER_0_40_601
*3059 FILLER_0_40_613
*3060 FILLER_0_40_621
*3061 FILLER_0_40_65
*3062 FILLER_0_40_77
*3063 FILLER_0_40_83
*3064 FILLER_0_40_85
*3065 FILLER_0_40_97
*3066 FILLER_0_41_105
*3067 FILLER_0_41_111
*3068 FILLER_0_41_113
*3069 FILLER_0_41_125
*3070 FILLER_0_41_137
*3071 FILLER_0_41_149
*3072 FILLER_0_41_161
*3073 FILLER_0_41_167
*3074 FILLER_0_41_169
*3075 FILLER_0_41_181
*3076 FILLER_0_41_193
*3077 FILLER_0_41_205
*3078 FILLER_0_41_21
*3079 FILLER_0_41_217
*3080 FILLER_0_41_223
*3081 FILLER_0_41_225
*3082 FILLER_0_41_237
*3083 FILLER_0_41_249
*3084 FILLER_0_41_261
*3085 FILLER_0_41_273
*3086 FILLER_0_41_279
*3087 FILLER_0_41_281
*3088 FILLER_0_41_293
*3089 FILLER_0_41_305
*3090 FILLER_0_41_317
*3091 FILLER_0_41_329
*3092 FILLER_0_41_33
*3093 FILLER_0_41_335
*3094 FILLER_0_41_337
*3095 FILLER_0_41_349
*3096 FILLER_0_41_361
*3097 FILLER_0_41_373
*3098 FILLER_0_41_385
*3099 FILLER_0_41_391
*3100 FILLER_0_41_393
*3101 FILLER_0_41_405
*3102 FILLER_0_41_417
*3103 FILLER_0_41_429
*3104 FILLER_0_41_441
*3105 FILLER_0_41_447
*3106 FILLER_0_41_449
*3107 FILLER_0_41_45
*3108 FILLER_0_41_461
*3109 FILLER_0_41_474
*3110 FILLER_0_41_486
*3111 FILLER_0_41_498
*3112 FILLER_0_41_505
*3113 FILLER_0_41_517
*3114 FILLER_0_41_529
*3115 FILLER_0_41_53
*3116 FILLER_0_41_541
*3117 FILLER_0_41_553
*3118 FILLER_0_41_559
*3119 FILLER_0_41_561
*3120 FILLER_0_41_57
*3121 FILLER_0_41_573
*3122 FILLER_0_41_585
*3123 FILLER_0_41_597
*3124 FILLER_0_41_609
*3125 FILLER_0_41_615
*3126 FILLER_0_41_617
*3127 FILLER_0_41_69
*3128 FILLER_0_41_81
*3129 FILLER_0_41_9
*3130 FILLER_0_41_93
*3131 FILLER_0_42_109
*3132 FILLER_0_42_121
*3133 FILLER_0_42_133
*3134 FILLER_0_42_139
*3135 FILLER_0_42_141
*3136 FILLER_0_42_153
*3137 FILLER_0_42_165
*3138 FILLER_0_42_177
*3139 FILLER_0_42_18
*3140 FILLER_0_42_189
*3141 FILLER_0_42_195
*3142 FILLER_0_42_197
*3143 FILLER_0_42_209
*3144 FILLER_0_42_221
*3145 FILLER_0_42_233
*3146 FILLER_0_42_245
*3147 FILLER_0_42_251
*3148 FILLER_0_42_253
*3149 FILLER_0_42_26
*3150 FILLER_0_42_265
*3151 FILLER_0_42_277
*3152 FILLER_0_42_289
*3153 FILLER_0_42_29
*3154 FILLER_0_42_301
*3155 FILLER_0_42_307
*3156 FILLER_0_42_309
*3157 FILLER_0_42_321
*3158 FILLER_0_42_333
*3159 FILLER_0_42_345
*3160 FILLER_0_42_357
*3161 FILLER_0_42_363
*3162 FILLER_0_42_365
*3163 FILLER_0_42_377
*3164 FILLER_0_42_389
*3165 FILLER_0_42_401
*3166 FILLER_0_42_41
*3167 FILLER_0_42_413
*3168 FILLER_0_42_419
*3169 FILLER_0_42_421
*3170 FILLER_0_42_433
*3171 FILLER_0_42_445
*3172 FILLER_0_42_457
*3173 FILLER_0_42_469
*3174 FILLER_0_42_475
*3175 FILLER_0_42_477
*3176 FILLER_0_42_489
*3177 FILLER_0_42_501
*3178 FILLER_0_42_513
*3179 FILLER_0_42_525
*3180 FILLER_0_42_53
*3181 FILLER_0_42_531
*3182 FILLER_0_42_533
*3183 FILLER_0_42_545
*3184 FILLER_0_42_557
*3185 FILLER_0_42_569
*3186 FILLER_0_42_581
*3187 FILLER_0_42_587
*3188 FILLER_0_42_589
*3189 FILLER_0_42_6
*3190 FILLER_0_42_601
*3191 FILLER_0_42_613
*3192 FILLER_0_42_65
*3193 FILLER_0_42_77
*3194 FILLER_0_42_83
*3195 FILLER_0_42_85
*3196 FILLER_0_42_97
*3197 FILLER_0_43_105
*3198 FILLER_0_43_111
*3199 FILLER_0_43_113
*3200 FILLER_0_43_125
*3201 FILLER_0_43_137
*3202 FILLER_0_43_149
*3203 FILLER_0_43_15
*3204 FILLER_0_43_161
*3205 FILLER_0_43_167
*3206 FILLER_0_43_169
*3207 FILLER_0_43_181
*3208 FILLER_0_43_193
*3209 FILLER_0_43_205
*3210 FILLER_0_43_217
*3211 FILLER_0_43_223
*3212 FILLER_0_43_225
*3213 FILLER_0_43_237
*3214 FILLER_0_43_249
*3215 FILLER_0_43_261
*3216 FILLER_0_43_27
*3217 FILLER_0_43_273
*3218 FILLER_0_43_279
*3219 FILLER_0_43_281
*3220 FILLER_0_43_293
*3221 FILLER_0_43_3
*3222 FILLER_0_43_305
*3223 FILLER_0_43_317
*3224 FILLER_0_43_329
*3225 FILLER_0_43_335
*3226 FILLER_0_43_337
*3227 FILLER_0_43_349
*3228 FILLER_0_43_361
*3229 FILLER_0_43_373
*3230 FILLER_0_43_385
*3231 FILLER_0_43_39
*3232 FILLER_0_43_391
*3233 FILLER_0_43_393
*3234 FILLER_0_43_405
*3235 FILLER_0_43_417
*3236 FILLER_0_43_429
*3237 FILLER_0_43_441
*3238 FILLER_0_43_447
*3239 FILLER_0_43_449
*3240 FILLER_0_43_461
*3241 FILLER_0_43_473
*3242 FILLER_0_43_485
*3243 FILLER_0_43_497
*3244 FILLER_0_43_503
*3245 FILLER_0_43_505
*3246 FILLER_0_43_51
*3247 FILLER_0_43_517
*3248 FILLER_0_43_529
*3249 FILLER_0_43_541
*3250 FILLER_0_43_55
*3251 FILLER_0_43_553
*3252 FILLER_0_43_559
*3253 FILLER_0_43_561
*3254 FILLER_0_43_57
*3255 FILLER_0_43_573
*3256 FILLER_0_43_585
*3257 FILLER_0_43_597
*3258 FILLER_0_43_609
*3259 FILLER_0_43_615
*3260 FILLER_0_43_617
*3261 FILLER_0_43_69
*3262 FILLER_0_43_81
*3263 FILLER_0_43_93
*3264 FILLER_0_44_109
*3265 FILLER_0_44_121
*3266 FILLER_0_44_133
*3267 FILLER_0_44_139
*3268 FILLER_0_44_141
*3269 FILLER_0_44_15
*3270 FILLER_0_44_153
*3271 FILLER_0_44_165
*3272 FILLER_0_44_177
*3273 FILLER_0_44_189
*3274 FILLER_0_44_195
*3275 FILLER_0_44_197
*3276 FILLER_0_44_209
*3277 FILLER_0_44_221
*3278 FILLER_0_44_227
*3279 FILLER_0_44_239
*3280 FILLER_0_44_251
*3281 FILLER_0_44_253
*3282 FILLER_0_44_265
*3283 FILLER_0_44_27
*3284 FILLER_0_44_277
*3285 FILLER_0_44_289
*3286 FILLER_0_44_29
*3287 FILLER_0_44_3
*3288 FILLER_0_44_301
*3289 FILLER_0_44_307
*3290 FILLER_0_44_309
*3291 FILLER_0_44_321
*3292 FILLER_0_44_333
*3293 FILLER_0_44_345
*3294 FILLER_0_44_357
*3295 FILLER_0_44_363
*3296 FILLER_0_44_365
*3297 FILLER_0_44_377
*3298 FILLER_0_44_389
*3299 FILLER_0_44_401
*3300 FILLER_0_44_41
*3301 FILLER_0_44_413
*3302 FILLER_0_44_419
*3303 FILLER_0_44_421
*3304 FILLER_0_44_425
*3305 FILLER_0_44_431
*3306 FILLER_0_44_439
*3307 FILLER_0_44_450
*3308 FILLER_0_44_462
*3309 FILLER_0_44_474
*3310 FILLER_0_44_477
*3311 FILLER_0_44_489
*3312 FILLER_0_44_501
*3313 FILLER_0_44_513
*3314 FILLER_0_44_525
*3315 FILLER_0_44_53
*3316 FILLER_0_44_531
*3317 FILLER_0_44_533
*3318 FILLER_0_44_545
*3319 FILLER_0_44_557
*3320 FILLER_0_44_569
*3321 FILLER_0_44_581
*3322 FILLER_0_44_587
*3323 FILLER_0_44_589
*3324 FILLER_0_44_601
*3325 FILLER_0_44_61
*3326 FILLER_0_44_613
*3327 FILLER_0_44_68
*3328 FILLER_0_44_80
*3329 FILLER_0_44_85
*3330 FILLER_0_44_97
*3331 FILLER_0_45_105
*3332 FILLER_0_45_111
*3333 FILLER_0_45_113
*3334 FILLER_0_45_125
*3335 FILLER_0_45_137
*3336 FILLER_0_45_149
*3337 FILLER_0_45_161
*3338 FILLER_0_45_167
*3339 FILLER_0_45_169
*3340 FILLER_0_45_18
*3341 FILLER_0_45_181
*3342 FILLER_0_45_193
*3343 FILLER_0_45_205
*3344 FILLER_0_45_217
*3345 FILLER_0_45_223
*3346 FILLER_0_45_225
*3347 FILLER_0_45_233
*3348 FILLER_0_45_245
*3349 FILLER_0_45_257
*3350 FILLER_0_45_269
*3351 FILLER_0_45_277
*3352 FILLER_0_45_281
*3353 FILLER_0_45_293
*3354 FILLER_0_45_30
*3355 FILLER_0_45_301
*3356 FILLER_0_45_313
*3357 FILLER_0_45_325
*3358 FILLER_0_45_333
*3359 FILLER_0_45_337
*3360 FILLER_0_45_349
*3361 FILLER_0_45_361
*3362 FILLER_0_45_373
*3363 FILLER_0_45_385
*3364 FILLER_0_45_391
*3365 FILLER_0_45_393
*3366 FILLER_0_45_405
*3367 FILLER_0_45_42
*3368 FILLER_0_45_437
*3369 FILLER_0_45_445
*3370 FILLER_0_45_449
*3371 FILLER_0_45_461
*3372 FILLER_0_45_473
*3373 FILLER_0_45_485
*3374 FILLER_0_45_497
*3375 FILLER_0_45_503
*3376 FILLER_0_45_505
*3377 FILLER_0_45_517
*3378 FILLER_0_45_529
*3379 FILLER_0_45_54
*3380 FILLER_0_45_541
*3381 FILLER_0_45_553
*3382 FILLER_0_45_559
*3383 FILLER_0_45_561
*3384 FILLER_0_45_57
*3385 FILLER_0_45_573
*3386 FILLER_0_45_585
*3387 FILLER_0_45_597
*3388 FILLER_0_45_6
*3389 FILLER_0_45_609
*3390 FILLER_0_45_615
*3391 FILLER_0_45_617
*3392 FILLER_0_45_69
*3393 FILLER_0_45_81
*3394 FILLER_0_45_93
*3395 FILLER_0_46_109
*3396 FILLER_0_46_121
*3397 FILLER_0_46_133
*3398 FILLER_0_46_139
*3399 FILLER_0_46_141
*3400 FILLER_0_46_15
*3401 FILLER_0_46_153
*3402 FILLER_0_46_165
*3403 FILLER_0_46_177
*3404 FILLER_0_46_189
*3405 FILLER_0_46_195
*3406 FILLER_0_46_197
*3407 FILLER_0_46_209
*3408 FILLER_0_46_221
*3409 FILLER_0_46_233
*3410 FILLER_0_46_245
*3411 FILLER_0_46_251
*3412 FILLER_0_46_253
*3413 FILLER_0_46_265
*3414 FILLER_0_46_27
*3415 FILLER_0_46_277
*3416 FILLER_0_46_289
*3417 FILLER_0_46_29
*3418 FILLER_0_46_3
*3419 FILLER_0_46_302
*3420 FILLER_0_46_319
*3421 FILLER_0_46_327
*3422 FILLER_0_46_339
*3423 FILLER_0_46_351
*3424 FILLER_0_46_363
*3425 FILLER_0_46_365
*3426 FILLER_0_46_377
*3427 FILLER_0_46_389
*3428 FILLER_0_46_401
*3429 FILLER_0_46_409
*3430 FILLER_0_46_41
*3431 FILLER_0_46_432
*3432 FILLER_0_46_444
*3433 FILLER_0_46_456
*3434 FILLER_0_46_464
*3435 FILLER_0_46_477
*3436 FILLER_0_46_489
*3437 FILLER_0_46_501
*3438 FILLER_0_46_513
*3439 FILLER_0_46_525
*3440 FILLER_0_46_53
*3441 FILLER_0_46_531
*3442 FILLER_0_46_533
*3443 FILLER_0_46_545
*3444 FILLER_0_46_567
*3445 FILLER_0_46_57
*3446 FILLER_0_46_579
*3447 FILLER_0_46_587
*3448 FILLER_0_46_589
*3449 FILLER_0_46_601
*3450 FILLER_0_46_61
*3451 FILLER_0_46_613
*3452 FILLER_0_46_73
*3453 FILLER_0_46_81
*3454 FILLER_0_46_85
*3455 FILLER_0_46_97
*3456 FILLER_0_47_105
*3457 FILLER_0_47_111
*3458 FILLER_0_47_113
*3459 FILLER_0_47_125
*3460 FILLER_0_47_137
*3461 FILLER_0_47_149
*3462 FILLER_0_47_16
*3463 FILLER_0_47_161
*3464 FILLER_0_47_167
*3465 FILLER_0_47_169
*3466 FILLER_0_47_181
*3467 FILLER_0_47_193
*3468 FILLER_0_47_205
*3469 FILLER_0_47_217
*3470 FILLER_0_47_223
*3471 FILLER_0_47_225
*3472 FILLER_0_47_237
*3473 FILLER_0_47_249
*3474 FILLER_0_47_261
*3475 FILLER_0_47_273
*3476 FILLER_0_47_279
*3477 FILLER_0_47_28
*3478 FILLER_0_47_281
*3479 FILLER_0_47_289
*3480 FILLER_0_47_304
*3481 FILLER_0_47_334
*3482 FILLER_0_47_337
*3483 FILLER_0_47_349
*3484 FILLER_0_47_361
*3485 FILLER_0_47_373
*3486 FILLER_0_47_385
*3487 FILLER_0_47_391
*3488 FILLER_0_47_393
*3489 FILLER_0_47_40
*3490 FILLER_0_47_405
*3491 FILLER_0_47_434
*3492 FILLER_0_47_446
*3493 FILLER_0_47_449
*3494 FILLER_0_47_461
*3495 FILLER_0_47_473
*3496 FILLER_0_47_485
*3497 FILLER_0_47_497
*3498 FILLER_0_47_503
*3499 FILLER_0_47_505
*3500 FILLER_0_47_517
*3501 FILLER_0_47_52
*3502 FILLER_0_47_529
*3503 FILLER_0_47_541
*3504 FILLER_0_47_553
*3505 FILLER_0_47_559
*3506 FILLER_0_47_561
*3507 FILLER_0_47_57
*3508 FILLER_0_47_573
*3509 FILLER_0_47_585
*3510 FILLER_0_47_597
*3511 FILLER_0_47_609
*3512 FILLER_0_47_615
*3513 FILLER_0_47_617
*3514 FILLER_0_47_69
*3515 FILLER_0_47_81
*3516 FILLER_0_47_9
*3517 FILLER_0_47_93
*3518 FILLER_0_48_109
*3519 FILLER_0_48_121
*3520 FILLER_0_48_133
*3521 FILLER_0_48_139
*3522 FILLER_0_48_141
*3523 FILLER_0_48_15
*3524 FILLER_0_48_153
*3525 FILLER_0_48_165
*3526 FILLER_0_48_177
*3527 FILLER_0_48_189
*3528 FILLER_0_48_195
*3529 FILLER_0_48_197
*3530 FILLER_0_48_209
*3531 FILLER_0_48_221
*3532 FILLER_0_48_233
*3533 FILLER_0_48_245
*3534 FILLER_0_48_253
*3535 FILLER_0_48_265
*3536 FILLER_0_48_27
*3537 FILLER_0_48_277
*3538 FILLER_0_48_285
*3539 FILLER_0_48_29
*3540 FILLER_0_48_293
*3541 FILLER_0_48_297
*3542 FILLER_0_48_3
*3543 FILLER_0_48_346
*3544 FILLER_0_48_358
*3545 FILLER_0_48_365
*3546 FILLER_0_48_377
*3547 FILLER_0_48_389
*3548 FILLER_0_48_399
*3549 FILLER_0_48_41
*3550 FILLER_0_48_411
*3551 FILLER_0_48_418
*3552 FILLER_0_48_459
*3553 FILLER_0_48_471
*3554 FILLER_0_48_475
*3555 FILLER_0_48_477
*3556 FILLER_0_48_489
*3557 FILLER_0_48_501
*3558 FILLER_0_48_513
*3559 FILLER_0_48_525
*3560 FILLER_0_48_53
*3561 FILLER_0_48_531
*3562 FILLER_0_48_533
*3563 FILLER_0_48_557
*3564 FILLER_0_48_569
*3565 FILLER_0_48_581
*3566 FILLER_0_48_587
*3567 FILLER_0_48_589
*3568 FILLER_0_48_601
*3569 FILLER_0_48_613
*3570 FILLER_0_48_65
*3571 FILLER_0_48_77
*3572 FILLER_0_48_83
*3573 FILLER_0_48_85
*3574 FILLER_0_48_97
*3575 FILLER_0_49_10
*3576 FILLER_0_49_105
*3577 FILLER_0_49_111
*3578 FILLER_0_49_113
*3579 FILLER_0_49_125
*3580 FILLER_0_49_137
*3581 FILLER_0_49_149
*3582 FILLER_0_49_161
*3583 FILLER_0_49_167
*3584 FILLER_0_49_169
*3585 FILLER_0_49_181
*3586 FILLER_0_49_19
*3587 FILLER_0_49_193
*3588 FILLER_0_49_205
*3589 FILLER_0_49_217
*3590 FILLER_0_49_223
*3591 FILLER_0_49_225
*3592 FILLER_0_49_237
*3593 FILLER_0_49_249
*3594 FILLER_0_49_261
*3595 FILLER_0_49_273
*3596 FILLER_0_49_279
*3597 FILLER_0_49_31
*3598 FILLER_0_49_335
*3599 FILLER_0_49_337
*3600 FILLER_0_49_349
*3601 FILLER_0_49_361
*3602 FILLER_0_49_373
*3603 FILLER_0_49_385
*3604 FILLER_0_49_43
*3605 FILLER_0_49_436
*3606 FILLER_0_49_444
*3607 FILLER_0_49_454
*3608 FILLER_0_49_486
*3609 FILLER_0_49_490
*3610 FILLER_0_49_494
*3611 FILLER_0_49_502
*3612 FILLER_0_49_505
*3613 FILLER_0_49_517
*3614 FILLER_0_49_529
*3615 FILLER_0_49_541
*3616 FILLER_0_49_55
*3617 FILLER_0_49_553
*3618 FILLER_0_49_559
*3619 FILLER_0_49_561
*3620 FILLER_0_49_57
*3621 FILLER_0_49_573
*3622 FILLER_0_49_585
*3623 FILLER_0_49_597
*3624 FILLER_0_49_6
*3625 FILLER_0_49_609
*3626 FILLER_0_49_615
*3627 FILLER_0_49_617
*3628 FILLER_0_49_69
*3629 FILLER_0_49_81
*3630 FILLER_0_49_93
*3631 FILLER_0_4_109
*3632 FILLER_0_4_121
*3633 FILLER_0_4_133
*3634 FILLER_0_4_139
*3635 FILLER_0_4_141
*3636 FILLER_0_4_15
*3637 FILLER_0_4_153
*3638 FILLER_0_4_165
*3639 FILLER_0_4_177
*3640 FILLER_0_4_189
*3641 FILLER_0_4_195
*3642 FILLER_0_4_197
*3643 FILLER_0_4_209
*3644 FILLER_0_4_221
*3645 FILLER_0_4_233
*3646 FILLER_0_4_245
*3647 FILLER_0_4_251
*3648 FILLER_0_4_253
*3649 FILLER_0_4_265
*3650 FILLER_0_4_27
*3651 FILLER_0_4_277
*3652 FILLER_0_4_289
*3653 FILLER_0_4_29
*3654 FILLER_0_4_3
*3655 FILLER_0_4_301
*3656 FILLER_0_4_306
*3657 FILLER_0_4_309
*3658 FILLER_0_4_316
*3659 FILLER_0_4_328
*3660 FILLER_0_4_340
*3661 FILLER_0_4_352
*3662 FILLER_0_4_365
*3663 FILLER_0_4_377
*3664 FILLER_0_4_389
*3665 FILLER_0_4_401
*3666 FILLER_0_4_41
*3667 FILLER_0_4_413
*3668 FILLER_0_4_418
*3669 FILLER_0_4_421
*3670 FILLER_0_4_433
*3671 FILLER_0_4_445
*3672 FILLER_0_4_457
*3673 FILLER_0_4_469
*3674 FILLER_0_4_475
*3675 FILLER_0_4_477
*3676 FILLER_0_4_489
*3677 FILLER_0_4_501
*3678 FILLER_0_4_513
*3679 FILLER_0_4_525
*3680 FILLER_0_4_53
*3681 FILLER_0_4_531
*3682 FILLER_0_4_533
*3683 FILLER_0_4_545
*3684 FILLER_0_4_557
*3685 FILLER_0_4_569
*3686 FILLER_0_4_581
*3687 FILLER_0_4_587
*3688 FILLER_0_4_589
*3689 FILLER_0_4_601
*3690 FILLER_0_4_613
*3691 FILLER_0_4_65
*3692 FILLER_0_4_77
*3693 FILLER_0_4_83
*3694 FILLER_0_4_85
*3695 FILLER_0_4_97
*3696 FILLER_0_50_109
*3697 FILLER_0_50_121
*3698 FILLER_0_50_133
*3699 FILLER_0_50_139
*3700 FILLER_0_50_141
*3701 FILLER_0_50_153
*3702 FILLER_0_50_165
*3703 FILLER_0_50_177
*3704 FILLER_0_50_189
*3705 FILLER_0_50_195
*3706 FILLER_0_50_197
*3707 FILLER_0_50_209
*3708 FILLER_0_50_221
*3709 FILLER_0_50_23
*3710 FILLER_0_50_233
*3711 FILLER_0_50_245
*3712 FILLER_0_50_251
*3713 FILLER_0_50_253
*3714 FILLER_0_50_258
*3715 FILLER_0_50_27
*3716 FILLER_0_50_270
*3717 FILLER_0_50_282
*3718 FILLER_0_50_29
*3719 FILLER_0_50_3
*3720 FILLER_0_50_309
*3721 FILLER_0_50_340
*3722 FILLER_0_50_352
*3723 FILLER_0_50_365
*3724 FILLER_0_50_377
*3725 FILLER_0_50_41
*3726 FILLER_0_50_413
*3727 FILLER_0_50_419
*3728 FILLER_0_50_430
*3729 FILLER_0_50_442
*3730 FILLER_0_50_448
*3731 FILLER_0_50_486
*3732 FILLER_0_50_506
*3733 FILLER_0_50_518
*3734 FILLER_0_50_53
*3735 FILLER_0_50_530
*3736 FILLER_0_50_533
*3737 FILLER_0_50_545
*3738 FILLER_0_50_557
*3739 FILLER_0_50_569
*3740 FILLER_0_50_581
*3741 FILLER_0_50_587
*3742 FILLER_0_50_589
*3743 FILLER_0_50_601
*3744 FILLER_0_50_65
*3745 FILLER_0_50_7
*3746 FILLER_0_50_77
*3747 FILLER_0_50_83
*3748 FILLER_0_50_85
*3749 FILLER_0_50_97
*3750 FILLER_0_51_105
*3751 FILLER_0_51_111
*3752 FILLER_0_51_113
*3753 FILLER_0_51_125
*3754 FILLER_0_51_137
*3755 FILLER_0_51_149
*3756 FILLER_0_51_161
*3757 FILLER_0_51_167
*3758 FILLER_0_51_190
*3759 FILLER_0_51_202
*3760 FILLER_0_51_214
*3761 FILLER_0_51_222
*3762 FILLER_0_51_225
*3763 FILLER_0_51_237
*3764 FILLER_0_51_245
*3765 FILLER_0_51_28
*3766 FILLER_0_51_281
*3767 FILLER_0_51_287
*3768 FILLER_0_51_3
*3769 FILLER_0_51_323
*3770 FILLER_0_51_337
*3771 FILLER_0_51_349
*3772 FILLER_0_51_361
*3773 FILLER_0_51_391
*3774 FILLER_0_51_40
*3775 FILLER_0_51_408
*3776 FILLER_0_51_432
*3777 FILLER_0_51_444
*3778 FILLER_0_51_458
*3779 FILLER_0_51_462
*3780 FILLER_0_51_492
*3781 FILLER_0_51_505
*3782 FILLER_0_51_517
*3783 FILLER_0_51_52
*3784 FILLER_0_51_529
*3785 FILLER_0_51_541
*3786 FILLER_0_51_553
*3787 FILLER_0_51_559
*3788 FILLER_0_51_561
*3789 FILLER_0_51_566
*3790 FILLER_0_51_57
*3791 FILLER_0_51_578
*3792 FILLER_0_51_590
*3793 FILLER_0_51_602
*3794 FILLER_0_51_608
*3795 FILLER_0_51_623
*3796 FILLER_0_51_69
*3797 FILLER_0_51_81
*3798 FILLER_0_51_93
*3799 FILLER_0_52_109
*3800 FILLER_0_52_121
*3801 FILLER_0_52_133
*3802 FILLER_0_52_139
*3803 FILLER_0_52_141
*3804 FILLER_0_52_153
*3805 FILLER_0_52_165
*3806 FILLER_0_52_185
*3807 FILLER_0_52_193
*3808 FILLER_0_52_197
*3809 FILLER_0_52_209
*3810 FILLER_0_52_221
*3811 FILLER_0_52_233
*3812 FILLER_0_52_245
*3813 FILLER_0_52_253
*3814 FILLER_0_52_278
*3815 FILLER_0_52_3
*3816 FILLER_0_52_32
*3817 FILLER_0_52_338
*3818 FILLER_0_52_350
*3819 FILLER_0_52_362
*3820 FILLER_0_52_388
*3821 FILLER_0_52_413
*3822 FILLER_0_52_418
*3823 FILLER_0_52_421
*3824 FILLER_0_52_428
*3825 FILLER_0_52_44
*3826 FILLER_0_52_440
*3827 FILLER_0_52_452
*3828 FILLER_0_52_460
*3829 FILLER_0_52_477
*3830 FILLER_0_52_489
*3831 FILLER_0_52_501
*3832 FILLER_0_52_513
*3833 FILLER_0_52_525
*3834 FILLER_0_52_531
*3835 FILLER_0_52_533
*3836 FILLER_0_52_545
*3837 FILLER_0_52_557
*3838 FILLER_0_52_56
*3839 FILLER_0_52_569
*3840 FILLER_0_52_581
*3841 FILLER_0_52_587
*3842 FILLER_0_52_589
*3843 FILLER_0_52_601
*3844 FILLER_0_52_68
*3845 FILLER_0_52_80
*3846 FILLER_0_52_85
*3847 FILLER_0_52_97
*3848 FILLER_0_53_10
*3849 FILLER_0_53_105
*3850 FILLER_0_53_111
*3851 FILLER_0_53_113
*3852 FILLER_0_53_125
*3853 FILLER_0_53_137
*3854 FILLER_0_53_149
*3855 FILLER_0_53_161
*3856 FILLER_0_53_167
*3857 FILLER_0_53_169
*3858 FILLER_0_53_181
*3859 FILLER_0_53_193
*3860 FILLER_0_53_205
*3861 FILLER_0_53_217
*3862 FILLER_0_53_223
*3863 FILLER_0_53_225
*3864 FILLER_0_53_23
*3865 FILLER_0_53_237
*3866 FILLER_0_53_249
*3867 FILLER_0_53_255
*3868 FILLER_0_53_268
*3869 FILLER_0_53_281
*3870 FILLER_0_53_346
*3871 FILLER_0_53_35
*3872 FILLER_0_53_358
*3873 FILLER_0_53_364
*3874 FILLER_0_53_374
*3875 FILLER_0_53_413
*3876 FILLER_0_53_425
*3877 FILLER_0_53_437
*3878 FILLER_0_53_445
*3879 FILLER_0_53_449
*3880 FILLER_0_53_461
*3881 FILLER_0_53_47
*3882 FILLER_0_53_473
*3883 FILLER_0_53_485
*3884 FILLER_0_53_497
*3885 FILLER_0_53_503
*3886 FILLER_0_53_505
*3887 FILLER_0_53_517
*3888 FILLER_0_53_529
*3889 FILLER_0_53_540
*3890 FILLER_0_53_55
*3891 FILLER_0_53_552
*3892 FILLER_0_53_561
*3893 FILLER_0_53_57
*3894 FILLER_0_53_573
*3895 FILLER_0_53_585
*3896 FILLER_0_53_597
*3897 FILLER_0_53_6
*3898 FILLER_0_53_609
*3899 FILLER_0_53_615
*3900 FILLER_0_53_617
*3901 FILLER_0_53_69
*3902 FILLER_0_53_81
*3903 FILLER_0_53_93
*3904 FILLER_0_54_109
*3905 FILLER_0_54_121
*3906 FILLER_0_54_133
*3907 FILLER_0_54_139
*3908 FILLER_0_54_141
*3909 FILLER_0_54_153
*3910 FILLER_0_54_170
*3911 FILLER_0_54_18
*3912 FILLER_0_54_182
*3913 FILLER_0_54_194
*3914 FILLER_0_54_197
*3915 FILLER_0_54_209
*3916 FILLER_0_54_221
*3917 FILLER_0_54_233
*3918 FILLER_0_54_245
*3919 FILLER_0_54_251
*3920 FILLER_0_54_253
*3921 FILLER_0_54_26
*3922 FILLER_0_54_265
*3923 FILLER_0_54_280
*3924 FILLER_0_54_284
*3925 FILLER_0_54_29
*3926 FILLER_0_54_332
*3927 FILLER_0_54_344
*3928 FILLER_0_54_356
*3929 FILLER_0_54_365
*3930 FILLER_0_54_377
*3931 FILLER_0_54_389
*3932 FILLER_0_54_399
*3933 FILLER_0_54_41
*3934 FILLER_0_54_411
*3935 FILLER_0_54_419
*3936 FILLER_0_54_421
*3937 FILLER_0_54_433
*3938 FILLER_0_54_445
*3939 FILLER_0_54_457
*3940 FILLER_0_54_466
*3941 FILLER_0_54_474
*3942 FILLER_0_54_477
*3943 FILLER_0_54_489
*3944 FILLER_0_54_501
*3945 FILLER_0_54_513
*3946 FILLER_0_54_525
*3947 FILLER_0_54_53
*3948 FILLER_0_54_531
*3949 FILLER_0_54_533
*3950 FILLER_0_54_554
*3951 FILLER_0_54_566
*3952 FILLER_0_54_578
*3953 FILLER_0_54_586
*3954 FILLER_0_54_589
*3955 FILLER_0_54_6
*3956 FILLER_0_54_601
*3957 FILLER_0_54_613
*3958 FILLER_0_54_65
*3959 FILLER_0_54_77
*3960 FILLER_0_54_83
*3961 FILLER_0_54_85
*3962 FILLER_0_54_97
*3963 FILLER_0_55_105
*3964 FILLER_0_55_111
*3965 FILLER_0_55_113
*3966 FILLER_0_55_125
*3967 FILLER_0_55_137
*3968 FILLER_0_55_149
*3969 FILLER_0_55_15
*3970 FILLER_0_55_161
*3971 FILLER_0_55_167
*3972 FILLER_0_55_169
*3973 FILLER_0_55_177
*3974 FILLER_0_55_182
*3975 FILLER_0_55_194
*3976 FILLER_0_55_206
*3977 FILLER_0_55_218
*3978 FILLER_0_55_225
*3979 FILLER_0_55_237
*3980 FILLER_0_55_249
*3981 FILLER_0_55_261
*3982 FILLER_0_55_27
*3983 FILLER_0_55_273
*3984 FILLER_0_55_279
*3985 FILLER_0_55_281
*3986 FILLER_0_55_289
*3987 FILLER_0_55_295
*3988 FILLER_0_55_3
*3989 FILLER_0_55_331
*3990 FILLER_0_55_335
*3991 FILLER_0_55_337
*3992 FILLER_0_55_349
*3993 FILLER_0_55_361
*3994 FILLER_0_55_373
*3995 FILLER_0_55_385
*3996 FILLER_0_55_39
*3997 FILLER_0_55_391
*3998 FILLER_0_55_393
*3999 FILLER_0_55_405
*4000 FILLER_0_55_417
*4001 FILLER_0_55_429
*4002 FILLER_0_55_441
*4003 FILLER_0_55_447
*4004 FILLER_0_55_449
*4005 FILLER_0_55_461
*4006 FILLER_0_55_473
*4007 FILLER_0_55_485
*4008 FILLER_0_55_497
*4009 FILLER_0_55_503
*4010 FILLER_0_55_505
*4011 FILLER_0_55_51
*4012 FILLER_0_55_517
*4013 FILLER_0_55_529
*4014 FILLER_0_55_537
*4015 FILLER_0_55_548
*4016 FILLER_0_55_55
*4017 FILLER_0_55_561
*4018 FILLER_0_55_57
*4019 FILLER_0_55_573
*4020 FILLER_0_55_585
*4021 FILLER_0_55_597
*4022 FILLER_0_55_609
*4023 FILLER_0_55_615
*4024 FILLER_0_55_617
*4025 FILLER_0_55_69
*4026 FILLER_0_55_81
*4027 FILLER_0_55_93
*4028 FILLER_0_56_109
*4029 FILLER_0_56_121
*4030 FILLER_0_56_133
*4031 FILLER_0_56_139
*4032 FILLER_0_56_141
*4033 FILLER_0_56_153
*4034 FILLER_0_56_165
*4035 FILLER_0_56_177
*4036 FILLER_0_56_189
*4037 FILLER_0_56_195
*4038 FILLER_0_56_197
*4039 FILLER_0_56_209
*4040 FILLER_0_56_21
*4041 FILLER_0_56_221
*4042 FILLER_0_56_233
*4043 FILLER_0_56_245
*4044 FILLER_0_56_251
*4045 FILLER_0_56_253
*4046 FILLER_0_56_265
*4047 FILLER_0_56_27
*4048 FILLER_0_56_277
*4049 FILLER_0_56_289
*4050 FILLER_0_56_29
*4051 FILLER_0_56_297
*4052 FILLER_0_56_302
*4053 FILLER_0_56_318
*4054 FILLER_0_56_330
*4055 FILLER_0_56_342
*4056 FILLER_0_56_354
*4057 FILLER_0_56_362
*4058 FILLER_0_56_365
*4059 FILLER_0_56_377
*4060 FILLER_0_56_389
*4061 FILLER_0_56_401
*4062 FILLER_0_56_41
*4063 FILLER_0_56_413
*4064 FILLER_0_56_419
*4065 FILLER_0_56_421
*4066 FILLER_0_56_433
*4067 FILLER_0_56_445
*4068 FILLER_0_56_457
*4069 FILLER_0_56_469
*4070 FILLER_0_56_475
*4071 FILLER_0_56_477
*4072 FILLER_0_56_489
*4073 FILLER_0_56_501
*4074 FILLER_0_56_513
*4075 FILLER_0_56_525
*4076 FILLER_0_56_53
*4077 FILLER_0_56_531
*4078 FILLER_0_56_533
*4079 FILLER_0_56_545
*4080 FILLER_0_56_557
*4081 FILLER_0_56_569
*4082 FILLER_0_56_581
*4083 FILLER_0_56_587
*4084 FILLER_0_56_589
*4085 FILLER_0_56_601
*4086 FILLER_0_56_613
*4087 FILLER_0_56_621
*4088 FILLER_0_56_65
*4089 FILLER_0_56_77
*4090 FILLER_0_56_83
*4091 FILLER_0_56_85
*4092 FILLER_0_56_9
*4093 FILLER_0_56_97
*4094 FILLER_0_57_105
*4095 FILLER_0_57_111
*4096 FILLER_0_57_113
*4097 FILLER_0_57_125
*4098 FILLER_0_57_137
*4099 FILLER_0_57_149
*4100 FILLER_0_57_15
*4101 FILLER_0_57_161
*4102 FILLER_0_57_167
*4103 FILLER_0_57_169
*4104 FILLER_0_57_181
*4105 FILLER_0_57_193
*4106 FILLER_0_57_205
*4107 FILLER_0_57_217
*4108 FILLER_0_57_223
*4109 FILLER_0_57_225
*4110 FILLER_0_57_237
*4111 FILLER_0_57_249
*4112 FILLER_0_57_261
*4113 FILLER_0_57_269
*4114 FILLER_0_57_27
*4115 FILLER_0_57_274
*4116 FILLER_0_57_281
*4117 FILLER_0_57_293
*4118 FILLER_0_57_299
*4119 FILLER_0_57_3
*4120 FILLER_0_57_311
*4121 FILLER_0_57_323
*4122 FILLER_0_57_335
*4123 FILLER_0_57_337
*4124 FILLER_0_57_349
*4125 FILLER_0_57_361
*4126 FILLER_0_57_373
*4127 FILLER_0_57_385
*4128 FILLER_0_57_39
*4129 FILLER_0_57_391
*4130 FILLER_0_57_393
*4131 FILLER_0_57_405
*4132 FILLER_0_57_417
*4133 FILLER_0_57_429
*4134 FILLER_0_57_441
*4135 FILLER_0_57_447
*4136 FILLER_0_57_449
*4137 FILLER_0_57_461
*4138 FILLER_0_57_473
*4139 FILLER_0_57_485
*4140 FILLER_0_57_497
*4141 FILLER_0_57_503
*4142 FILLER_0_57_505
*4143 FILLER_0_57_51
*4144 FILLER_0_57_517
*4145 FILLER_0_57_529
*4146 FILLER_0_57_541
*4147 FILLER_0_57_55
*4148 FILLER_0_57_553
*4149 FILLER_0_57_559
*4150 FILLER_0_57_561
*4151 FILLER_0_57_57
*4152 FILLER_0_57_573
*4153 FILLER_0_57_585
*4154 FILLER_0_57_597
*4155 FILLER_0_57_609
*4156 FILLER_0_57_615
*4157 FILLER_0_57_617
*4158 FILLER_0_57_69
*4159 FILLER_0_57_81
*4160 FILLER_0_57_93
*4161 FILLER_0_58_109
*4162 FILLER_0_58_121
*4163 FILLER_0_58_133
*4164 FILLER_0_58_139
*4165 FILLER_0_58_141
*4166 FILLER_0_58_15
*4167 FILLER_0_58_153
*4168 FILLER_0_58_165
*4169 FILLER_0_58_177
*4170 FILLER_0_58_189
*4171 FILLER_0_58_195
*4172 FILLER_0_58_197
*4173 FILLER_0_58_209
*4174 FILLER_0_58_221
*4175 FILLER_0_58_233
*4176 FILLER_0_58_245
*4177 FILLER_0_58_251
*4178 FILLER_0_58_253
*4179 FILLER_0_58_265
*4180 FILLER_0_58_27
*4181 FILLER_0_58_273
*4182 FILLER_0_58_281
*4183 FILLER_0_58_29
*4184 FILLER_0_58_3
*4185 FILLER_0_58_318
*4186 FILLER_0_58_330
*4187 FILLER_0_58_342
*4188 FILLER_0_58_354
*4189 FILLER_0_58_362
*4190 FILLER_0_58_365
*4191 FILLER_0_58_377
*4192 FILLER_0_58_389
*4193 FILLER_0_58_401
*4194 FILLER_0_58_41
*4195 FILLER_0_58_413
*4196 FILLER_0_58_419
*4197 FILLER_0_58_421
*4198 FILLER_0_58_433
*4199 FILLER_0_58_445
*4200 FILLER_0_58_457
*4201 FILLER_0_58_469
*4202 FILLER_0_58_475
*4203 FILLER_0_58_477
*4204 FILLER_0_58_489
*4205 FILLER_0_58_501
*4206 FILLER_0_58_513
*4207 FILLER_0_58_525
*4208 FILLER_0_58_53
*4209 FILLER_0_58_531
*4210 FILLER_0_58_533
*4211 FILLER_0_58_545
*4212 FILLER_0_58_557
*4213 FILLER_0_58_569
*4214 FILLER_0_58_581
*4215 FILLER_0_58_587
*4216 FILLER_0_58_589
*4217 FILLER_0_58_601
*4218 FILLER_0_58_613
*4219 FILLER_0_58_65
*4220 FILLER_0_58_77
*4221 FILLER_0_58_83
*4222 FILLER_0_58_85
*4223 FILLER_0_58_97
*4224 FILLER_0_59_105
*4225 FILLER_0_59_111
*4226 FILLER_0_59_113
*4227 FILLER_0_59_125
*4228 FILLER_0_59_137
*4229 FILLER_0_59_149
*4230 FILLER_0_59_161
*4231 FILLER_0_59_167
*4232 FILLER_0_59_169
*4233 FILLER_0_59_181
*4234 FILLER_0_59_193
*4235 FILLER_0_59_205
*4236 FILLER_0_59_21
*4237 FILLER_0_59_217
*4238 FILLER_0_59_223
*4239 FILLER_0_59_225
*4240 FILLER_0_59_237
*4241 FILLER_0_59_249
*4242 FILLER_0_59_261
*4243 FILLER_0_59_273
*4244 FILLER_0_59_279
*4245 FILLER_0_59_281
*4246 FILLER_0_59_293
*4247 FILLER_0_59_305
*4248 FILLER_0_59_317
*4249 FILLER_0_59_329
*4250 FILLER_0_59_33
*4251 FILLER_0_59_335
*4252 FILLER_0_59_337
*4253 FILLER_0_59_349
*4254 FILLER_0_59_361
*4255 FILLER_0_59_373
*4256 FILLER_0_59_385
*4257 FILLER_0_59_391
*4258 FILLER_0_59_393
*4259 FILLER_0_59_405
*4260 FILLER_0_59_417
*4261 FILLER_0_59_429
*4262 FILLER_0_59_441
*4263 FILLER_0_59_447
*4264 FILLER_0_59_449
*4265 FILLER_0_59_45
*4266 FILLER_0_59_461
*4267 FILLER_0_59_473
*4268 FILLER_0_59_485
*4269 FILLER_0_59_497
*4270 FILLER_0_59_503
*4271 FILLER_0_59_505
*4272 FILLER_0_59_517
*4273 FILLER_0_59_529
*4274 FILLER_0_59_53
*4275 FILLER_0_59_541
*4276 FILLER_0_59_553
*4277 FILLER_0_59_559
*4278 FILLER_0_59_561
*4279 FILLER_0_59_57
*4280 FILLER_0_59_573
*4281 FILLER_0_59_585
*4282 FILLER_0_59_597
*4283 FILLER_0_59_609
*4284 FILLER_0_59_615
*4285 FILLER_0_59_617
*4286 FILLER_0_59_621
*4287 FILLER_0_59_69
*4288 FILLER_0_59_81
*4289 FILLER_0_59_9
*4290 FILLER_0_59_93
*4291 FILLER_0_5_105
*4292 FILLER_0_5_111
*4293 FILLER_0_5_113
*4294 FILLER_0_5_125
*4295 FILLER_0_5_137
*4296 FILLER_0_5_149
*4297 FILLER_0_5_161
*4298 FILLER_0_5_167
*4299 FILLER_0_5_169
*4300 FILLER_0_5_175
*4301 FILLER_0_5_179
*4302 FILLER_0_5_19
*4303 FILLER_0_5_191
*4304 FILLER_0_5_203
*4305 FILLER_0_5_215
*4306 FILLER_0_5_223
*4307 FILLER_0_5_225
*4308 FILLER_0_5_237
*4309 FILLER_0_5_249
*4310 FILLER_0_5_261
*4311 FILLER_0_5_273
*4312 FILLER_0_5_279
*4313 FILLER_0_5_281
*4314 FILLER_0_5_287
*4315 FILLER_0_5_297
*4316 FILLER_0_5_307
*4317 FILLER_0_5_31
*4318 FILLER_0_5_319
*4319 FILLER_0_5_331
*4320 FILLER_0_5_335
*4321 FILLER_0_5_337
*4322 FILLER_0_5_349
*4323 FILLER_0_5_361
*4324 FILLER_0_5_373
*4325 FILLER_0_5_385
*4326 FILLER_0_5_391
*4327 FILLER_0_5_393
*4328 FILLER_0_5_405
*4329 FILLER_0_5_417
*4330 FILLER_0_5_429
*4331 FILLER_0_5_43
*4332 FILLER_0_5_441
*4333 FILLER_0_5_447
*4334 FILLER_0_5_449
*4335 FILLER_0_5_461
*4336 FILLER_0_5_473
*4337 FILLER_0_5_485
*4338 FILLER_0_5_497
*4339 FILLER_0_5_503
*4340 FILLER_0_5_505
*4341 FILLER_0_5_517
*4342 FILLER_0_5_529
*4343 FILLER_0_5_541
*4344 FILLER_0_5_55
*4345 FILLER_0_5_553
*4346 FILLER_0_5_559
*4347 FILLER_0_5_561
*4348 FILLER_0_5_57
*4349 FILLER_0_5_573
*4350 FILLER_0_5_585
*4351 FILLER_0_5_597
*4352 FILLER_0_5_609
*4353 FILLER_0_5_615
*4354 FILLER_0_5_617
*4355 FILLER_0_5_69
*4356 FILLER_0_5_7
*4357 FILLER_0_5_81
*4358 FILLER_0_5_93
*4359 FILLER_0_60_109
*4360 FILLER_0_60_121
*4361 FILLER_0_60_133
*4362 FILLER_0_60_139
*4363 FILLER_0_60_141
*4364 FILLER_0_60_15
*4365 FILLER_0_60_153
*4366 FILLER_0_60_165
*4367 FILLER_0_60_177
*4368 FILLER_0_60_189
*4369 FILLER_0_60_195
*4370 FILLER_0_60_197
*4371 FILLER_0_60_209
*4372 FILLER_0_60_221
*4373 FILLER_0_60_233
*4374 FILLER_0_60_245
*4375 FILLER_0_60_251
*4376 FILLER_0_60_253
*4377 FILLER_0_60_265
*4378 FILLER_0_60_27
*4379 FILLER_0_60_277
*4380 FILLER_0_60_289
*4381 FILLER_0_60_29
*4382 FILLER_0_60_3
*4383 FILLER_0_60_301
*4384 FILLER_0_60_307
*4385 FILLER_0_60_309
*4386 FILLER_0_60_321
*4387 FILLER_0_60_333
*4388 FILLER_0_60_345
*4389 FILLER_0_60_357
*4390 FILLER_0_60_363
*4391 FILLER_0_60_365
*4392 FILLER_0_60_377
*4393 FILLER_0_60_389
*4394 FILLER_0_60_401
*4395 FILLER_0_60_41
*4396 FILLER_0_60_413
*4397 FILLER_0_60_419
*4398 FILLER_0_60_421
*4399 FILLER_0_60_433
*4400 FILLER_0_60_445
*4401 FILLER_0_60_457
*4402 FILLER_0_60_469
*4403 FILLER_0_60_475
*4404 FILLER_0_60_477
*4405 FILLER_0_60_489
*4406 FILLER_0_60_501
*4407 FILLER_0_60_513
*4408 FILLER_0_60_525
*4409 FILLER_0_60_53
*4410 FILLER_0_60_531
*4411 FILLER_0_60_533
*4412 FILLER_0_60_545
*4413 FILLER_0_60_557
*4414 FILLER_0_60_569
*4415 FILLER_0_60_581
*4416 FILLER_0_60_587
*4417 FILLER_0_60_589
*4418 FILLER_0_60_601
*4419 FILLER_0_60_613
*4420 FILLER_0_60_65
*4421 FILLER_0_60_77
*4422 FILLER_0_60_83
*4423 FILLER_0_60_85
*4424 FILLER_0_60_97
*4425 FILLER_0_61_105
*4426 FILLER_0_61_111
*4427 FILLER_0_61_113
*4428 FILLER_0_61_125
*4429 FILLER_0_61_137
*4430 FILLER_0_61_149
*4431 FILLER_0_61_161
*4432 FILLER_0_61_167
*4433 FILLER_0_61_169
*4434 FILLER_0_61_181
*4435 FILLER_0_61_193
*4436 FILLER_0_61_205
*4437 FILLER_0_61_21
*4438 FILLER_0_61_217
*4439 FILLER_0_61_223
*4440 FILLER_0_61_225
*4441 FILLER_0_61_237
*4442 FILLER_0_61_249
*4443 FILLER_0_61_261
*4444 FILLER_0_61_273
*4445 FILLER_0_61_279
*4446 FILLER_0_61_281
*4447 FILLER_0_61_293
*4448 FILLER_0_61_305
*4449 FILLER_0_61_317
*4450 FILLER_0_61_329
*4451 FILLER_0_61_33
*4452 FILLER_0_61_335
*4453 FILLER_0_61_337
*4454 FILLER_0_61_349
*4455 FILLER_0_61_361
*4456 FILLER_0_61_373
*4457 FILLER_0_61_385
*4458 FILLER_0_61_391
*4459 FILLER_0_61_393
*4460 FILLER_0_61_405
*4461 FILLER_0_61_417
*4462 FILLER_0_61_429
*4463 FILLER_0_61_441
*4464 FILLER_0_61_447
*4465 FILLER_0_61_449
*4466 FILLER_0_61_45
*4467 FILLER_0_61_461
*4468 FILLER_0_61_473
*4469 FILLER_0_61_485
*4470 FILLER_0_61_497
*4471 FILLER_0_61_503
*4472 FILLER_0_61_505
*4473 FILLER_0_61_517
*4474 FILLER_0_61_529
*4475 FILLER_0_61_53
*4476 FILLER_0_61_541
*4477 FILLER_0_61_553
*4478 FILLER_0_61_559
*4479 FILLER_0_61_561
*4480 FILLER_0_61_57
*4481 FILLER_0_61_573
*4482 FILLER_0_61_585
*4483 FILLER_0_61_597
*4484 FILLER_0_61_609
*4485 FILLER_0_61_615
*4486 FILLER_0_61_617
*4487 FILLER_0_61_69
*4488 FILLER_0_61_81
*4489 FILLER_0_61_9
*4490 FILLER_0_61_93
*4491 FILLER_0_62_109
*4492 FILLER_0_62_121
*4493 FILLER_0_62_133
*4494 FILLER_0_62_139
*4495 FILLER_0_62_141
*4496 FILLER_0_62_15
*4497 FILLER_0_62_153
*4498 FILLER_0_62_165
*4499 FILLER_0_62_177
*4500 FILLER_0_62_189
*4501 FILLER_0_62_195
*4502 FILLER_0_62_197
*4503 FILLER_0_62_209
*4504 FILLER_0_62_221
*4505 FILLER_0_62_233
*4506 FILLER_0_62_245
*4507 FILLER_0_62_251
*4508 FILLER_0_62_253
*4509 FILLER_0_62_265
*4510 FILLER_0_62_27
*4511 FILLER_0_62_277
*4512 FILLER_0_62_289
*4513 FILLER_0_62_29
*4514 FILLER_0_62_3
*4515 FILLER_0_62_301
*4516 FILLER_0_62_307
*4517 FILLER_0_62_309
*4518 FILLER_0_62_321
*4519 FILLER_0_62_333
*4520 FILLER_0_62_345
*4521 FILLER_0_62_357
*4522 FILLER_0_62_363
*4523 FILLER_0_62_365
*4524 FILLER_0_62_377
*4525 FILLER_0_62_389
*4526 FILLER_0_62_401
*4527 FILLER_0_62_41
*4528 FILLER_0_62_413
*4529 FILLER_0_62_419
*4530 FILLER_0_62_421
*4531 FILLER_0_62_433
*4532 FILLER_0_62_445
*4533 FILLER_0_62_457
*4534 FILLER_0_62_469
*4535 FILLER_0_62_475
*4536 FILLER_0_62_477
*4537 FILLER_0_62_489
*4538 FILLER_0_62_501
*4539 FILLER_0_62_513
*4540 FILLER_0_62_525
*4541 FILLER_0_62_53
*4542 FILLER_0_62_531
*4543 FILLER_0_62_533
*4544 FILLER_0_62_545
*4545 FILLER_0_62_557
*4546 FILLER_0_62_569
*4547 FILLER_0_62_581
*4548 FILLER_0_62_587
*4549 FILLER_0_62_589
*4550 FILLER_0_62_601
*4551 FILLER_0_62_613
*4552 FILLER_0_62_621
*4553 FILLER_0_62_65
*4554 FILLER_0_62_77
*4555 FILLER_0_62_83
*4556 FILLER_0_62_85
*4557 FILLER_0_62_97
*4558 FILLER_0_63_105
*4559 FILLER_0_63_111
*4560 FILLER_0_63_113
*4561 FILLER_0_63_125
*4562 FILLER_0_63_137
*4563 FILLER_0_63_149
*4564 FILLER_0_63_15
*4565 FILLER_0_63_161
*4566 FILLER_0_63_167
*4567 FILLER_0_63_169
*4568 FILLER_0_63_181
*4569 FILLER_0_63_185
*4570 FILLER_0_63_206
*4571 FILLER_0_63_218
*4572 FILLER_0_63_225
*4573 FILLER_0_63_237
*4574 FILLER_0_63_249
*4575 FILLER_0_63_261
*4576 FILLER_0_63_27
*4577 FILLER_0_63_273
*4578 FILLER_0_63_279
*4579 FILLER_0_63_281
*4580 FILLER_0_63_293
*4581 FILLER_0_63_3
*4582 FILLER_0_63_305
*4583 FILLER_0_63_317
*4584 FILLER_0_63_329
*4585 FILLER_0_63_335
*4586 FILLER_0_63_337
*4587 FILLER_0_63_349
*4588 FILLER_0_63_361
*4589 FILLER_0_63_373
*4590 FILLER_0_63_385
*4591 FILLER_0_63_39
*4592 FILLER_0_63_391
*4593 FILLER_0_63_393
*4594 FILLER_0_63_405
*4595 FILLER_0_63_417
*4596 FILLER_0_63_429
*4597 FILLER_0_63_441
*4598 FILLER_0_63_447
*4599 FILLER_0_63_449
*4600 FILLER_0_63_461
*4601 FILLER_0_63_473
*4602 FILLER_0_63_485
*4603 FILLER_0_63_497
*4604 FILLER_0_63_503
*4605 FILLER_0_63_505
*4606 FILLER_0_63_51
*4607 FILLER_0_63_517
*4608 FILLER_0_63_529
*4609 FILLER_0_63_541
*4610 FILLER_0_63_55
*4611 FILLER_0_63_553
*4612 FILLER_0_63_559
*4613 FILLER_0_63_561
*4614 FILLER_0_63_57
*4615 FILLER_0_63_573
*4616 FILLER_0_63_585
*4617 FILLER_0_63_597
*4618 FILLER_0_63_609
*4619 FILLER_0_63_615
*4620 FILLER_0_63_617
*4621 FILLER_0_63_69
*4622 FILLER_0_63_81
*4623 FILLER_0_63_93
*4624 FILLER_0_64_109
*4625 FILLER_0_64_121
*4626 FILLER_0_64_133
*4627 FILLER_0_64_139
*4628 FILLER_0_64_141
*4629 FILLER_0_64_153
*4630 FILLER_0_64_165
*4631 FILLER_0_64_177
*4632 FILLER_0_64_189
*4633 FILLER_0_64_19
*4634 FILLER_0_64_195
*4635 FILLER_0_64_197
*4636 FILLER_0_64_209
*4637 FILLER_0_64_221
*4638 FILLER_0_64_233
*4639 FILLER_0_64_245
*4640 FILLER_0_64_251
*4641 FILLER_0_64_253
*4642 FILLER_0_64_265
*4643 FILLER_0_64_27
*4644 FILLER_0_64_277
*4645 FILLER_0_64_289
*4646 FILLER_0_64_29
*4647 FILLER_0_64_301
*4648 FILLER_0_64_307
*4649 FILLER_0_64_309
*4650 FILLER_0_64_313
*4651 FILLER_0_64_319
*4652 FILLER_0_64_328
*4653 FILLER_0_64_340
*4654 FILLER_0_64_352
*4655 FILLER_0_64_365
*4656 FILLER_0_64_377
*4657 FILLER_0_64_389
*4658 FILLER_0_64_401
*4659 FILLER_0_64_41
*4660 FILLER_0_64_413
*4661 FILLER_0_64_419
*4662 FILLER_0_64_421
*4663 FILLER_0_64_433
*4664 FILLER_0_64_445
*4665 FILLER_0_64_457
*4666 FILLER_0_64_469
*4667 FILLER_0_64_475
*4668 FILLER_0_64_477
*4669 FILLER_0_64_489
*4670 FILLER_0_64_501
*4671 FILLER_0_64_513
*4672 FILLER_0_64_525
*4673 FILLER_0_64_53
*4674 FILLER_0_64_531
*4675 FILLER_0_64_533
*4676 FILLER_0_64_545
*4677 FILLER_0_64_557
*4678 FILLER_0_64_569
*4679 FILLER_0_64_581
*4680 FILLER_0_64_587
*4681 FILLER_0_64_589
*4682 FILLER_0_64_601
*4683 FILLER_0_64_613
*4684 FILLER_0_64_65
*4685 FILLER_0_64_7
*4686 FILLER_0_64_77
*4687 FILLER_0_64_83
*4688 FILLER_0_64_85
*4689 FILLER_0_64_97
*4690 FILLER_0_65_105
*4691 FILLER_0_65_111
*4692 FILLER_0_65_113
*4693 FILLER_0_65_125
*4694 FILLER_0_65_137
*4695 FILLER_0_65_149
*4696 FILLER_0_65_161
*4697 FILLER_0_65_167
*4698 FILLER_0_65_169
*4699 FILLER_0_65_181
*4700 FILLER_0_65_193
*4701 FILLER_0_65_205
*4702 FILLER_0_65_21
*4703 FILLER_0_65_217
*4704 FILLER_0_65_223
*4705 FILLER_0_65_225
*4706 FILLER_0_65_237
*4707 FILLER_0_65_249
*4708 FILLER_0_65_261
*4709 FILLER_0_65_273
*4710 FILLER_0_65_279
*4711 FILLER_0_65_281
*4712 FILLER_0_65_293
*4713 FILLER_0_65_305
*4714 FILLER_0_65_317
*4715 FILLER_0_65_329
*4716 FILLER_0_65_33
*4717 FILLER_0_65_335
*4718 FILLER_0_65_337
*4719 FILLER_0_65_349
*4720 FILLER_0_65_361
*4721 FILLER_0_65_373
*4722 FILLER_0_65_385
*4723 FILLER_0_65_391
*4724 FILLER_0_65_393
*4725 FILLER_0_65_405
*4726 FILLER_0_65_417
*4727 FILLER_0_65_429
*4728 FILLER_0_65_441
*4729 FILLER_0_65_447
*4730 FILLER_0_65_449
*4731 FILLER_0_65_45
*4732 FILLER_0_65_461
*4733 FILLER_0_65_473
*4734 FILLER_0_65_485
*4735 FILLER_0_65_497
*4736 FILLER_0_65_503
*4737 FILLER_0_65_505
*4738 FILLER_0_65_517
*4739 FILLER_0_65_529
*4740 FILLER_0_65_53
*4741 FILLER_0_65_541
*4742 FILLER_0_65_553
*4743 FILLER_0_65_559
*4744 FILLER_0_65_561
*4745 FILLER_0_65_57
*4746 FILLER_0_65_573
*4747 FILLER_0_65_585
*4748 FILLER_0_65_597
*4749 FILLER_0_65_605
*4750 FILLER_0_65_69
*4751 FILLER_0_65_81
*4752 FILLER_0_65_9
*4753 FILLER_0_65_93
*4754 FILLER_0_66_109
*4755 FILLER_0_66_121
*4756 FILLER_0_66_133
*4757 FILLER_0_66_139
*4758 FILLER_0_66_141
*4759 FILLER_0_66_15
*4760 FILLER_0_66_153
*4761 FILLER_0_66_165
*4762 FILLER_0_66_177
*4763 FILLER_0_66_189
*4764 FILLER_0_66_195
*4765 FILLER_0_66_197
*4766 FILLER_0_66_209
*4767 FILLER_0_66_221
*4768 FILLER_0_66_233
*4769 FILLER_0_66_245
*4770 FILLER_0_66_251
*4771 FILLER_0_66_253
*4772 FILLER_0_66_265
*4773 FILLER_0_66_27
*4774 FILLER_0_66_277
*4775 FILLER_0_66_289
*4776 FILLER_0_66_29
*4777 FILLER_0_66_3
*4778 FILLER_0_66_300
*4779 FILLER_0_66_309
*4780 FILLER_0_66_321
*4781 FILLER_0_66_333
*4782 FILLER_0_66_345
*4783 FILLER_0_66_357
*4784 FILLER_0_66_363
*4785 FILLER_0_66_365
*4786 FILLER_0_66_377
*4787 FILLER_0_66_389
*4788 FILLER_0_66_401
*4789 FILLER_0_66_41
*4790 FILLER_0_66_413
*4791 FILLER_0_66_419
*4792 FILLER_0_66_421
*4793 FILLER_0_66_433
*4794 FILLER_0_66_445
*4795 FILLER_0_66_457
*4796 FILLER_0_66_469
*4797 FILLER_0_66_475
*4798 FILLER_0_66_477
*4799 FILLER_0_66_489
*4800 FILLER_0_66_501
*4801 FILLER_0_66_513
*4802 FILLER_0_66_525
*4803 FILLER_0_66_53
*4804 FILLER_0_66_531
*4805 FILLER_0_66_533
*4806 FILLER_0_66_545
*4807 FILLER_0_66_557
*4808 FILLER_0_66_569
*4809 FILLER_0_66_581
*4810 FILLER_0_66_587
*4811 FILLER_0_66_589
*4812 FILLER_0_66_624
*4813 FILLER_0_66_65
*4814 FILLER_0_66_77
*4815 FILLER_0_66_83
*4816 FILLER_0_66_85
*4817 FILLER_0_66_97
*4818 FILLER_0_67_105
*4819 FILLER_0_67_111
*4820 FILLER_0_67_133
*4821 FILLER_0_67_145
*4822 FILLER_0_67_157
*4823 FILLER_0_67_165
*4824 FILLER_0_67_169
*4825 FILLER_0_67_181
*4826 FILLER_0_67_193
*4827 FILLER_0_67_205
*4828 FILLER_0_67_21
*4829 FILLER_0_67_217
*4830 FILLER_0_67_223
*4831 FILLER_0_67_225
*4832 FILLER_0_67_237
*4833 FILLER_0_67_249
*4834 FILLER_0_67_261
*4835 FILLER_0_67_273
*4836 FILLER_0_67_279
*4837 FILLER_0_67_281
*4838 FILLER_0_67_289
*4839 FILLER_0_67_320
*4840 FILLER_0_67_33
*4841 FILLER_0_67_332
*4842 FILLER_0_67_337
*4843 FILLER_0_67_349
*4844 FILLER_0_67_361
*4845 FILLER_0_67_373
*4846 FILLER_0_67_385
*4847 FILLER_0_67_391
*4848 FILLER_0_67_393
*4849 FILLER_0_67_405
*4850 FILLER_0_67_417
*4851 FILLER_0_67_429
*4852 FILLER_0_67_441
*4853 FILLER_0_67_447
*4854 FILLER_0_67_449
*4855 FILLER_0_67_45
*4856 FILLER_0_67_461
*4857 FILLER_0_67_473
*4858 FILLER_0_67_485
*4859 FILLER_0_67_497
*4860 FILLER_0_67_503
*4861 FILLER_0_67_505
*4862 FILLER_0_67_517
*4863 FILLER_0_67_529
*4864 FILLER_0_67_53
*4865 FILLER_0_67_541
*4866 FILLER_0_67_553
*4867 FILLER_0_67_559
*4868 FILLER_0_67_561
*4869 FILLER_0_67_57
*4870 FILLER_0_67_573
*4871 FILLER_0_67_585
*4872 FILLER_0_67_593
*4873 FILLER_0_67_614
*4874 FILLER_0_67_617
*4875 FILLER_0_67_69
*4876 FILLER_0_67_81
*4877 FILLER_0_67_9
*4878 FILLER_0_67_93
*4879 FILLER_0_68_130
*4880 FILLER_0_68_138
*4881 FILLER_0_68_141
*4882 FILLER_0_68_15
*4883 FILLER_0_68_153
*4884 FILLER_0_68_165
*4885 FILLER_0_68_177
*4886 FILLER_0_68_189
*4887 FILLER_0_68_195
*4888 FILLER_0_68_197
*4889 FILLER_0_68_209
*4890 FILLER_0_68_221
*4891 FILLER_0_68_233
*4892 FILLER_0_68_245
*4893 FILLER_0_68_251
*4894 FILLER_0_68_253
*4895 FILLER_0_68_265
*4896 FILLER_0_68_27
*4897 FILLER_0_68_277
*4898 FILLER_0_68_289
*4899 FILLER_0_68_29
*4900 FILLER_0_68_3
*4901 FILLER_0_68_301
*4902 FILLER_0_68_307
*4903 FILLER_0_68_309
*4904 FILLER_0_68_321
*4905 FILLER_0_68_333
*4906 FILLER_0_68_345
*4907 FILLER_0_68_357
*4908 FILLER_0_68_363
*4909 FILLER_0_68_365
*4910 FILLER_0_68_377
*4911 FILLER_0_68_389
*4912 FILLER_0_68_401
*4913 FILLER_0_68_41
*4914 FILLER_0_68_413
*4915 FILLER_0_68_419
*4916 FILLER_0_68_421
*4917 FILLER_0_68_433
*4918 FILLER_0_68_445
*4919 FILLER_0_68_457
*4920 FILLER_0_68_469
*4921 FILLER_0_68_475
*4922 FILLER_0_68_477
*4923 FILLER_0_68_489
*4924 FILLER_0_68_501
*4925 FILLER_0_68_513
*4926 FILLER_0_68_525
*4927 FILLER_0_68_53
*4928 FILLER_0_68_531
*4929 FILLER_0_68_533
*4930 FILLER_0_68_545
*4931 FILLER_0_68_557
*4932 FILLER_0_68_569
*4933 FILLER_0_68_581
*4934 FILLER_0_68_587
*4935 FILLER_0_68_589
*4936 FILLER_0_68_595
*4937 FILLER_0_68_608
*4938 FILLER_0_68_617
*4939 FILLER_0_68_65
*4940 FILLER_0_68_77
*4941 FILLER_0_68_83
*4942 FILLER_0_68_85
*4943 FILLER_0_68_97
*4944 FILLER_0_69_105
*4945 FILLER_0_69_111
*4946 FILLER_0_69_113
*4947 FILLER_0_69_117
*4948 FILLER_0_69_129
*4949 FILLER_0_69_141
*4950 FILLER_0_69_15
*4951 FILLER_0_69_153
*4952 FILLER_0_69_165
*4953 FILLER_0_69_169
*4954 FILLER_0_69_181
*4955 FILLER_0_69_193
*4956 FILLER_0_69_205
*4957 FILLER_0_69_217
*4958 FILLER_0_69_223
*4959 FILLER_0_69_225
*4960 FILLER_0_69_237
*4961 FILLER_0_69_249
*4962 FILLER_0_69_261
*4963 FILLER_0_69_27
*4964 FILLER_0_69_273
*4965 FILLER_0_69_279
*4966 FILLER_0_69_281
*4967 FILLER_0_69_293
*4968 FILLER_0_69_3
*4969 FILLER_0_69_305
*4970 FILLER_0_69_317
*4971 FILLER_0_69_329
*4972 FILLER_0_69_335
*4973 FILLER_0_69_337
*4974 FILLER_0_69_349
*4975 FILLER_0_69_361
*4976 FILLER_0_69_373
*4977 FILLER_0_69_385
*4978 FILLER_0_69_39
*4979 FILLER_0_69_391
*4980 FILLER_0_69_393
*4981 FILLER_0_69_405
*4982 FILLER_0_69_417
*4983 FILLER_0_69_429
*4984 FILLER_0_69_441
*4985 FILLER_0_69_447
*4986 FILLER_0_69_449
*4987 FILLER_0_69_461
*4988 FILLER_0_69_473
*4989 FILLER_0_69_485
*4990 FILLER_0_69_497
*4991 FILLER_0_69_503
*4992 FILLER_0_69_505
*4993 FILLER_0_69_51
*4994 FILLER_0_69_517
*4995 FILLER_0_69_529
*4996 FILLER_0_69_541
*4997 FILLER_0_69_55
*4998 FILLER_0_69_553
*4999 FILLER_0_69_559
*5000 FILLER_0_69_561
*5001 FILLER_0_69_57
*5002 FILLER_0_69_573
*5003 FILLER_0_69_585
*5004 FILLER_0_69_597
*5005 FILLER_0_69_609
*5006 FILLER_0_69_615
*5007 FILLER_0_69_617
*5008 FILLER_0_69_69
*5009 FILLER_0_69_81
*5010 FILLER_0_69_93
*5011 FILLER_0_6_109
*5012 FILLER_0_6_121
*5013 FILLER_0_6_133
*5014 FILLER_0_6_139
*5015 FILLER_0_6_141
*5016 FILLER_0_6_15
*5017 FILLER_0_6_153
*5018 FILLER_0_6_165
*5019 FILLER_0_6_171
*5020 FILLER_0_6_183
*5021 FILLER_0_6_195
*5022 FILLER_0_6_197
*5023 FILLER_0_6_209
*5024 FILLER_0_6_221
*5025 FILLER_0_6_233
*5026 FILLER_0_6_245
*5027 FILLER_0_6_251
*5028 FILLER_0_6_253
*5029 FILLER_0_6_265
*5030 FILLER_0_6_27
*5031 FILLER_0_6_277
*5032 FILLER_0_6_29
*5033 FILLER_0_6_3
*5034 FILLER_0_6_306
*5035 FILLER_0_6_309
*5036 FILLER_0_6_321
*5037 FILLER_0_6_333
*5038 FILLER_0_6_345
*5039 FILLER_0_6_357
*5040 FILLER_0_6_363
*5041 FILLER_0_6_365
*5042 FILLER_0_6_377
*5043 FILLER_0_6_389
*5044 FILLER_0_6_401
*5045 FILLER_0_6_41
*5046 FILLER_0_6_413
*5047 FILLER_0_6_419
*5048 FILLER_0_6_430
*5049 FILLER_0_6_442
*5050 FILLER_0_6_454
*5051 FILLER_0_6_466
*5052 FILLER_0_6_474
*5053 FILLER_0_6_477
*5054 FILLER_0_6_489
*5055 FILLER_0_6_501
*5056 FILLER_0_6_513
*5057 FILLER_0_6_525
*5058 FILLER_0_6_53
*5059 FILLER_0_6_531
*5060 FILLER_0_6_533
*5061 FILLER_0_6_545
*5062 FILLER_0_6_557
*5063 FILLER_0_6_569
*5064 FILLER_0_6_581
*5065 FILLER_0_6_587
*5066 FILLER_0_6_589
*5067 FILLER_0_6_601
*5068 FILLER_0_6_613
*5069 FILLER_0_6_621
*5070 FILLER_0_6_65
*5071 FILLER_0_6_77
*5072 FILLER_0_6_83
*5073 FILLER_0_6_85
*5074 FILLER_0_6_97
*5075 FILLER_0_70_109
*5076 FILLER_0_70_121
*5077 FILLER_0_70_133
*5078 FILLER_0_70_139
*5079 FILLER_0_70_141
*5080 FILLER_0_70_153
*5081 FILLER_0_70_165
*5082 FILLER_0_70_177
*5083 FILLER_0_70_18
*5084 FILLER_0_70_189
*5085 FILLER_0_70_195
*5086 FILLER_0_70_197
*5087 FILLER_0_70_209
*5088 FILLER_0_70_221
*5089 FILLER_0_70_233
*5090 FILLER_0_70_245
*5091 FILLER_0_70_251
*5092 FILLER_0_70_253
*5093 FILLER_0_70_26
*5094 FILLER_0_70_265
*5095 FILLER_0_70_277
*5096 FILLER_0_70_289
*5097 FILLER_0_70_29
*5098 FILLER_0_70_301
*5099 FILLER_0_70_307
*5100 FILLER_0_70_309
*5101 FILLER_0_70_321
*5102 FILLER_0_70_333
*5103 FILLER_0_70_345
*5104 FILLER_0_70_357
*5105 FILLER_0_70_363
*5106 FILLER_0_70_365
*5107 FILLER_0_70_377
*5108 FILLER_0_70_389
*5109 FILLER_0_70_401
*5110 FILLER_0_70_41
*5111 FILLER_0_70_413
*5112 FILLER_0_70_419
*5113 FILLER_0_70_421
*5114 FILLER_0_70_433
*5115 FILLER_0_70_445
*5116 FILLER_0_70_457
*5117 FILLER_0_70_469
*5118 FILLER_0_70_475
*5119 FILLER_0_70_477
*5120 FILLER_0_70_489
*5121 FILLER_0_70_501
*5122 FILLER_0_70_513
*5123 FILLER_0_70_525
*5124 FILLER_0_70_53
*5125 FILLER_0_70_531
*5126 FILLER_0_70_533
*5127 FILLER_0_70_545
*5128 FILLER_0_70_557
*5129 FILLER_0_70_569
*5130 FILLER_0_70_581
*5131 FILLER_0_70_587
*5132 FILLER_0_70_589
*5133 FILLER_0_70_6
*5134 FILLER_0_70_601
*5135 FILLER_0_70_613
*5136 FILLER_0_70_65
*5137 FILLER_0_70_77
*5138 FILLER_0_70_83
*5139 FILLER_0_70_85
*5140 FILLER_0_70_97
*5141 FILLER_0_71_105
*5142 FILLER_0_71_111
*5143 FILLER_0_71_113
*5144 FILLER_0_71_125
*5145 FILLER_0_71_137
*5146 FILLER_0_71_149
*5147 FILLER_0_71_15
*5148 FILLER_0_71_161
*5149 FILLER_0_71_167
*5150 FILLER_0_71_169
*5151 FILLER_0_71_181
*5152 FILLER_0_71_193
*5153 FILLER_0_71_205
*5154 FILLER_0_71_217
*5155 FILLER_0_71_223
*5156 FILLER_0_71_225
*5157 FILLER_0_71_237
*5158 FILLER_0_71_249
*5159 FILLER_0_71_261
*5160 FILLER_0_71_27
*5161 FILLER_0_71_273
*5162 FILLER_0_71_279
*5163 FILLER_0_71_281
*5164 FILLER_0_71_293
*5165 FILLER_0_71_3
*5166 FILLER_0_71_305
*5167 FILLER_0_71_317
*5168 FILLER_0_71_329
*5169 FILLER_0_71_335
*5170 FILLER_0_71_337
*5171 FILLER_0_71_349
*5172 FILLER_0_71_371
*5173 FILLER_0_71_383
*5174 FILLER_0_71_39
*5175 FILLER_0_71_391
*5176 FILLER_0_71_393
*5177 FILLER_0_71_405
*5178 FILLER_0_71_417
*5179 FILLER_0_71_429
*5180 FILLER_0_71_441
*5181 FILLER_0_71_447
*5182 FILLER_0_71_449
*5183 FILLER_0_71_461
*5184 FILLER_0_71_473
*5185 FILLER_0_71_485
*5186 FILLER_0_71_497
*5187 FILLER_0_71_503
*5188 FILLER_0_71_505
*5189 FILLER_0_71_51
*5190 FILLER_0_71_517
*5191 FILLER_0_71_529
*5192 FILLER_0_71_541
*5193 FILLER_0_71_55
*5194 FILLER_0_71_553
*5195 FILLER_0_71_559
*5196 FILLER_0_71_561
*5197 FILLER_0_71_57
*5198 FILLER_0_71_573
*5199 FILLER_0_71_585
*5200 FILLER_0_71_597
*5201 FILLER_0_71_609
*5202 FILLER_0_71_615
*5203 FILLER_0_71_617
*5204 FILLER_0_71_69
*5205 FILLER_0_71_81
*5206 FILLER_0_71_93
*5207 FILLER_0_72_109
*5208 FILLER_0_72_121
*5209 FILLER_0_72_133
*5210 FILLER_0_72_139
*5211 FILLER_0_72_141
*5212 FILLER_0_72_153
*5213 FILLER_0_72_165
*5214 FILLER_0_72_177
*5215 FILLER_0_72_18
*5216 FILLER_0_72_189
*5217 FILLER_0_72_195
*5218 FILLER_0_72_197
*5219 FILLER_0_72_209
*5220 FILLER_0_72_221
*5221 FILLER_0_72_233
*5222 FILLER_0_72_245
*5223 FILLER_0_72_251
*5224 FILLER_0_72_253
*5225 FILLER_0_72_26
*5226 FILLER_0_72_265
*5227 FILLER_0_72_277
*5228 FILLER_0_72_289
*5229 FILLER_0_72_29
*5230 FILLER_0_72_301
*5231 FILLER_0_72_307
*5232 FILLER_0_72_309
*5233 FILLER_0_72_321
*5234 FILLER_0_72_333
*5235 FILLER_0_72_345
*5236 FILLER_0_72_356
*5237 FILLER_0_72_365
*5238 FILLER_0_72_377
*5239 FILLER_0_72_389
*5240 FILLER_0_72_401
*5241 FILLER_0_72_41
*5242 FILLER_0_72_413
*5243 FILLER_0_72_419
*5244 FILLER_0_72_421
*5245 FILLER_0_72_433
*5246 FILLER_0_72_445
*5247 FILLER_0_72_457
*5248 FILLER_0_72_469
*5249 FILLER_0_72_475
*5250 FILLER_0_72_486
*5251 FILLER_0_72_498
*5252 FILLER_0_72_510
*5253 FILLER_0_72_522
*5254 FILLER_0_72_53
*5255 FILLER_0_72_530
*5256 FILLER_0_72_533
*5257 FILLER_0_72_545
*5258 FILLER_0_72_557
*5259 FILLER_0_72_569
*5260 FILLER_0_72_581
*5261 FILLER_0_72_587
*5262 FILLER_0_72_589
*5263 FILLER_0_72_6
*5264 FILLER_0_72_601
*5265 FILLER_0_72_613
*5266 FILLER_0_72_65
*5267 FILLER_0_72_77
*5268 FILLER_0_72_83
*5269 FILLER_0_72_85
*5270 FILLER_0_72_97
*5271 FILLER_0_73_105
*5272 FILLER_0_73_111
*5273 FILLER_0_73_113
*5274 FILLER_0_73_125
*5275 FILLER_0_73_137
*5276 FILLER_0_73_149
*5277 FILLER_0_73_161
*5278 FILLER_0_73_167
*5279 FILLER_0_73_169
*5280 FILLER_0_73_181
*5281 FILLER_0_73_193
*5282 FILLER_0_73_205
*5283 FILLER_0_73_217
*5284 FILLER_0_73_223
*5285 FILLER_0_73_225
*5286 FILLER_0_73_237
*5287 FILLER_0_73_249
*5288 FILLER_0_73_25
*5289 FILLER_0_73_261
*5290 FILLER_0_73_273
*5291 FILLER_0_73_279
*5292 FILLER_0_73_281
*5293 FILLER_0_73_293
*5294 FILLER_0_73_3
*5295 FILLER_0_73_305
*5296 FILLER_0_73_317
*5297 FILLER_0_73_329
*5298 FILLER_0_73_335
*5299 FILLER_0_73_337
*5300 FILLER_0_73_349
*5301 FILLER_0_73_361
*5302 FILLER_0_73_37
*5303 FILLER_0_73_373
*5304 FILLER_0_73_385
*5305 FILLER_0_73_391
*5306 FILLER_0_73_393
*5307 FILLER_0_73_405
*5308 FILLER_0_73_417
*5309 FILLER_0_73_429
*5310 FILLER_0_73_441
*5311 FILLER_0_73_447
*5312 FILLER_0_73_449
*5313 FILLER_0_73_461
*5314 FILLER_0_73_467
*5315 FILLER_0_73_49
*5316 FILLER_0_73_491
*5317 FILLER_0_73_503
*5318 FILLER_0_73_505
*5319 FILLER_0_73_517
*5320 FILLER_0_73_529
*5321 FILLER_0_73_541
*5322 FILLER_0_73_55
*5323 FILLER_0_73_553
*5324 FILLER_0_73_559
*5325 FILLER_0_73_561
*5326 FILLER_0_73_57
*5327 FILLER_0_73_573
*5328 FILLER_0_73_585
*5329 FILLER_0_73_597
*5330 FILLER_0_73_609
*5331 FILLER_0_73_615
*5332 FILLER_0_73_617
*5333 FILLER_0_73_69
*5334 FILLER_0_73_81
*5335 FILLER_0_73_93
*5336 FILLER_0_74_109
*5337 FILLER_0_74_11
*5338 FILLER_0_74_121
*5339 FILLER_0_74_133
*5340 FILLER_0_74_139
*5341 FILLER_0_74_141
*5342 FILLER_0_74_15
*5343 FILLER_0_74_153
*5344 FILLER_0_74_165
*5345 FILLER_0_74_177
*5346 FILLER_0_74_189
*5347 FILLER_0_74_195
*5348 FILLER_0_74_197
*5349 FILLER_0_74_209
*5350 FILLER_0_74_221
*5351 FILLER_0_74_233
*5352 FILLER_0_74_245
*5353 FILLER_0_74_251
*5354 FILLER_0_74_253
*5355 FILLER_0_74_265
*5356 FILLER_0_74_27
*5357 FILLER_0_74_277
*5358 FILLER_0_74_289
*5359 FILLER_0_74_29
*5360 FILLER_0_74_3
*5361 FILLER_0_74_301
*5362 FILLER_0_74_307
*5363 FILLER_0_74_309
*5364 FILLER_0_74_321
*5365 FILLER_0_74_333
*5366 FILLER_0_74_345
*5367 FILLER_0_74_357
*5368 FILLER_0_74_363
*5369 FILLER_0_74_365
*5370 FILLER_0_74_377
*5371 FILLER_0_74_389
*5372 FILLER_0_74_401
*5373 FILLER_0_74_41
*5374 FILLER_0_74_413
*5375 FILLER_0_74_419
*5376 FILLER_0_74_421
*5377 FILLER_0_74_433
*5378 FILLER_0_74_445
*5379 FILLER_0_74_457
*5380 FILLER_0_74_469
*5381 FILLER_0_74_475
*5382 FILLER_0_74_477
*5383 FILLER_0_74_489
*5384 FILLER_0_74_501
*5385 FILLER_0_74_513
*5386 FILLER_0_74_525
*5387 FILLER_0_74_53
*5388 FILLER_0_74_531
*5389 FILLER_0_74_533
*5390 FILLER_0_74_545
*5391 FILLER_0_74_557
*5392 FILLER_0_74_569
*5393 FILLER_0_74_581
*5394 FILLER_0_74_587
*5395 FILLER_0_74_589
*5396 FILLER_0_74_601
*5397 FILLER_0_74_613
*5398 FILLER_0_74_65
*5399 FILLER_0_74_77
*5400 FILLER_0_74_83
*5401 FILLER_0_74_85
*5402 FILLER_0_74_97
*5403 FILLER_0_75_105
*5404 FILLER_0_75_111
*5405 FILLER_0_75_113
*5406 FILLER_0_75_125
*5407 FILLER_0_75_137
*5408 FILLER_0_75_149
*5409 FILLER_0_75_161
*5410 FILLER_0_75_167
*5411 FILLER_0_75_169
*5412 FILLER_0_75_18
*5413 FILLER_0_75_181
*5414 FILLER_0_75_193
*5415 FILLER_0_75_205
*5416 FILLER_0_75_217
*5417 FILLER_0_75_223
*5418 FILLER_0_75_225
*5419 FILLER_0_75_237
*5420 FILLER_0_75_249
*5421 FILLER_0_75_261
*5422 FILLER_0_75_273
*5423 FILLER_0_75_279
*5424 FILLER_0_75_281
*5425 FILLER_0_75_293
*5426 FILLER_0_75_30
*5427 FILLER_0_75_305
*5428 FILLER_0_75_317
*5429 FILLER_0_75_329
*5430 FILLER_0_75_335
*5431 FILLER_0_75_337
*5432 FILLER_0_75_349
*5433 FILLER_0_75_361
*5434 FILLER_0_75_373
*5435 FILLER_0_75_385
*5436 FILLER_0_75_391
*5437 FILLER_0_75_393
*5438 FILLER_0_75_405
*5439 FILLER_0_75_417
*5440 FILLER_0_75_42
*5441 FILLER_0_75_429
*5442 FILLER_0_75_441
*5443 FILLER_0_75_447
*5444 FILLER_0_75_454
*5445 FILLER_0_75_466
*5446 FILLER_0_75_478
*5447 FILLER_0_75_490
*5448 FILLER_0_75_502
*5449 FILLER_0_75_505
*5450 FILLER_0_75_517
*5451 FILLER_0_75_529
*5452 FILLER_0_75_54
*5453 FILLER_0_75_541
*5454 FILLER_0_75_553
*5455 FILLER_0_75_559
*5456 FILLER_0_75_561
*5457 FILLER_0_75_57
*5458 FILLER_0_75_573
*5459 FILLER_0_75_585
*5460 FILLER_0_75_597
*5461 FILLER_0_75_6
*5462 FILLER_0_75_609
*5463 FILLER_0_75_615
*5464 FILLER_0_75_617
*5465 FILLER_0_75_69
*5466 FILLER_0_75_81
*5467 FILLER_0_75_93
*5468 FILLER_0_76_109
*5469 FILLER_0_76_121
*5470 FILLER_0_76_133
*5471 FILLER_0_76_139
*5472 FILLER_0_76_141
*5473 FILLER_0_76_153
*5474 FILLER_0_76_165
*5475 FILLER_0_76_177
*5476 FILLER_0_76_189
*5477 FILLER_0_76_195
*5478 FILLER_0_76_197
*5479 FILLER_0_76_209
*5480 FILLER_0_76_21
*5481 FILLER_0_76_221
*5482 FILLER_0_76_233
*5483 FILLER_0_76_245
*5484 FILLER_0_76_251
*5485 FILLER_0_76_253
*5486 FILLER_0_76_265
*5487 FILLER_0_76_27
*5488 FILLER_0_76_277
*5489 FILLER_0_76_289
*5490 FILLER_0_76_29
*5491 FILLER_0_76_301
*5492 FILLER_0_76_307
*5493 FILLER_0_76_309
*5494 FILLER_0_76_321
*5495 FILLER_0_76_333
*5496 FILLER_0_76_345
*5497 FILLER_0_76_357
*5498 FILLER_0_76_363
*5499 FILLER_0_76_365
*5500 FILLER_0_76_377
*5501 FILLER_0_76_389
*5502 FILLER_0_76_401
*5503 FILLER_0_76_41
*5504 FILLER_0_76_413
*5505 FILLER_0_76_419
*5506 FILLER_0_76_421
*5507 FILLER_0_76_433
*5508 FILLER_0_76_445
*5509 FILLER_0_76_457
*5510 FILLER_0_76_462
*5511 FILLER_0_76_474
*5512 FILLER_0_76_477
*5513 FILLER_0_76_489
*5514 FILLER_0_76_501
*5515 FILLER_0_76_513
*5516 FILLER_0_76_525
*5517 FILLER_0_76_53
*5518 FILLER_0_76_531
*5519 FILLER_0_76_533
*5520 FILLER_0_76_545
*5521 FILLER_0_76_557
*5522 FILLER_0_76_569
*5523 FILLER_0_76_581
*5524 FILLER_0_76_587
*5525 FILLER_0_76_589
*5526 FILLER_0_76_601
*5527 FILLER_0_76_613
*5528 FILLER_0_76_65
*5529 FILLER_0_76_77
*5530 FILLER_0_76_83
*5531 FILLER_0_76_85
*5532 FILLER_0_76_9
*5533 FILLER_0_76_97
*5534 FILLER_0_77_105
*5535 FILLER_0_77_111
*5536 FILLER_0_77_113
*5537 FILLER_0_77_125
*5538 FILLER_0_77_137
*5539 FILLER_0_77_149
*5540 FILLER_0_77_161
*5541 FILLER_0_77_167
*5542 FILLER_0_77_169
*5543 FILLER_0_77_18
*5544 FILLER_0_77_181
*5545 FILLER_0_77_193
*5546 FILLER_0_77_205
*5547 FILLER_0_77_217
*5548 FILLER_0_77_223
*5549 FILLER_0_77_225
*5550 FILLER_0_77_237
*5551 FILLER_0_77_249
*5552 FILLER_0_77_261
*5553 FILLER_0_77_273
*5554 FILLER_0_77_279
*5555 FILLER_0_77_281
*5556 FILLER_0_77_293
*5557 FILLER_0_77_3
*5558 FILLER_0_77_30
*5559 FILLER_0_77_305
*5560 FILLER_0_77_317
*5561 FILLER_0_77_329
*5562 FILLER_0_77_335
*5563 FILLER_0_77_337
*5564 FILLER_0_77_349
*5565 FILLER_0_77_361
*5566 FILLER_0_77_373
*5567 FILLER_0_77_385
*5568 FILLER_0_77_391
*5569 FILLER_0_77_393
*5570 FILLER_0_77_405
*5571 FILLER_0_77_417
*5572 FILLER_0_77_42
*5573 FILLER_0_77_429
*5574 FILLER_0_77_441
*5575 FILLER_0_77_447
*5576 FILLER_0_77_469
*5577 FILLER_0_77_481
*5578 FILLER_0_77_493
*5579 FILLER_0_77_501
*5580 FILLER_0_77_505
*5581 FILLER_0_77_517
*5582 FILLER_0_77_529
*5583 FILLER_0_77_54
*5584 FILLER_0_77_541
*5585 FILLER_0_77_553
*5586 FILLER_0_77_559
*5587 FILLER_0_77_561
*5588 FILLER_0_77_57
*5589 FILLER_0_77_573
*5590 FILLER_0_77_585
*5591 FILLER_0_77_597
*5592 FILLER_0_77_609
*5593 FILLER_0_77_615
*5594 FILLER_0_77_617
*5595 FILLER_0_77_69
*5596 FILLER_0_77_81
*5597 FILLER_0_77_93
*5598 FILLER_0_78_109
*5599 FILLER_0_78_121
*5600 FILLER_0_78_133
*5601 FILLER_0_78_139
*5602 FILLER_0_78_141
*5603 FILLER_0_78_153
*5604 FILLER_0_78_165
*5605 FILLER_0_78_177
*5606 FILLER_0_78_189
*5607 FILLER_0_78_195
*5608 FILLER_0_78_197
*5609 FILLER_0_78_209
*5610 FILLER_0_78_221
*5611 FILLER_0_78_233
*5612 FILLER_0_78_245
*5613 FILLER_0_78_25
*5614 FILLER_0_78_251
*5615 FILLER_0_78_253
*5616 FILLER_0_78_265
*5617 FILLER_0_78_277
*5618 FILLER_0_78_289
*5619 FILLER_0_78_29
*5620 FILLER_0_78_3
*5621 FILLER_0_78_301
*5622 FILLER_0_78_307
*5623 FILLER_0_78_309
*5624 FILLER_0_78_321
*5625 FILLER_0_78_333
*5626 FILLER_0_78_345
*5627 FILLER_0_78_357
*5628 FILLER_0_78_363
*5629 FILLER_0_78_365
*5630 FILLER_0_78_377
*5631 FILLER_0_78_389
*5632 FILLER_0_78_401
*5633 FILLER_0_78_41
*5634 FILLER_0_78_413
*5635 FILLER_0_78_419
*5636 FILLER_0_78_421
*5637 FILLER_0_78_433
*5638 FILLER_0_78_445
*5639 FILLER_0_78_457
*5640 FILLER_0_78_469
*5641 FILLER_0_78_475
*5642 FILLER_0_78_477
*5643 FILLER_0_78_489
*5644 FILLER_0_78_501
*5645 FILLER_0_78_513
*5646 FILLER_0_78_525
*5647 FILLER_0_78_53
*5648 FILLER_0_78_531
*5649 FILLER_0_78_533
*5650 FILLER_0_78_545
*5651 FILLER_0_78_557
*5652 FILLER_0_78_569
*5653 FILLER_0_78_581
*5654 FILLER_0_78_587
*5655 FILLER_0_78_589
*5656 FILLER_0_78_601
*5657 FILLER_0_78_613
*5658 FILLER_0_78_65
*5659 FILLER_0_78_77
*5660 FILLER_0_78_83
*5661 FILLER_0_78_85
*5662 FILLER_0_78_97
*5663 FILLER_0_79_105
*5664 FILLER_0_79_111
*5665 FILLER_0_79_113
*5666 FILLER_0_79_125
*5667 FILLER_0_79_137
*5668 FILLER_0_79_149
*5669 FILLER_0_79_15
*5670 FILLER_0_79_161
*5671 FILLER_0_79_167
*5672 FILLER_0_79_169
*5673 FILLER_0_79_181
*5674 FILLER_0_79_193
*5675 FILLER_0_79_205
*5676 FILLER_0_79_217
*5677 FILLER_0_79_223
*5678 FILLER_0_79_225
*5679 FILLER_0_79_237
*5680 FILLER_0_79_249
*5681 FILLER_0_79_261
*5682 FILLER_0_79_27
*5683 FILLER_0_79_273
*5684 FILLER_0_79_279
*5685 FILLER_0_79_281
*5686 FILLER_0_79_293
*5687 FILLER_0_79_305
*5688 FILLER_0_79_317
*5689 FILLER_0_79_329
*5690 FILLER_0_79_335
*5691 FILLER_0_79_337
*5692 FILLER_0_79_349
*5693 FILLER_0_79_361
*5694 FILLER_0_79_373
*5695 FILLER_0_79_385
*5696 FILLER_0_79_39
*5697 FILLER_0_79_391
*5698 FILLER_0_79_393
*5699 FILLER_0_79_405
*5700 FILLER_0_79_417
*5701 FILLER_0_79_429
*5702 FILLER_0_79_441
*5703 FILLER_0_79_447
*5704 FILLER_0_79_449
*5705 FILLER_0_79_461
*5706 FILLER_0_79_473
*5707 FILLER_0_79_485
*5708 FILLER_0_79_497
*5709 FILLER_0_79_503
*5710 FILLER_0_79_505
*5711 FILLER_0_79_51
*5712 FILLER_0_79_517
*5713 FILLER_0_79_529
*5714 FILLER_0_79_541
*5715 FILLER_0_79_55
*5716 FILLER_0_79_553
*5717 FILLER_0_79_559
*5718 FILLER_0_79_561
*5719 FILLER_0_79_57
*5720 FILLER_0_79_573
*5721 FILLER_0_79_585
*5722 FILLER_0_79_597
*5723 FILLER_0_79_609
*5724 FILLER_0_79_615
*5725 FILLER_0_79_617
*5726 FILLER_0_79_69
*5727 FILLER_0_79_81
*5728 FILLER_0_79_9
*5729 FILLER_0_79_93
*5730 FILLER_0_7_105
*5731 FILLER_0_7_111
*5732 FILLER_0_7_113
*5733 FILLER_0_7_125
*5734 FILLER_0_7_137
*5735 FILLER_0_7_149
*5736 FILLER_0_7_161
*5737 FILLER_0_7_167
*5738 FILLER_0_7_169
*5739 FILLER_0_7_18
*5740 FILLER_0_7_181
*5741 FILLER_0_7_193
*5742 FILLER_0_7_205
*5743 FILLER_0_7_217
*5744 FILLER_0_7_223
*5745 FILLER_0_7_225
*5746 FILLER_0_7_237
*5747 FILLER_0_7_249
*5748 FILLER_0_7_261
*5749 FILLER_0_7_273
*5750 FILLER_0_7_279
*5751 FILLER_0_7_281
*5752 FILLER_0_7_293
*5753 FILLER_0_7_30
*5754 FILLER_0_7_305
*5755 FILLER_0_7_317
*5756 FILLER_0_7_329
*5757 FILLER_0_7_335
*5758 FILLER_0_7_337
*5759 FILLER_0_7_349
*5760 FILLER_0_7_361
*5761 FILLER_0_7_373
*5762 FILLER_0_7_385
*5763 FILLER_0_7_391
*5764 FILLER_0_7_393
*5765 FILLER_0_7_405
*5766 FILLER_0_7_409
*5767 FILLER_0_7_42
*5768 FILLER_0_7_433
*5769 FILLER_0_7_445
*5770 FILLER_0_7_449
*5771 FILLER_0_7_461
*5772 FILLER_0_7_473
*5773 FILLER_0_7_485
*5774 FILLER_0_7_497
*5775 FILLER_0_7_503
*5776 FILLER_0_7_505
*5777 FILLER_0_7_517
*5778 FILLER_0_7_529
*5779 FILLER_0_7_54
*5780 FILLER_0_7_541
*5781 FILLER_0_7_553
*5782 FILLER_0_7_559
*5783 FILLER_0_7_561
*5784 FILLER_0_7_57
*5785 FILLER_0_7_573
*5786 FILLER_0_7_585
*5787 FILLER_0_7_597
*5788 FILLER_0_7_6
*5789 FILLER_0_7_609
*5790 FILLER_0_7_615
*5791 FILLER_0_7_617
*5792 FILLER_0_7_69
*5793 FILLER_0_7_81
*5794 FILLER_0_7_93
*5795 FILLER_0_80_109
*5796 FILLER_0_80_121
*5797 FILLER_0_80_133
*5798 FILLER_0_80_139
*5799 FILLER_0_80_141
*5800 FILLER_0_80_15
*5801 FILLER_0_80_153
*5802 FILLER_0_80_165
*5803 FILLER_0_80_177
*5804 FILLER_0_80_189
*5805 FILLER_0_80_195
*5806 FILLER_0_80_197
*5807 FILLER_0_80_209
*5808 FILLER_0_80_221
*5809 FILLER_0_80_233
*5810 FILLER_0_80_245
*5811 FILLER_0_80_251
*5812 FILLER_0_80_253
*5813 FILLER_0_80_265
*5814 FILLER_0_80_27
*5815 FILLER_0_80_277
*5816 FILLER_0_80_289
*5817 FILLER_0_80_29
*5818 FILLER_0_80_3
*5819 FILLER_0_80_301
*5820 FILLER_0_80_305
*5821 FILLER_0_80_309
*5822 FILLER_0_80_321
*5823 FILLER_0_80_333
*5824 FILLER_0_80_345
*5825 FILLER_0_80_357
*5826 FILLER_0_80_363
*5827 FILLER_0_80_365
*5828 FILLER_0_80_377
*5829 FILLER_0_80_389
*5830 FILLER_0_80_401
*5831 FILLER_0_80_41
*5832 FILLER_0_80_413
*5833 FILLER_0_80_419
*5834 FILLER_0_80_421
*5835 FILLER_0_80_433
*5836 FILLER_0_80_445
*5837 FILLER_0_80_457
*5838 FILLER_0_80_469
*5839 FILLER_0_80_475
*5840 FILLER_0_80_477
*5841 FILLER_0_80_489
*5842 FILLER_0_80_501
*5843 FILLER_0_80_513
*5844 FILLER_0_80_525
*5845 FILLER_0_80_53
*5846 FILLER_0_80_531
*5847 FILLER_0_80_533
*5848 FILLER_0_80_545
*5849 FILLER_0_80_557
*5850 FILLER_0_80_569
*5851 FILLER_0_80_581
*5852 FILLER_0_80_587
*5853 FILLER_0_80_589
*5854 FILLER_0_80_601
*5855 FILLER_0_80_613
*5856 FILLER_0_80_65
*5857 FILLER_0_80_77
*5858 FILLER_0_80_83
*5859 FILLER_0_80_85
*5860 FILLER_0_80_97
*5861 FILLER_0_81_105
*5862 FILLER_0_81_111
*5863 FILLER_0_81_113
*5864 FILLER_0_81_125
*5865 FILLER_0_81_137
*5866 FILLER_0_81_149
*5867 FILLER_0_81_161
*5868 FILLER_0_81_167
*5869 FILLER_0_81_169
*5870 FILLER_0_81_181
*5871 FILLER_0_81_193
*5872 FILLER_0_81_205
*5873 FILLER_0_81_21
*5874 FILLER_0_81_217
*5875 FILLER_0_81_223
*5876 FILLER_0_81_225
*5877 FILLER_0_81_237
*5878 FILLER_0_81_249
*5879 FILLER_0_81_261
*5880 FILLER_0_81_273
*5881 FILLER_0_81_279
*5882 FILLER_0_81_281
*5883 FILLER_0_81_293
*5884 FILLER_0_81_305
*5885 FILLER_0_81_312
*5886 FILLER_0_81_324
*5887 FILLER_0_81_33
*5888 FILLER_0_81_337
*5889 FILLER_0_81_349
*5890 FILLER_0_81_361
*5891 FILLER_0_81_373
*5892 FILLER_0_81_385
*5893 FILLER_0_81_391
*5894 FILLER_0_81_393
*5895 FILLER_0_81_405
*5896 FILLER_0_81_417
*5897 FILLER_0_81_429
*5898 FILLER_0_81_441
*5899 FILLER_0_81_447
*5900 FILLER_0_81_449
*5901 FILLER_0_81_45
*5902 FILLER_0_81_461
*5903 FILLER_0_81_473
*5904 FILLER_0_81_485
*5905 FILLER_0_81_497
*5906 FILLER_0_81_503
*5907 FILLER_0_81_505
*5908 FILLER_0_81_517
*5909 FILLER_0_81_529
*5910 FILLER_0_81_53
*5911 FILLER_0_81_541
*5912 FILLER_0_81_553
*5913 FILLER_0_81_559
*5914 FILLER_0_81_561
*5915 FILLER_0_81_57
*5916 FILLER_0_81_573
*5917 FILLER_0_81_585
*5918 FILLER_0_81_597
*5919 FILLER_0_81_609
*5920 FILLER_0_81_615
*5921 FILLER_0_81_617
*5922 FILLER_0_81_621
*5923 FILLER_0_81_69
*5924 FILLER_0_81_81
*5925 FILLER_0_81_9
*5926 FILLER_0_81_93
*5927 FILLER_0_82_109
*5928 FILLER_0_82_121
*5929 FILLER_0_82_133
*5930 FILLER_0_82_139
*5931 FILLER_0_82_141
*5932 FILLER_0_82_15
*5933 FILLER_0_82_153
*5934 FILLER_0_82_165
*5935 FILLER_0_82_177
*5936 FILLER_0_82_189
*5937 FILLER_0_82_195
*5938 FILLER_0_82_197
*5939 FILLER_0_82_209
*5940 FILLER_0_82_221
*5941 FILLER_0_82_233
*5942 FILLER_0_82_245
*5943 FILLER_0_82_251
*5944 FILLER_0_82_253
*5945 FILLER_0_82_265
*5946 FILLER_0_82_27
*5947 FILLER_0_82_277
*5948 FILLER_0_82_289
*5949 FILLER_0_82_29
*5950 FILLER_0_82_3
*5951 FILLER_0_82_301
*5952 FILLER_0_82_307
*5953 FILLER_0_82_309
*5954 FILLER_0_82_321
*5955 FILLER_0_82_333
*5956 FILLER_0_82_345
*5957 FILLER_0_82_357
*5958 FILLER_0_82_363
*5959 FILLER_0_82_365
*5960 FILLER_0_82_377
*5961 FILLER_0_82_383
*5962 FILLER_0_82_404
*5963 FILLER_0_82_41
*5964 FILLER_0_82_416
*5965 FILLER_0_82_421
*5966 FILLER_0_82_433
*5967 FILLER_0_82_445
*5968 FILLER_0_82_457
*5969 FILLER_0_82_469
*5970 FILLER_0_82_475
*5971 FILLER_0_82_477
*5972 FILLER_0_82_489
*5973 FILLER_0_82_501
*5974 FILLER_0_82_513
*5975 FILLER_0_82_525
*5976 FILLER_0_82_53
*5977 FILLER_0_82_531
*5978 FILLER_0_82_533
*5979 FILLER_0_82_545
*5980 FILLER_0_82_557
*5981 FILLER_0_82_569
*5982 FILLER_0_82_581
*5983 FILLER_0_82_587
*5984 FILLER_0_82_589
*5985 FILLER_0_82_601
*5986 FILLER_0_82_613
*5987 FILLER_0_82_65
*5988 FILLER_0_82_77
*5989 FILLER_0_82_83
*5990 FILLER_0_82_85
*5991 FILLER_0_82_97
*5992 FILLER_0_83_105
*5993 FILLER_0_83_111
*5994 FILLER_0_83_113
*5995 FILLER_0_83_125
*5996 FILLER_0_83_137
*5997 FILLER_0_83_149
*5998 FILLER_0_83_15
*5999 FILLER_0_83_161
*6000 FILLER_0_83_167
*6001 FILLER_0_83_169
*6002 FILLER_0_83_181
*6003 FILLER_0_83_193
*6004 FILLER_0_83_205
*6005 FILLER_0_83_217
*6006 FILLER_0_83_223
*6007 FILLER_0_83_225
*6008 FILLER_0_83_237
*6009 FILLER_0_83_249
*6010 FILLER_0_83_261
*6011 FILLER_0_83_27
*6012 FILLER_0_83_273
*6013 FILLER_0_83_279
*6014 FILLER_0_83_281
*6015 FILLER_0_83_293
*6016 FILLER_0_83_3
*6017 FILLER_0_83_305
*6018 FILLER_0_83_317
*6019 FILLER_0_83_329
*6020 FILLER_0_83_335
*6021 FILLER_0_83_337
*6022 FILLER_0_83_349
*6023 FILLER_0_83_361
*6024 FILLER_0_83_373
*6025 FILLER_0_83_385
*6026 FILLER_0_83_39
*6027 FILLER_0_83_391
*6028 FILLER_0_83_393
*6029 FILLER_0_83_405
*6030 FILLER_0_83_417
*6031 FILLER_0_83_429
*6032 FILLER_0_83_441
*6033 FILLER_0_83_447
*6034 FILLER_0_83_449
*6035 FILLER_0_83_461
*6036 FILLER_0_83_473
*6037 FILLER_0_83_485
*6038 FILLER_0_83_497
*6039 FILLER_0_83_503
*6040 FILLER_0_83_505
*6041 FILLER_0_83_51
*6042 FILLER_0_83_517
*6043 FILLER_0_83_529
*6044 FILLER_0_83_541
*6045 FILLER_0_83_55
*6046 FILLER_0_83_553
*6047 FILLER_0_83_559
*6048 FILLER_0_83_561
*6049 FILLER_0_83_57
*6050 FILLER_0_83_573
*6051 FILLER_0_83_585
*6052 FILLER_0_83_597
*6053 FILLER_0_83_609
*6054 FILLER_0_83_615
*6055 FILLER_0_83_617
*6056 FILLER_0_83_69
*6057 FILLER_0_83_81
*6058 FILLER_0_83_93
*6059 FILLER_0_84_109
*6060 FILLER_0_84_121
*6061 FILLER_0_84_133
*6062 FILLER_0_84_139
*6063 FILLER_0_84_141
*6064 FILLER_0_84_153
*6065 FILLER_0_84_165
*6066 FILLER_0_84_177
*6067 FILLER_0_84_189
*6068 FILLER_0_84_195
*6069 FILLER_0_84_197
*6070 FILLER_0_84_209
*6071 FILLER_0_84_21
*6072 FILLER_0_84_221
*6073 FILLER_0_84_233
*6074 FILLER_0_84_245
*6075 FILLER_0_84_251
*6076 FILLER_0_84_253
*6077 FILLER_0_84_265
*6078 FILLER_0_84_27
*6079 FILLER_0_84_277
*6080 FILLER_0_84_289
*6081 FILLER_0_84_29
*6082 FILLER_0_84_301
*6083 FILLER_0_84_307
*6084 FILLER_0_84_309
*6085 FILLER_0_84_321
*6086 FILLER_0_84_333
*6087 FILLER_0_84_345
*6088 FILLER_0_84_357
*6089 FILLER_0_84_363
*6090 FILLER_0_84_365
*6091 FILLER_0_84_377
*6092 FILLER_0_84_389
*6093 FILLER_0_84_401
*6094 FILLER_0_84_41
*6095 FILLER_0_84_413
*6096 FILLER_0_84_419
*6097 FILLER_0_84_421
*6098 FILLER_0_84_433
*6099 FILLER_0_84_445
*6100 FILLER_0_84_457
*6101 FILLER_0_84_469
*6102 FILLER_0_84_475
*6103 FILLER_0_84_477
*6104 FILLER_0_84_489
*6105 FILLER_0_84_501
*6106 FILLER_0_84_513
*6107 FILLER_0_84_525
*6108 FILLER_0_84_53
*6109 FILLER_0_84_531
*6110 FILLER_0_84_533
*6111 FILLER_0_84_545
*6112 FILLER_0_84_557
*6113 FILLER_0_84_569
*6114 FILLER_0_84_581
*6115 FILLER_0_84_587
*6116 FILLER_0_84_589
*6117 FILLER_0_84_601
*6118 FILLER_0_84_613
*6119 FILLER_0_84_619
*6120 FILLER_0_84_65
*6121 FILLER_0_84_77
*6122 FILLER_0_84_83
*6123 FILLER_0_84_85
*6124 FILLER_0_84_9
*6125 FILLER_0_84_97
*6126 FILLER_0_85_105
*6127 FILLER_0_85_111
*6128 FILLER_0_85_113
*6129 FILLER_0_85_125
*6130 FILLER_0_85_137
*6131 FILLER_0_85_149
*6132 FILLER_0_85_15
*6133 FILLER_0_85_161
*6134 FILLER_0_85_167
*6135 FILLER_0_85_169
*6136 FILLER_0_85_181
*6137 FILLER_0_85_193
*6138 FILLER_0_85_205
*6139 FILLER_0_85_217
*6140 FILLER_0_85_223
*6141 FILLER_0_85_225
*6142 FILLER_0_85_237
*6143 FILLER_0_85_249
*6144 FILLER_0_85_261
*6145 FILLER_0_85_27
*6146 FILLER_0_85_273
*6147 FILLER_0_85_279
*6148 FILLER_0_85_281
*6149 FILLER_0_85_293
*6150 FILLER_0_85_3
*6151 FILLER_0_85_305
*6152 FILLER_0_85_317
*6153 FILLER_0_85_329
*6154 FILLER_0_85_335
*6155 FILLER_0_85_337
*6156 FILLER_0_85_349
*6157 FILLER_0_85_361
*6158 FILLER_0_85_373
*6159 FILLER_0_85_385
*6160 FILLER_0_85_39
*6161 FILLER_0_85_391
*6162 FILLER_0_85_393
*6163 FILLER_0_85_405
*6164 FILLER_0_85_417
*6165 FILLER_0_85_429
*6166 FILLER_0_85_441
*6167 FILLER_0_85_447
*6168 FILLER_0_85_449
*6169 FILLER_0_85_461
*6170 FILLER_0_85_473
*6171 FILLER_0_85_485
*6172 FILLER_0_85_497
*6173 FILLER_0_85_503
*6174 FILLER_0_85_505
*6175 FILLER_0_85_51
*6176 FILLER_0_85_517
*6177 FILLER_0_85_529
*6178 FILLER_0_85_541
*6179 FILLER_0_85_55
*6180 FILLER_0_85_553
*6181 FILLER_0_85_559
*6182 FILLER_0_85_561
*6183 FILLER_0_85_57
*6184 FILLER_0_85_573
*6185 FILLER_0_85_585
*6186 FILLER_0_85_597
*6187 FILLER_0_85_609
*6188 FILLER_0_85_615
*6189 FILLER_0_85_617
*6190 FILLER_0_85_69
*6191 FILLER_0_85_81
*6192 FILLER_0_85_93
*6193 FILLER_0_86_109
*6194 FILLER_0_86_121
*6195 FILLER_0_86_133
*6196 FILLER_0_86_139
*6197 FILLER_0_86_141
*6198 FILLER_0_86_153
*6199 FILLER_0_86_165
*6200 FILLER_0_86_177
*6201 FILLER_0_86_189
*6202 FILLER_0_86_195
*6203 FILLER_0_86_197
*6204 FILLER_0_86_209
*6205 FILLER_0_86_21
*6206 FILLER_0_86_221
*6207 FILLER_0_86_233
*6208 FILLER_0_86_245
*6209 FILLER_0_86_251
*6210 FILLER_0_86_253
*6211 FILLER_0_86_265
*6212 FILLER_0_86_27
*6213 FILLER_0_86_277
*6214 FILLER_0_86_289
*6215 FILLER_0_86_29
*6216 FILLER_0_86_301
*6217 FILLER_0_86_307
*6218 FILLER_0_86_309
*6219 FILLER_0_86_321
*6220 FILLER_0_86_333
*6221 FILLER_0_86_345
*6222 FILLER_0_86_357
*6223 FILLER_0_86_363
*6224 FILLER_0_86_365
*6225 FILLER_0_86_377
*6226 FILLER_0_86_389
*6227 FILLER_0_86_401
*6228 FILLER_0_86_41
*6229 FILLER_0_86_413
*6230 FILLER_0_86_419
*6231 FILLER_0_86_421
*6232 FILLER_0_86_433
*6233 FILLER_0_86_445
*6234 FILLER_0_86_457
*6235 FILLER_0_86_469
*6236 FILLER_0_86_475
*6237 FILLER_0_86_477
*6238 FILLER_0_86_489
*6239 FILLER_0_86_501
*6240 FILLER_0_86_513
*6241 FILLER_0_86_525
*6242 FILLER_0_86_53
*6243 FILLER_0_86_531
*6244 FILLER_0_86_533
*6245 FILLER_0_86_545
*6246 FILLER_0_86_557
*6247 FILLER_0_86_569
*6248 FILLER_0_86_581
*6249 FILLER_0_86_587
*6250 FILLER_0_86_589
*6251 FILLER_0_86_601
*6252 FILLER_0_86_613
*6253 FILLER_0_86_65
*6254 FILLER_0_86_77
*6255 FILLER_0_86_83
*6256 FILLER_0_86_85
*6257 FILLER_0_86_9
*6258 FILLER_0_86_97
*6259 FILLER_0_87_105
*6260 FILLER_0_87_111
*6261 FILLER_0_87_113
*6262 FILLER_0_87_125
*6263 FILLER_0_87_137
*6264 FILLER_0_87_149
*6265 FILLER_0_87_161
*6266 FILLER_0_87_167
*6267 FILLER_0_87_169
*6268 FILLER_0_87_181
*6269 FILLER_0_87_193
*6270 FILLER_0_87_205
*6271 FILLER_0_87_21
*6272 FILLER_0_87_217
*6273 FILLER_0_87_223
*6274 FILLER_0_87_225
*6275 FILLER_0_87_237
*6276 FILLER_0_87_249
*6277 FILLER_0_87_261
*6278 FILLER_0_87_273
*6279 FILLER_0_87_279
*6280 FILLER_0_87_281
*6281 FILLER_0_87_293
*6282 FILLER_0_87_305
*6283 FILLER_0_87_317
*6284 FILLER_0_87_329
*6285 FILLER_0_87_33
*6286 FILLER_0_87_335
*6287 FILLER_0_87_337
*6288 FILLER_0_87_349
*6289 FILLER_0_87_361
*6290 FILLER_0_87_373
*6291 FILLER_0_87_385
*6292 FILLER_0_87_391
*6293 FILLER_0_87_393
*6294 FILLER_0_87_405
*6295 FILLER_0_87_417
*6296 FILLER_0_87_429
*6297 FILLER_0_87_441
*6298 FILLER_0_87_447
*6299 FILLER_0_87_449
*6300 FILLER_0_87_45
*6301 FILLER_0_87_461
*6302 FILLER_0_87_473
*6303 FILLER_0_87_485
*6304 FILLER_0_87_497
*6305 FILLER_0_87_503
*6306 FILLER_0_87_505
*6307 FILLER_0_87_517
*6308 FILLER_0_87_529
*6309 FILLER_0_87_53
*6310 FILLER_0_87_541
*6311 FILLER_0_87_553
*6312 FILLER_0_87_559
*6313 FILLER_0_87_561
*6314 FILLER_0_87_57
*6315 FILLER_0_87_573
*6316 FILLER_0_87_585
*6317 FILLER_0_87_597
*6318 FILLER_0_87_609
*6319 FILLER_0_87_615
*6320 FILLER_0_87_617
*6321 FILLER_0_87_69
*6322 FILLER_0_87_81
*6323 FILLER_0_87_9
*6324 FILLER_0_87_93
*6325 FILLER_0_88_109
*6326 FILLER_0_88_121
*6327 FILLER_0_88_133
*6328 FILLER_0_88_139
*6329 FILLER_0_88_141
*6330 FILLER_0_88_15
*6331 FILLER_0_88_153
*6332 FILLER_0_88_165
*6333 FILLER_0_88_177
*6334 FILLER_0_88_189
*6335 FILLER_0_88_195
*6336 FILLER_0_88_197
*6337 FILLER_0_88_209
*6338 FILLER_0_88_221
*6339 FILLER_0_88_233
*6340 FILLER_0_88_245
*6341 FILLER_0_88_251
*6342 FILLER_0_88_253
*6343 FILLER_0_88_265
*6344 FILLER_0_88_27
*6345 FILLER_0_88_277
*6346 FILLER_0_88_289
*6347 FILLER_0_88_29
*6348 FILLER_0_88_3
*6349 FILLER_0_88_301
*6350 FILLER_0_88_307
*6351 FILLER_0_88_309
*6352 FILLER_0_88_321
*6353 FILLER_0_88_333
*6354 FILLER_0_88_345
*6355 FILLER_0_88_357
*6356 FILLER_0_88_363
*6357 FILLER_0_88_365
*6358 FILLER_0_88_377
*6359 FILLER_0_88_389
*6360 FILLER_0_88_401
*6361 FILLER_0_88_41
*6362 FILLER_0_88_413
*6363 FILLER_0_88_419
*6364 FILLER_0_88_421
*6365 FILLER_0_88_433
*6366 FILLER_0_88_445
*6367 FILLER_0_88_457
*6368 FILLER_0_88_469
*6369 FILLER_0_88_475
*6370 FILLER_0_88_477
*6371 FILLER_0_88_489
*6372 FILLER_0_88_501
*6373 FILLER_0_88_513
*6374 FILLER_0_88_525
*6375 FILLER_0_88_53
*6376 FILLER_0_88_531
*6377 FILLER_0_88_533
*6378 FILLER_0_88_545
*6379 FILLER_0_88_557
*6380 FILLER_0_88_569
*6381 FILLER_0_88_581
*6382 FILLER_0_88_587
*6383 FILLER_0_88_589
*6384 FILLER_0_88_601
*6385 FILLER_0_88_613
*6386 FILLER_0_88_65
*6387 FILLER_0_88_77
*6388 FILLER_0_88_83
*6389 FILLER_0_88_85
*6390 FILLER_0_88_97
*6391 FILLER_0_89_105
*6392 FILLER_0_89_111
*6393 FILLER_0_89_113
*6394 FILLER_0_89_125
*6395 FILLER_0_89_137
*6396 FILLER_0_89_149
*6397 FILLER_0_89_15
*6398 FILLER_0_89_161
*6399 FILLER_0_89_167
*6400 FILLER_0_89_169
*6401 FILLER_0_89_181
*6402 FILLER_0_89_193
*6403 FILLER_0_89_205
*6404 FILLER_0_89_217
*6405 FILLER_0_89_223
*6406 FILLER_0_89_225
*6407 FILLER_0_89_237
*6408 FILLER_0_89_249
*6409 FILLER_0_89_261
*6410 FILLER_0_89_27
*6411 FILLER_0_89_273
*6412 FILLER_0_89_279
*6413 FILLER_0_89_281
*6414 FILLER_0_89_293
*6415 FILLER_0_89_3
*6416 FILLER_0_89_305
*6417 FILLER_0_89_317
*6418 FILLER_0_89_329
*6419 FILLER_0_89_335
*6420 FILLER_0_89_337
*6421 FILLER_0_89_349
*6422 FILLER_0_89_361
*6423 FILLER_0_89_373
*6424 FILLER_0_89_385
*6425 FILLER_0_89_39
*6426 FILLER_0_89_391
*6427 FILLER_0_89_393
*6428 FILLER_0_89_405
*6429 FILLER_0_89_417
*6430 FILLER_0_89_429
*6431 FILLER_0_89_441
*6432 FILLER_0_89_447
*6433 FILLER_0_89_449
*6434 FILLER_0_89_461
*6435 FILLER_0_89_473
*6436 FILLER_0_89_485
*6437 FILLER_0_89_497
*6438 FILLER_0_89_503
*6439 FILLER_0_89_505
*6440 FILLER_0_89_51
*6441 FILLER_0_89_517
*6442 FILLER_0_89_529
*6443 FILLER_0_89_541
*6444 FILLER_0_89_55
*6445 FILLER_0_89_553
*6446 FILLER_0_89_559
*6447 FILLER_0_89_561
*6448 FILLER_0_89_57
*6449 FILLER_0_89_573
*6450 FILLER_0_89_585
*6451 FILLER_0_89_597
*6452 FILLER_0_89_609
*6453 FILLER_0_89_615
*6454 FILLER_0_89_617
*6455 FILLER_0_89_69
*6456 FILLER_0_89_81
*6457 FILLER_0_89_93
*6458 FILLER_0_8_109
*6459 FILLER_0_8_121
*6460 FILLER_0_8_133
*6461 FILLER_0_8_139
*6462 FILLER_0_8_141
*6463 FILLER_0_8_15
*6464 FILLER_0_8_153
*6465 FILLER_0_8_165
*6466 FILLER_0_8_177
*6467 FILLER_0_8_189
*6468 FILLER_0_8_195
*6469 FILLER_0_8_197
*6470 FILLER_0_8_209
*6471 FILLER_0_8_221
*6472 FILLER_0_8_233
*6473 FILLER_0_8_245
*6474 FILLER_0_8_251
*6475 FILLER_0_8_253
*6476 FILLER_0_8_265
*6477 FILLER_0_8_27
*6478 FILLER_0_8_277
*6479 FILLER_0_8_289
*6480 FILLER_0_8_29
*6481 FILLER_0_8_3
*6482 FILLER_0_8_301
*6483 FILLER_0_8_307
*6484 FILLER_0_8_309
*6485 FILLER_0_8_321
*6486 FILLER_0_8_333
*6487 FILLER_0_8_345
*6488 FILLER_0_8_357
*6489 FILLER_0_8_363
*6490 FILLER_0_8_365
*6491 FILLER_0_8_377
*6492 FILLER_0_8_389
*6493 FILLER_0_8_401
*6494 FILLER_0_8_41
*6495 FILLER_0_8_413
*6496 FILLER_0_8_419
*6497 FILLER_0_8_421
*6498 FILLER_0_8_433
*6499 FILLER_0_8_445
*6500 FILLER_0_8_457
*6501 FILLER_0_8_469
*6502 FILLER_0_8_475
*6503 FILLER_0_8_477
*6504 FILLER_0_8_489
*6505 FILLER_0_8_501
*6506 FILLER_0_8_513
*6507 FILLER_0_8_525
*6508 FILLER_0_8_53
*6509 FILLER_0_8_531
*6510 FILLER_0_8_533
*6511 FILLER_0_8_545
*6512 FILLER_0_8_557
*6513 FILLER_0_8_569
*6514 FILLER_0_8_581
*6515 FILLER_0_8_587
*6516 FILLER_0_8_589
*6517 FILLER_0_8_601
*6518 FILLER_0_8_613
*6519 FILLER_0_8_65
*6520 FILLER_0_8_77
*6521 FILLER_0_8_83
*6522 FILLER_0_8_85
*6523 FILLER_0_8_97
*6524 FILLER_0_90_109
*6525 FILLER_0_90_121
*6526 FILLER_0_90_133
*6527 FILLER_0_90_139
*6528 FILLER_0_90_141
*6529 FILLER_0_90_153
*6530 FILLER_0_90_165
*6531 FILLER_0_90_177
*6532 FILLER_0_90_189
*6533 FILLER_0_90_195
*6534 FILLER_0_90_197
*6535 FILLER_0_90_209
*6536 FILLER_0_90_21
*6537 FILLER_0_90_221
*6538 FILLER_0_90_233
*6539 FILLER_0_90_245
*6540 FILLER_0_90_251
*6541 FILLER_0_90_253
*6542 FILLER_0_90_265
*6543 FILLER_0_90_27
*6544 FILLER_0_90_277
*6545 FILLER_0_90_289
*6546 FILLER_0_90_29
*6547 FILLER_0_90_301
*6548 FILLER_0_90_307
*6549 FILLER_0_90_309
*6550 FILLER_0_90_321
*6551 FILLER_0_90_333
*6552 FILLER_0_90_345
*6553 FILLER_0_90_357
*6554 FILLER_0_90_363
*6555 FILLER_0_90_365
*6556 FILLER_0_90_377
*6557 FILLER_0_90_389
*6558 FILLER_0_90_401
*6559 FILLER_0_90_41
*6560 FILLER_0_90_413
*6561 FILLER_0_90_419
*6562 FILLER_0_90_421
*6563 FILLER_0_90_433
*6564 FILLER_0_90_445
*6565 FILLER_0_90_457
*6566 FILLER_0_90_469
*6567 FILLER_0_90_475
*6568 FILLER_0_90_477
*6569 FILLER_0_90_489
*6570 FILLER_0_90_501
*6571 FILLER_0_90_513
*6572 FILLER_0_90_525
*6573 FILLER_0_90_53
*6574 FILLER_0_90_531
*6575 FILLER_0_90_533
*6576 FILLER_0_90_545
*6577 FILLER_0_90_557
*6578 FILLER_0_90_569
*6579 FILLER_0_90_581
*6580 FILLER_0_90_587
*6581 FILLER_0_90_589
*6582 FILLER_0_90_601
*6583 FILLER_0_90_613
*6584 FILLER_0_90_65
*6585 FILLER_0_90_77
*6586 FILLER_0_90_83
*6587 FILLER_0_90_85
*6588 FILLER_0_90_9
*6589 FILLER_0_90_97
*6590 FILLER_0_91_105
*6591 FILLER_0_91_111
*6592 FILLER_0_91_113
*6593 FILLER_0_91_125
*6594 FILLER_0_91_137
*6595 FILLER_0_91_149
*6596 FILLER_0_91_15
*6597 FILLER_0_91_161
*6598 FILLER_0_91_167
*6599 FILLER_0_91_169
*6600 FILLER_0_91_181
*6601 FILLER_0_91_193
*6602 FILLER_0_91_205
*6603 FILLER_0_91_217
*6604 FILLER_0_91_223
*6605 FILLER_0_91_225
*6606 FILLER_0_91_237
*6607 FILLER_0_91_249
*6608 FILLER_0_91_261
*6609 FILLER_0_91_27
*6610 FILLER_0_91_273
*6611 FILLER_0_91_279
*6612 FILLER_0_91_281
*6613 FILLER_0_91_293
*6614 FILLER_0_91_3
*6615 FILLER_0_91_305
*6616 FILLER_0_91_317
*6617 FILLER_0_91_329
*6618 FILLER_0_91_335
*6619 FILLER_0_91_337
*6620 FILLER_0_91_349
*6621 FILLER_0_91_361
*6622 FILLER_0_91_373
*6623 FILLER_0_91_385
*6624 FILLER_0_91_39
*6625 FILLER_0_91_391
*6626 FILLER_0_91_393
*6627 FILLER_0_91_405
*6628 FILLER_0_91_417
*6629 FILLER_0_91_429
*6630 FILLER_0_91_441
*6631 FILLER_0_91_447
*6632 FILLER_0_91_449
*6633 FILLER_0_91_461
*6634 FILLER_0_91_473
*6635 FILLER_0_91_485
*6636 FILLER_0_91_497
*6637 FILLER_0_91_503
*6638 FILLER_0_91_505
*6639 FILLER_0_91_51
*6640 FILLER_0_91_517
*6641 FILLER_0_91_529
*6642 FILLER_0_91_541
*6643 FILLER_0_91_55
*6644 FILLER_0_91_553
*6645 FILLER_0_91_559
*6646 FILLER_0_91_561
*6647 FILLER_0_91_57
*6648 FILLER_0_91_573
*6649 FILLER_0_91_585
*6650 FILLER_0_91_597
*6651 FILLER_0_91_609
*6652 FILLER_0_91_615
*6653 FILLER_0_91_617
*6654 FILLER_0_91_69
*6655 FILLER_0_91_81
*6656 FILLER_0_91_93
*6657 FILLER_0_92_109
*6658 FILLER_0_92_121
*6659 FILLER_0_92_133
*6660 FILLER_0_92_139
*6661 FILLER_0_92_141
*6662 FILLER_0_92_153
*6663 FILLER_0_92_165
*6664 FILLER_0_92_177
*6665 FILLER_0_92_189
*6666 FILLER_0_92_195
*6667 FILLER_0_92_197
*6668 FILLER_0_92_209
*6669 FILLER_0_92_21
*6670 FILLER_0_92_221
*6671 FILLER_0_92_233
*6672 FILLER_0_92_245
*6673 FILLER_0_92_251
*6674 FILLER_0_92_253
*6675 FILLER_0_92_265
*6676 FILLER_0_92_27
*6677 FILLER_0_92_277
*6678 FILLER_0_92_289
*6679 FILLER_0_92_29
*6680 FILLER_0_92_301
*6681 FILLER_0_92_307
*6682 FILLER_0_92_309
*6683 FILLER_0_92_321
*6684 FILLER_0_92_333
*6685 FILLER_0_92_345
*6686 FILLER_0_92_357
*6687 FILLER_0_92_363
*6688 FILLER_0_92_365
*6689 FILLER_0_92_377
*6690 FILLER_0_92_389
*6691 FILLER_0_92_401
*6692 FILLER_0_92_41
*6693 FILLER_0_92_413
*6694 FILLER_0_92_419
*6695 FILLER_0_92_421
*6696 FILLER_0_92_433
*6697 FILLER_0_92_445
*6698 FILLER_0_92_457
*6699 FILLER_0_92_469
*6700 FILLER_0_92_475
*6701 FILLER_0_92_477
*6702 FILLER_0_92_489
*6703 FILLER_0_92_501
*6704 FILLER_0_92_513
*6705 FILLER_0_92_525
*6706 FILLER_0_92_53
*6707 FILLER_0_92_531
*6708 FILLER_0_92_533
*6709 FILLER_0_92_545
*6710 FILLER_0_92_557
*6711 FILLER_0_92_569
*6712 FILLER_0_92_581
*6713 FILLER_0_92_587
*6714 FILLER_0_92_589
*6715 FILLER_0_92_601
*6716 FILLER_0_92_613
*6717 FILLER_0_92_65
*6718 FILLER_0_92_77
*6719 FILLER_0_92_83
*6720 FILLER_0_92_85
*6721 FILLER_0_92_9
*6722 FILLER_0_92_97
*6723 FILLER_0_93_105
*6724 FILLER_0_93_111
*6725 FILLER_0_93_113
*6726 FILLER_0_93_125
*6727 FILLER_0_93_137
*6728 FILLER_0_93_149
*6729 FILLER_0_93_15
*6730 FILLER_0_93_161
*6731 FILLER_0_93_167
*6732 FILLER_0_93_169
*6733 FILLER_0_93_181
*6734 FILLER_0_93_193
*6735 FILLER_0_93_205
*6736 FILLER_0_93_217
*6737 FILLER_0_93_223
*6738 FILLER_0_93_225
*6739 FILLER_0_93_237
*6740 FILLER_0_93_249
*6741 FILLER_0_93_261
*6742 FILLER_0_93_27
*6743 FILLER_0_93_273
*6744 FILLER_0_93_279
*6745 FILLER_0_93_281
*6746 FILLER_0_93_293
*6747 FILLER_0_93_3
*6748 FILLER_0_93_305
*6749 FILLER_0_93_317
*6750 FILLER_0_93_329
*6751 FILLER_0_93_335
*6752 FILLER_0_93_337
*6753 FILLER_0_93_349
*6754 FILLER_0_93_361
*6755 FILLER_0_93_373
*6756 FILLER_0_93_385
*6757 FILLER_0_93_39
*6758 FILLER_0_93_391
*6759 FILLER_0_93_393
*6760 FILLER_0_93_405
*6761 FILLER_0_93_417
*6762 FILLER_0_93_429
*6763 FILLER_0_93_441
*6764 FILLER_0_93_447
*6765 FILLER_0_93_449
*6766 FILLER_0_93_461
*6767 FILLER_0_93_473
*6768 FILLER_0_93_485
*6769 FILLER_0_93_497
*6770 FILLER_0_93_503
*6771 FILLER_0_93_505
*6772 FILLER_0_93_51
*6773 FILLER_0_93_517
*6774 FILLER_0_93_529
*6775 FILLER_0_93_541
*6776 FILLER_0_93_55
*6777 FILLER_0_93_553
*6778 FILLER_0_93_559
*6779 FILLER_0_93_561
*6780 FILLER_0_93_57
*6781 FILLER_0_93_573
*6782 FILLER_0_93_585
*6783 FILLER_0_93_597
*6784 FILLER_0_93_609
*6785 FILLER_0_93_615
*6786 FILLER_0_93_617
*6787 FILLER_0_93_69
*6788 FILLER_0_93_81
*6789 FILLER_0_93_93
*6790 FILLER_0_94_109
*6791 FILLER_0_94_121
*6792 FILLER_0_94_133
*6793 FILLER_0_94_139
*6794 FILLER_0_94_141
*6795 FILLER_0_94_15
*6796 FILLER_0_94_153
*6797 FILLER_0_94_165
*6798 FILLER_0_94_177
*6799 FILLER_0_94_189
*6800 FILLER_0_94_195
*6801 FILLER_0_94_197
*6802 FILLER_0_94_209
*6803 FILLER_0_94_221
*6804 FILLER_0_94_233
*6805 FILLER_0_94_245
*6806 FILLER_0_94_251
*6807 FILLER_0_94_253
*6808 FILLER_0_94_265
*6809 FILLER_0_94_27
*6810 FILLER_0_94_277
*6811 FILLER_0_94_289
*6812 FILLER_0_94_29
*6813 FILLER_0_94_3
*6814 FILLER_0_94_301
*6815 FILLER_0_94_307
*6816 FILLER_0_94_309
*6817 FILLER_0_94_321
*6818 FILLER_0_94_333
*6819 FILLER_0_94_345
*6820 FILLER_0_94_357
*6821 FILLER_0_94_363
*6822 FILLER_0_94_365
*6823 FILLER_0_94_377
*6824 FILLER_0_94_389
*6825 FILLER_0_94_401
*6826 FILLER_0_94_41
*6827 FILLER_0_94_413
*6828 FILLER_0_94_419
*6829 FILLER_0_94_421
*6830 FILLER_0_94_433
*6831 FILLER_0_94_445
*6832 FILLER_0_94_457
*6833 FILLER_0_94_469
*6834 FILLER_0_94_475
*6835 FILLER_0_94_477
*6836 FILLER_0_94_489
*6837 FILLER_0_94_501
*6838 FILLER_0_94_513
*6839 FILLER_0_94_525
*6840 FILLER_0_94_53
*6841 FILLER_0_94_531
*6842 FILLER_0_94_533
*6843 FILLER_0_94_545
*6844 FILLER_0_94_557
*6845 FILLER_0_94_569
*6846 FILLER_0_94_581
*6847 FILLER_0_94_587
*6848 FILLER_0_94_589
*6849 FILLER_0_94_601
*6850 FILLER_0_94_613
*6851 FILLER_0_94_65
*6852 FILLER_0_94_77
*6853 FILLER_0_94_83
*6854 FILLER_0_94_85
*6855 FILLER_0_94_97
*6856 FILLER_0_95_105
*6857 FILLER_0_95_111
*6858 FILLER_0_95_113
*6859 FILLER_0_95_125
*6860 FILLER_0_95_137
*6861 FILLER_0_95_149
*6862 FILLER_0_95_161
*6863 FILLER_0_95_167
*6864 FILLER_0_95_169
*6865 FILLER_0_95_18
*6866 FILLER_0_95_181
*6867 FILLER_0_95_193
*6868 FILLER_0_95_205
*6869 FILLER_0_95_217
*6870 FILLER_0_95_223
*6871 FILLER_0_95_225
*6872 FILLER_0_95_237
*6873 FILLER_0_95_249
*6874 FILLER_0_95_261
*6875 FILLER_0_95_273
*6876 FILLER_0_95_279
*6877 FILLER_0_95_281
*6878 FILLER_0_95_293
*6879 FILLER_0_95_30
*6880 FILLER_0_95_305
*6881 FILLER_0_95_317
*6882 FILLER_0_95_329
*6883 FILLER_0_95_335
*6884 FILLER_0_95_337
*6885 FILLER_0_95_349
*6886 FILLER_0_95_361
*6887 FILLER_0_95_373
*6888 FILLER_0_95_385
*6889 FILLER_0_95_391
*6890 FILLER_0_95_393
*6891 FILLER_0_95_405
*6892 FILLER_0_95_417
*6893 FILLER_0_95_42
*6894 FILLER_0_95_429
*6895 FILLER_0_95_441
*6896 FILLER_0_95_447
*6897 FILLER_0_95_449
*6898 FILLER_0_95_461
*6899 FILLER_0_95_473
*6900 FILLER_0_95_485
*6901 FILLER_0_95_497
*6902 FILLER_0_95_503
*6903 FILLER_0_95_505
*6904 FILLER_0_95_517
*6905 FILLER_0_95_529
*6906 FILLER_0_95_54
*6907 FILLER_0_95_541
*6908 FILLER_0_95_553
*6909 FILLER_0_95_559
*6910 FILLER_0_95_561
*6911 FILLER_0_95_57
*6912 FILLER_0_95_573
*6913 FILLER_0_95_585
*6914 FILLER_0_95_597
*6915 FILLER_0_95_6
*6916 FILLER_0_95_609
*6917 FILLER_0_95_615
*6918 FILLER_0_95_617
*6919 FILLER_0_95_69
*6920 FILLER_0_95_81
*6921 FILLER_0_95_93
*6922 FILLER_0_96_109
*6923 FILLER_0_96_115
*6924 FILLER_0_96_125
*6925 FILLER_0_96_137
*6926 FILLER_0_96_141
*6927 FILLER_0_96_15
*6928 FILLER_0_96_153
*6929 FILLER_0_96_165
*6930 FILLER_0_96_177
*6931 FILLER_0_96_189
*6932 FILLER_0_96_195
*6933 FILLER_0_96_197
*6934 FILLER_0_96_209
*6935 FILLER_0_96_221
*6936 FILLER_0_96_233
*6937 FILLER_0_96_245
*6938 FILLER_0_96_251
*6939 FILLER_0_96_253
*6940 FILLER_0_96_265
*6941 FILLER_0_96_27
*6942 FILLER_0_96_277
*6943 FILLER_0_96_289
*6944 FILLER_0_96_29
*6945 FILLER_0_96_3
*6946 FILLER_0_96_301
*6947 FILLER_0_96_307
*6948 FILLER_0_96_309
*6949 FILLER_0_96_321
*6950 FILLER_0_96_333
*6951 FILLER_0_96_345
*6952 FILLER_0_96_357
*6953 FILLER_0_96_363
*6954 FILLER_0_96_365
*6955 FILLER_0_96_391
*6956 FILLER_0_96_403
*6957 FILLER_0_96_41
*6958 FILLER_0_96_415
*6959 FILLER_0_96_419
*6960 FILLER_0_96_421
*6961 FILLER_0_96_433
*6962 FILLER_0_96_445
*6963 FILLER_0_96_457
*6964 FILLER_0_96_469
*6965 FILLER_0_96_475
*6966 FILLER_0_96_477
*6967 FILLER_0_96_489
*6968 FILLER_0_96_501
*6969 FILLER_0_96_513
*6970 FILLER_0_96_525
*6971 FILLER_0_96_53
*6972 FILLER_0_96_531
*6973 FILLER_0_96_533
*6974 FILLER_0_96_545
*6975 FILLER_0_96_557
*6976 FILLER_0_96_569
*6977 FILLER_0_96_581
*6978 FILLER_0_96_587
*6979 FILLER_0_96_589
*6980 FILLER_0_96_601
*6981 FILLER_0_96_613
*6982 FILLER_0_96_65
*6983 FILLER_0_96_77
*6984 FILLER_0_96_83
*6985 FILLER_0_96_85
*6986 FILLER_0_96_97
*6987 FILLER_0_97_105
*6988 FILLER_0_97_141
*6989 FILLER_0_97_153
*6990 FILLER_0_97_165
*6991 FILLER_0_97_169
*6992 FILLER_0_97_181
*6993 FILLER_0_97_193
*6994 FILLER_0_97_205
*6995 FILLER_0_97_21
*6996 FILLER_0_97_217
*6997 FILLER_0_97_223
*6998 FILLER_0_97_225
*6999 FILLER_0_97_237
*7000 FILLER_0_97_249
*7001 FILLER_0_97_261
*7002 FILLER_0_97_273
*7003 FILLER_0_97_279
*7004 FILLER_0_97_281
*7005 FILLER_0_97_293
*7006 FILLER_0_97_305
*7007 FILLER_0_97_317
*7008 FILLER_0_97_329
*7009 FILLER_0_97_33
*7010 FILLER_0_97_335
*7011 FILLER_0_97_337
*7012 FILLER_0_97_349
*7013 FILLER_0_97_361
*7014 FILLER_0_97_367
*7015 FILLER_0_97_388
*7016 FILLER_0_97_393
*7017 FILLER_0_97_405
*7018 FILLER_0_97_417
*7019 FILLER_0_97_429
*7020 FILLER_0_97_441
*7021 FILLER_0_97_447
*7022 FILLER_0_97_449
*7023 FILLER_0_97_45
*7024 FILLER_0_97_461
*7025 FILLER_0_97_473
*7026 FILLER_0_97_485
*7027 FILLER_0_97_497
*7028 FILLER_0_97_503
*7029 FILLER_0_97_505
*7030 FILLER_0_97_517
*7031 FILLER_0_97_529
*7032 FILLER_0_97_53
*7033 FILLER_0_97_541
*7034 FILLER_0_97_553
*7035 FILLER_0_97_559
*7036 FILLER_0_97_561
*7037 FILLER_0_97_57
*7038 FILLER_0_97_573
*7039 FILLER_0_97_585
*7040 FILLER_0_97_597
*7041 FILLER_0_97_609
*7042 FILLER_0_97_615
*7043 FILLER_0_97_617
*7044 FILLER_0_97_69
*7045 FILLER_0_97_81
*7046 FILLER_0_97_9
*7047 FILLER_0_97_93
*7048 FILLER_0_98_109
*7049 FILLER_0_98_121
*7050 FILLER_0_98_133
*7051 FILLER_0_98_139
*7052 FILLER_0_98_141
*7053 FILLER_0_98_15
*7054 FILLER_0_98_153
*7055 FILLER_0_98_165
*7056 FILLER_0_98_177
*7057 FILLER_0_98_189
*7058 FILLER_0_98_195
*7059 FILLER_0_98_197
*7060 FILLER_0_98_209
*7061 FILLER_0_98_221
*7062 FILLER_0_98_233
*7063 FILLER_0_98_245
*7064 FILLER_0_98_251
*7065 FILLER_0_98_253
*7066 FILLER_0_98_265
*7067 FILLER_0_98_27
*7068 FILLER_0_98_29
*7069 FILLER_0_98_293
*7070 FILLER_0_98_3
*7071 FILLER_0_98_301
*7072 FILLER_0_98_307
*7073 FILLER_0_98_312
*7074 FILLER_0_98_331
*7075 FILLER_0_98_343
*7076 FILLER_0_98_355
*7077 FILLER_0_98_363
*7078 FILLER_0_98_365
*7079 FILLER_0_98_377
*7080 FILLER_0_98_403
*7081 FILLER_0_98_41
*7082 FILLER_0_98_415
*7083 FILLER_0_98_419
*7084 FILLER_0_98_421
*7085 FILLER_0_98_433
*7086 FILLER_0_98_437
*7087 FILLER_0_98_458
*7088 FILLER_0_98_470
*7089 FILLER_0_98_477
*7090 FILLER_0_98_489
*7091 FILLER_0_98_513
*7092 FILLER_0_98_525
*7093 FILLER_0_98_53
*7094 FILLER_0_98_531
*7095 FILLER_0_98_533
*7096 FILLER_0_98_545
*7097 FILLER_0_98_557
*7098 FILLER_0_98_569
*7099 FILLER_0_98_581
*7100 FILLER_0_98_587
*7101 FILLER_0_98_589
*7102 FILLER_0_98_601
*7103 FILLER_0_98_613
*7104 FILLER_0_98_65
*7105 FILLER_0_98_77
*7106 FILLER_0_98_83
*7107 FILLER_0_98_85
*7108 FILLER_0_98_97
*7109 FILLER_0_99_105
*7110 FILLER_0_99_149
*7111 FILLER_0_99_161
*7112 FILLER_0_99_167
*7113 FILLER_0_99_169
*7114 FILLER_0_99_181
*7115 FILLER_0_99_193
*7116 FILLER_0_99_205
*7117 FILLER_0_99_21
*7118 FILLER_0_99_217
*7119 FILLER_0_99_223
*7120 FILLER_0_99_225
*7121 FILLER_0_99_237
*7122 FILLER_0_99_249
*7123 FILLER_0_99_261
*7124 FILLER_0_99_273
*7125 FILLER_0_99_278
*7126 FILLER_0_99_290
*7127 FILLER_0_99_33
*7128 FILLER_0_99_333
*7129 FILLER_0_99_337
*7130 FILLER_0_99_349
*7131 FILLER_0_99_361
*7132 FILLER_0_99_373
*7133 FILLER_0_99_388
*7134 FILLER_0_99_410
*7135 FILLER_0_99_422
*7136 FILLER_0_99_434
*7137 FILLER_0_99_442
*7138 FILLER_0_99_447
*7139 FILLER_0_99_45
*7140 FILLER_0_99_466
*7141 FILLER_0_99_478
*7142 FILLER_0_99_490
*7143 FILLER_0_99_503
*7144 FILLER_0_99_505
*7145 FILLER_0_99_517
*7146 FILLER_0_99_529
*7147 FILLER_0_99_53
*7148 FILLER_0_99_541
*7149 FILLER_0_99_553
*7150 FILLER_0_99_559
*7151 FILLER_0_99_561
*7152 FILLER_0_99_57
*7153 FILLER_0_99_573
*7154 FILLER_0_99_578
*7155 FILLER_0_99_590
*7156 FILLER_0_99_602
*7157 FILLER_0_99_614
*7158 FILLER_0_99_617
*7159 FILLER_0_99_621
*7160 FILLER_0_99_69
*7161 FILLER_0_99_81
*7162 FILLER_0_99_9
*7163 FILLER_0_99_93
*7164 FILLER_0_9_105
*7165 FILLER_0_9_111
*7166 FILLER_0_9_113
*7167 FILLER_0_9_125
*7168 FILLER_0_9_137
*7169 FILLER_0_9_149
*7170 FILLER_0_9_161
*7171 FILLER_0_9_167
*7172 FILLER_0_9_169
*7173 FILLER_0_9_18
*7174 FILLER_0_9_181
*7175 FILLER_0_9_193
*7176 FILLER_0_9_205
*7177 FILLER_0_9_217
*7178 FILLER_0_9_223
*7179 FILLER_0_9_225
*7180 FILLER_0_9_237
*7181 FILLER_0_9_249
*7182 FILLER_0_9_261
*7183 FILLER_0_9_273
*7184 FILLER_0_9_279
*7185 FILLER_0_9_281
*7186 FILLER_0_9_293
*7187 FILLER_0_9_30
*7188 FILLER_0_9_305
*7189 FILLER_0_9_317
*7190 FILLER_0_9_329
*7191 FILLER_0_9_335
*7192 FILLER_0_9_337
*7193 FILLER_0_9_349
*7194 FILLER_0_9_361
*7195 FILLER_0_9_373
*7196 FILLER_0_9_385
*7197 FILLER_0_9_391
*7198 FILLER_0_9_393
*7199 FILLER_0_9_405
*7200 FILLER_0_9_417
*7201 FILLER_0_9_42
*7202 FILLER_0_9_429
*7203 FILLER_0_9_441
*7204 FILLER_0_9_447
*7205 FILLER_0_9_449
*7206 FILLER_0_9_461
*7207 FILLER_0_9_473
*7208 FILLER_0_9_485
*7209 FILLER_0_9_497
*7210 FILLER_0_9_503
*7211 FILLER_0_9_505
*7212 FILLER_0_9_517
*7213 FILLER_0_9_529
*7214 FILLER_0_9_54
*7215 FILLER_0_9_541
*7216 FILLER_0_9_553
*7217 FILLER_0_9_559
*7218 FILLER_0_9_561
*7219 FILLER_0_9_57
*7220 FILLER_0_9_573
*7221 FILLER_0_9_585
*7222 FILLER_0_9_597
*7223 FILLER_0_9_6
*7224 FILLER_0_9_609
*7225 FILLER_0_9_615
*7226 FILLER_0_9_617
*7227 FILLER_0_9_69
*7228 FILLER_0_9_81
*7229 FILLER_0_9_93
*7230 PHY_0
*7231 PHY_1
*7232 PHY_10
*7233 PHY_100
*7234 PHY_101
*7235 PHY_102
*7236 PHY_103
*7237 PHY_104
*7238 PHY_105
*7239 PHY_106
*7240 PHY_107
*7241 PHY_108
*7242 PHY_109
*7243 PHY_11
*7244 PHY_110
*7245 PHY_111
*7246 PHY_112
*7247 PHY_113
*7248 PHY_114
*7249 PHY_115
*7250 PHY_116
*7251 PHY_117
*7252 PHY_118
*7253 PHY_119
*7254 PHY_12
*7255 PHY_120
*7256 PHY_121
*7257 PHY_122
*7258 PHY_123
*7259 PHY_124
*7260 PHY_125
*7261 PHY_126
*7262 PHY_127
*7263 PHY_128
*7264 PHY_129
*7265 PHY_13
*7266 PHY_130
*7267 PHY_131
*7268 PHY_132
*7269 PHY_133
*7270 PHY_134
*7271 PHY_135
*7272 PHY_136
*7273 PHY_137
*7274 PHY_138
*7275 PHY_139
*7276 PHY_14
*7277 PHY_140
*7278 PHY_141
*7279 PHY_142
*7280 PHY_143
*7281 PHY_144
*7282 PHY_145
*7283 PHY_146
*7284 PHY_147
*7285 PHY_148
*7286 PHY_149
*7287 PHY_15
*7288 PHY_150
*7289 PHY_151
*7290 PHY_152
*7291 PHY_153
*7292 PHY_154
*7293 PHY_155
*7294 PHY_156
*7295 PHY_157
*7296 PHY_158
*7297 PHY_159
*7298 PHY_16
*7299 PHY_160
*7300 PHY_161
*7301 PHY_162
*7302 PHY_163
*7303 PHY_164
*7304 PHY_165
*7305 PHY_166
*7306 PHY_167
*7307 PHY_168
*7308 PHY_169
*7309 PHY_17
*7310 PHY_170
*7311 PHY_171
*7312 PHY_172
*7313 PHY_173
*7314 PHY_174
*7315 PHY_175
*7316 PHY_176
*7317 PHY_177
*7318 PHY_178
*7319 PHY_179
*7320 PHY_18
*7321 PHY_180
*7322 PHY_181
*7323 PHY_182
*7324 PHY_183
*7325 PHY_184
*7326 PHY_185
*7327 PHY_186
*7328 PHY_187
*7329 PHY_188
*7330 PHY_189
*7331 PHY_19
*7332 PHY_190
*7333 PHY_191
*7334 PHY_192
*7335 PHY_193
*7336 PHY_194
*7337 PHY_195
*7338 PHY_196
*7339 PHY_197
*7340 PHY_198
*7341 PHY_199
*7342 PHY_2
*7343 PHY_20
*7344 PHY_200
*7345 PHY_201
*7346 PHY_202
*7347 PHY_203
*7348 PHY_21
*7349 PHY_22
*7350 PHY_23
*7351 PHY_24
*7352 PHY_25
*7353 PHY_26
*7354 PHY_27
*7355 PHY_28
*7356 PHY_29
*7357 PHY_3
*7358 PHY_30
*7359 PHY_31
*7360 PHY_32
*7361 PHY_33
*7362 PHY_34
*7363 PHY_35
*7364 PHY_36
*7365 PHY_37
*7366 PHY_38
*7367 PHY_39
*7368 PHY_4
*7369 PHY_40
*7370 PHY_41
*7371 PHY_42
*7372 PHY_43
*7373 PHY_44
*7374 PHY_45
*7375 PHY_46
*7376 PHY_47
*7377 PHY_48
*7378 PHY_49
*7379 PHY_5
*7380 PHY_50
*7381 PHY_51
*7382 PHY_52
*7383 PHY_53
*7384 PHY_54
*7385 PHY_55
*7386 PHY_56
*7387 PHY_57
*7388 PHY_58
*7389 PHY_59
*7390 PHY_6
*7391 PHY_60
*7392 PHY_61
*7393 PHY_62
*7394 PHY_63
*7395 PHY_64
*7396 PHY_65
*7397 PHY_66
*7398 PHY_67
*7399 PHY_68
*7400 PHY_69
*7401 PHY_7
*7402 PHY_70
*7403 PHY_71
*7404 PHY_72
*7405 PHY_73
*7406 PHY_74
*7407 PHY_75
*7408 PHY_76
*7409 PHY_77
*7410 PHY_78
*7411 PHY_79
*7412 PHY_8
*7413 PHY_80
*7414 PHY_81
*7415 PHY_82
*7416 PHY_83
*7417 PHY_84
*7418 PHY_85
*7419 PHY_86
*7420 PHY_87
*7421 PHY_88
*7422 PHY_89
*7423 PHY_9
*7424 PHY_90
*7425 PHY_91
*7426 PHY_92
*7427 PHY_93
*7428 PHY_94
*7429 PHY_95
*7430 PHY_96
*7431 PHY_97
*7432 PHY_98
*7433 PHY_99
*7434 TAP_1000
*7435 TAP_1001
*7436 TAP_1002
*7437 TAP_1003
*7438 TAP_1004
*7439 TAP_1005
*7440 TAP_1006
*7441 TAP_1007
*7442 TAP_1008
*7443 TAP_1009
*7444 TAP_1010
*7445 TAP_1011
*7446 TAP_1012
*7447 TAP_1013
*7448 TAP_1014
*7449 TAP_1015
*7450 TAP_1016
*7451 TAP_1017
*7452 TAP_1018
*7453 TAP_1019
*7454 TAP_1020
*7455 TAP_1021
*7456 TAP_1022
*7457 TAP_1023
*7458 TAP_1024
*7459 TAP_1025
*7460 TAP_1026
*7461 TAP_1027
*7462 TAP_1028
*7463 TAP_1029
*7464 TAP_1030
*7465 TAP_1031
*7466 TAP_1032
*7467 TAP_1033
*7468 TAP_1034
*7469 TAP_1035
*7470 TAP_1036
*7471 TAP_1037
*7472 TAP_1038
*7473 TAP_1039
*7474 TAP_1040
*7475 TAP_1041
*7476 TAP_1042
*7477 TAP_1043
*7478 TAP_1044
*7479 TAP_1045
*7480 TAP_1046
*7481 TAP_1047
*7482 TAP_1048
*7483 TAP_1049
*7484 TAP_1050
*7485 TAP_1051
*7486 TAP_1052
*7487 TAP_1053
*7488 TAP_1054
*7489 TAP_1055
*7490 TAP_1056
*7491 TAP_1057
*7492 TAP_1058
*7493 TAP_1059
*7494 TAP_1060
*7495 TAP_1061
*7496 TAP_1062
*7497 TAP_1063
*7498 TAP_1064
*7499 TAP_1065
*7500 TAP_1066
*7501 TAP_1067
*7502 TAP_1068
*7503 TAP_1069
*7504 TAP_1070
*7505 TAP_1071
*7506 TAP_1072
*7507 TAP_1073
*7508 TAP_1074
*7509 TAP_1075
*7510 TAP_1076
*7511 TAP_1077
*7512 TAP_1078
*7513 TAP_1079
*7514 TAP_1080
*7515 TAP_1081
*7516 TAP_1082
*7517 TAP_1083
*7518 TAP_1084
*7519 TAP_1085
*7520 TAP_1086
*7521 TAP_1087
*7522 TAP_1088
*7523 TAP_1089
*7524 TAP_1090
*7525 TAP_1091
*7526 TAP_1092
*7527 TAP_1093
*7528 TAP_1094
*7529 TAP_1095
*7530 TAP_1096
*7531 TAP_1097
*7532 TAP_1098
*7533 TAP_1099
*7534 TAP_1100
*7535 TAP_1101
*7536 TAP_1102
*7537 TAP_1103
*7538 TAP_1104
*7539 TAP_1105
*7540 TAP_1106
*7541 TAP_1107
*7542 TAP_1108
*7543 TAP_1109
*7544 TAP_1110
*7545 TAP_1111
*7546 TAP_1112
*7547 TAP_1113
*7548 TAP_1114
*7549 TAP_1115
*7550 TAP_1116
*7551 TAP_1117
*7552 TAP_1118
*7553 TAP_1119
*7554 TAP_1120
*7555 TAP_1121
*7556 TAP_1122
*7557 TAP_1123
*7558 TAP_1124
*7559 TAP_1125
*7560 TAP_1126
*7561 TAP_1127
*7562 TAP_1128
*7563 TAP_1129
*7564 TAP_1130
*7565 TAP_1131
*7566 TAP_1132
*7567 TAP_1133
*7568 TAP_1134
*7569 TAP_1135
*7570 TAP_1136
*7571 TAP_1137
*7572 TAP_1138
*7573 TAP_1139
*7574 TAP_1140
*7575 TAP_1141
*7576 TAP_1142
*7577 TAP_1143
*7578 TAP_1144
*7579 TAP_1145
*7580 TAP_1146
*7581 TAP_1147
*7582 TAP_1148
*7583 TAP_1149
*7584 TAP_1150
*7585 TAP_1151
*7586 TAP_1152
*7587 TAP_1153
*7588 TAP_1154
*7589 TAP_1155
*7590 TAP_1156
*7591 TAP_1157
*7592 TAP_1158
*7593 TAP_1159
*7594 TAP_1160
*7595 TAP_1161
*7596 TAP_1162
*7597 TAP_1163
*7598 TAP_1164
*7599 TAP_1165
*7600 TAP_1166
*7601 TAP_1167
*7602 TAP_1168
*7603 TAP_1169
*7604 TAP_1170
*7605 TAP_1171
*7606 TAP_1172
*7607 TAP_1173
*7608 TAP_1174
*7609 TAP_1175
*7610 TAP_1176
*7611 TAP_1177
*7612 TAP_1178
*7613 TAP_1179
*7614 TAP_1180
*7615 TAP_1181
*7616 TAP_1182
*7617 TAP_1183
*7618 TAP_1184
*7619 TAP_1185
*7620 TAP_1186
*7621 TAP_1187
*7622 TAP_1188
*7623 TAP_1189
*7624 TAP_1190
*7625 TAP_1191
*7626 TAP_1192
*7627 TAP_1193
*7628 TAP_1194
*7629 TAP_1195
*7630 TAP_1196
*7631 TAP_1197
*7632 TAP_1198
*7633 TAP_1199
*7634 TAP_1200
*7635 TAP_1201
*7636 TAP_1202
*7637 TAP_1203
*7638 TAP_1204
*7639 TAP_1205
*7640 TAP_1206
*7641 TAP_1207
*7642 TAP_1208
*7643 TAP_1209
*7644 TAP_1210
*7645 TAP_1211
*7646 TAP_1212
*7647 TAP_1213
*7648 TAP_1214
*7649 TAP_1215
*7650 TAP_1216
*7651 TAP_1217
*7652 TAP_1218
*7653 TAP_1219
*7654 TAP_1220
*7655 TAP_1221
*7656 TAP_1222
*7657 TAP_1223
*7658 TAP_1224
*7659 TAP_1225
*7660 TAP_1226
*7661 TAP_1227
*7662 TAP_1228
*7663 TAP_1229
*7664 TAP_1230
*7665 TAP_1231
*7666 TAP_1232
*7667 TAP_1233
*7668 TAP_1234
*7669 TAP_1235
*7670 TAP_1236
*7671 TAP_1237
*7672 TAP_1238
*7673 TAP_1239
*7674 TAP_1240
*7675 TAP_1241
*7676 TAP_1242
*7677 TAP_1243
*7678 TAP_1244
*7679 TAP_1245
*7680 TAP_1246
*7681 TAP_1247
*7682 TAP_1248
*7683 TAP_1249
*7684 TAP_1250
*7685 TAP_1251
*7686 TAP_1252
*7687 TAP_1253
*7688 TAP_1254
*7689 TAP_1255
*7690 TAP_1256
*7691 TAP_1257
*7692 TAP_1258
*7693 TAP_1259
*7694 TAP_1260
*7695 TAP_1261
*7696 TAP_1262
*7697 TAP_1263
*7698 TAP_1264
*7699 TAP_1265
*7700 TAP_1266
*7701 TAP_1267
*7702 TAP_1268
*7703 TAP_1269
*7704 TAP_1270
*7705 TAP_1271
*7706 TAP_1272
*7707 TAP_1273
*7708 TAP_1274
*7709 TAP_1275
*7710 TAP_1276
*7711 TAP_1277
*7712 TAP_1278
*7713 TAP_1279
*7714 TAP_1280
*7715 TAP_1281
*7716 TAP_1282
*7717 TAP_1283
*7718 TAP_1284
*7719 TAP_1285
*7720 TAP_1286
*7721 TAP_1287
*7722 TAP_1288
*7723 TAP_1289
*7724 TAP_1290
*7725 TAP_1291
*7726 TAP_1292
*7727 TAP_1293
*7728 TAP_1294
*7729 TAP_1295
*7730 TAP_1296
*7731 TAP_1297
*7732 TAP_1298
*7733 TAP_1299
*7734 TAP_1300
*7735 TAP_1301
*7736 TAP_1302
*7737 TAP_1303
*7738 TAP_1304
*7739 TAP_1305
*7740 TAP_1306
*7741 TAP_1307
*7742 TAP_1308
*7743 TAP_1309
*7744 TAP_1310
*7745 TAP_1311
*7746 TAP_1312
*7747 TAP_1313
*7748 TAP_1314
*7749 TAP_1315
*7750 TAP_1316
*7751 TAP_1317
*7752 TAP_1318
*7753 TAP_1319
*7754 TAP_1320
*7755 TAP_1321
*7756 TAP_1322
*7757 TAP_1323
*7758 TAP_1324
*7759 TAP_1325
*7760 TAP_1326
*7761 TAP_1327
*7762 TAP_1328
*7763 TAP_1329
*7764 TAP_1330
*7765 TAP_1331
*7766 TAP_1332
*7767 TAP_1333
*7768 TAP_1334
*7769 TAP_1335
*7770 TAP_1336
*7771 TAP_1337
*7772 TAP_1338
*7773 TAP_1339
*7774 TAP_1340
*7775 TAP_1341
*7776 TAP_1342
*7777 TAP_1343
*7778 TAP_1344
*7779 TAP_1345
*7780 TAP_1346
*7781 TAP_1347
*7782 TAP_204
*7783 TAP_205
*7784 TAP_206
*7785 TAP_207
*7786 TAP_208
*7787 TAP_209
*7788 TAP_210
*7789 TAP_211
*7790 TAP_212
*7791 TAP_213
*7792 TAP_214
*7793 TAP_215
*7794 TAP_216
*7795 TAP_217
*7796 TAP_218
*7797 TAP_219
*7798 TAP_220
*7799 TAP_221
*7800 TAP_222
*7801 TAP_223
*7802 TAP_224
*7803 TAP_225
*7804 TAP_226
*7805 TAP_227
*7806 TAP_228
*7807 TAP_229
*7808 TAP_230
*7809 TAP_231
*7810 TAP_232
*7811 TAP_233
*7812 TAP_234
*7813 TAP_235
*7814 TAP_236
*7815 TAP_237
*7816 TAP_238
*7817 TAP_239
*7818 TAP_240
*7819 TAP_241
*7820 TAP_242
*7821 TAP_243
*7822 TAP_244
*7823 TAP_245
*7824 TAP_246
*7825 TAP_247
*7826 TAP_248
*7827 TAP_249
*7828 TAP_250
*7829 TAP_251
*7830 TAP_252
*7831 TAP_253
*7832 TAP_254
*7833 TAP_255
*7834 TAP_256
*7835 TAP_257
*7836 TAP_258
*7837 TAP_259
*7838 TAP_260
*7839 TAP_261
*7840 TAP_262
*7841 TAP_263
*7842 TAP_264
*7843 TAP_265
*7844 TAP_266
*7845 TAP_267
*7846 TAP_268
*7847 TAP_269
*7848 TAP_270
*7849 TAP_271
*7850 TAP_272
*7851 TAP_273
*7852 TAP_274
*7853 TAP_275
*7854 TAP_276
*7855 TAP_277
*7856 TAP_278
*7857 TAP_279
*7858 TAP_280
*7859 TAP_281
*7860 TAP_282
*7861 TAP_283
*7862 TAP_284
*7863 TAP_285
*7864 TAP_286
*7865 TAP_287
*7866 TAP_288
*7867 TAP_289
*7868 TAP_290
*7869 TAP_291
*7870 TAP_292
*7871 TAP_293
*7872 TAP_294
*7873 TAP_295
*7874 TAP_296
*7875 TAP_297
*7876 TAP_298
*7877 TAP_299
*7878 TAP_300
*7879 TAP_301
*7880 TAP_302
*7881 TAP_303
*7882 TAP_304
*7883 TAP_305
*7884 TAP_306
*7885 TAP_307
*7886 TAP_308
*7887 TAP_309
*7888 TAP_310
*7889 TAP_311
*7890 TAP_312
*7891 TAP_313
*7892 TAP_314
*7893 TAP_315
*7894 TAP_316
*7895 TAP_317
*7896 TAP_318
*7897 TAP_319
*7898 TAP_320
*7899 TAP_321
*7900 TAP_322
*7901 TAP_323
*7902 TAP_324
*7903 TAP_325
*7904 TAP_326
*7905 TAP_327
*7906 TAP_328
*7907 TAP_329
*7908 TAP_330
*7909 TAP_331
*7910 TAP_332
*7911 TAP_333
*7912 TAP_334
*7913 TAP_335
*7914 TAP_336
*7915 TAP_337
*7916 TAP_338
*7917 TAP_339
*7918 TAP_340
*7919 TAP_341
*7920 TAP_342
*7921 TAP_343
*7922 TAP_344
*7923 TAP_345
*7924 TAP_346
*7925 TAP_347
*7926 TAP_348
*7927 TAP_349
*7928 TAP_350
*7929 TAP_351
*7930 TAP_352
*7931 TAP_353
*7932 TAP_354
*7933 TAP_355
*7934 TAP_356
*7935 TAP_357
*7936 TAP_358
*7937 TAP_359
*7938 TAP_360
*7939 TAP_361
*7940 TAP_362
*7941 TAP_363
*7942 TAP_364
*7943 TAP_365
*7944 TAP_366
*7945 TAP_367
*7946 TAP_368
*7947 TAP_369
*7948 TAP_370
*7949 TAP_371
*7950 TAP_372
*7951 TAP_373
*7952 TAP_374
*7953 TAP_375
*7954 TAP_376
*7955 TAP_377
*7956 TAP_378
*7957 TAP_379
*7958 TAP_380
*7959 TAP_381
*7960 TAP_382
*7961 TAP_383
*7962 TAP_384
*7963 TAP_385
*7964 TAP_386
*7965 TAP_387
*7966 TAP_388
*7967 TAP_389
*7968 TAP_390
*7969 TAP_391
*7970 TAP_392
*7971 TAP_393
*7972 TAP_394
*7973 TAP_395
*7974 TAP_396
*7975 TAP_397
*7976 TAP_398
*7977 TAP_399
*7978 TAP_400
*7979 TAP_401
*7980 TAP_402
*7981 TAP_403
*7982 TAP_404
*7983 TAP_405
*7984 TAP_406
*7985 TAP_407
*7986 TAP_408
*7987 TAP_409
*7988 TAP_410
*7989 TAP_411
*7990 TAP_412
*7991 TAP_413
*7992 TAP_414
*7993 TAP_415
*7994 TAP_416
*7995 TAP_417
*7996 TAP_418
*7997 TAP_419
*7998 TAP_420
*7999 TAP_421
*8000 TAP_422
*8001 TAP_423
*8002 TAP_424
*8003 TAP_425
*8004 TAP_426
*8005 TAP_427
*8006 TAP_428
*8007 TAP_429
*8008 TAP_430
*8009 TAP_431
*8010 TAP_432
*8011 TAP_433
*8012 TAP_434
*8013 TAP_435
*8014 TAP_436
*8015 TAP_437
*8016 TAP_438
*8017 TAP_439
*8018 TAP_440
*8019 TAP_441
*8020 TAP_442
*8021 TAP_443
*8022 TAP_444
*8023 TAP_445
*8024 TAP_446
*8025 TAP_447
*8026 TAP_448
*8027 TAP_449
*8028 TAP_450
*8029 TAP_451
*8030 TAP_452
*8031 TAP_453
*8032 TAP_454
*8033 TAP_455
*8034 TAP_456
*8035 TAP_457
*8036 TAP_458
*8037 TAP_459
*8038 TAP_460
*8039 TAP_461
*8040 TAP_462
*8041 TAP_463
*8042 TAP_464
*8043 TAP_465
*8044 TAP_466
*8045 TAP_467
*8046 TAP_468
*8047 TAP_469
*8048 TAP_470
*8049 TAP_471
*8050 TAP_472
*8051 TAP_473
*8052 TAP_474
*8053 TAP_475
*8054 TAP_476
*8055 TAP_477
*8056 TAP_478
*8057 TAP_479
*8058 TAP_480
*8059 TAP_481
*8060 TAP_482
*8061 TAP_483
*8062 TAP_484
*8063 TAP_485
*8064 TAP_486
*8065 TAP_487
*8066 TAP_488
*8067 TAP_489
*8068 TAP_490
*8069 TAP_491
*8070 TAP_492
*8071 TAP_493
*8072 TAP_494
*8073 TAP_495
*8074 TAP_496
*8075 TAP_497
*8076 TAP_498
*8077 TAP_499
*8078 TAP_500
*8079 TAP_501
*8080 TAP_502
*8081 TAP_503
*8082 TAP_504
*8083 TAP_505
*8084 TAP_506
*8085 TAP_507
*8086 TAP_508
*8087 TAP_509
*8088 TAP_510
*8089 TAP_511
*8090 TAP_512
*8091 TAP_513
*8092 TAP_514
*8093 TAP_515
*8094 TAP_516
*8095 TAP_517
*8096 TAP_518
*8097 TAP_519
*8098 TAP_520
*8099 TAP_521
*8100 TAP_522
*8101 TAP_523
*8102 TAP_524
*8103 TAP_525
*8104 TAP_526
*8105 TAP_527
*8106 TAP_528
*8107 TAP_529
*8108 TAP_530
*8109 TAP_531
*8110 TAP_532
*8111 TAP_533
*8112 TAP_534
*8113 TAP_535
*8114 TAP_536
*8115 TAP_537
*8116 TAP_538
*8117 TAP_539
*8118 TAP_540
*8119 TAP_541
*8120 TAP_542
*8121 TAP_543
*8122 TAP_544
*8123 TAP_545
*8124 TAP_546
*8125 TAP_547
*8126 TAP_548
*8127 TAP_549
*8128 TAP_550
*8129 TAP_551
*8130 TAP_552
*8131 TAP_553
*8132 TAP_554
*8133 TAP_555
*8134 TAP_556
*8135 TAP_557
*8136 TAP_558
*8137 TAP_559
*8138 TAP_560
*8139 TAP_561
*8140 TAP_562
*8141 TAP_563
*8142 TAP_564
*8143 TAP_565
*8144 TAP_566
*8145 TAP_567
*8146 TAP_568
*8147 TAP_569
*8148 TAP_570
*8149 TAP_571
*8150 TAP_572
*8151 TAP_573
*8152 TAP_574
*8153 TAP_575
*8154 TAP_576
*8155 TAP_577
*8156 TAP_578
*8157 TAP_579
*8158 TAP_580
*8159 TAP_581
*8160 TAP_582
*8161 TAP_583
*8162 TAP_584
*8163 TAP_585
*8164 TAP_586
*8165 TAP_587
*8166 TAP_588
*8167 TAP_589
*8168 TAP_590
*8169 TAP_591
*8170 TAP_592
*8171 TAP_593
*8172 TAP_594
*8173 TAP_595
*8174 TAP_596
*8175 TAP_597
*8176 TAP_598
*8177 TAP_599
*8178 TAP_600
*8179 TAP_601
*8180 TAP_602
*8181 TAP_603
*8182 TAP_604
*8183 TAP_605
*8184 TAP_606
*8185 TAP_607
*8186 TAP_608
*8187 TAP_609
*8188 TAP_610
*8189 TAP_611
*8190 TAP_612
*8191 TAP_613
*8192 TAP_614
*8193 TAP_615
*8194 TAP_616
*8195 TAP_617
*8196 TAP_618
*8197 TAP_619
*8198 TAP_620
*8199 TAP_621
*8200 TAP_622
*8201 TAP_623
*8202 TAP_624
*8203 TAP_625
*8204 TAP_626
*8205 TAP_627
*8206 TAP_628
*8207 TAP_629
*8208 TAP_630
*8209 TAP_631
*8210 TAP_632
*8211 TAP_633
*8212 TAP_634
*8213 TAP_635
*8214 TAP_636
*8215 TAP_637
*8216 TAP_638
*8217 TAP_639
*8218 TAP_640
*8219 TAP_641
*8220 TAP_642
*8221 TAP_643
*8222 TAP_644
*8223 TAP_645
*8224 TAP_646
*8225 TAP_647
*8226 TAP_648
*8227 TAP_649
*8228 TAP_650
*8229 TAP_651
*8230 TAP_652
*8231 TAP_653
*8232 TAP_654
*8233 TAP_655
*8234 TAP_656
*8235 TAP_657
*8236 TAP_658
*8237 TAP_659
*8238 TAP_660
*8239 TAP_661
*8240 TAP_662
*8241 TAP_663
*8242 TAP_664
*8243 TAP_665
*8244 TAP_666
*8245 TAP_667
*8246 TAP_668
*8247 TAP_669
*8248 TAP_670
*8249 TAP_671
*8250 TAP_672
*8251 TAP_673
*8252 TAP_674
*8253 TAP_675
*8254 TAP_676
*8255 TAP_677
*8256 TAP_678
*8257 TAP_679
*8258 TAP_680
*8259 TAP_681
*8260 TAP_682
*8261 TAP_683
*8262 TAP_684
*8263 TAP_685
*8264 TAP_686
*8265 TAP_687
*8266 TAP_688
*8267 TAP_689
*8268 TAP_690
*8269 TAP_691
*8270 TAP_692
*8271 TAP_693
*8272 TAP_694
*8273 TAP_695
*8274 TAP_696
*8275 TAP_697
*8276 TAP_698
*8277 TAP_699
*8278 TAP_700
*8279 TAP_701
*8280 TAP_702
*8281 TAP_703
*8282 TAP_704
*8283 TAP_705
*8284 TAP_706
*8285 TAP_707
*8286 TAP_708
*8287 TAP_709
*8288 TAP_710
*8289 TAP_711
*8290 TAP_712
*8291 TAP_713
*8292 TAP_714
*8293 TAP_715
*8294 TAP_716
*8295 TAP_717
*8296 TAP_718
*8297 TAP_719
*8298 TAP_720
*8299 TAP_721
*8300 TAP_722
*8301 TAP_723
*8302 TAP_724
*8303 TAP_725
*8304 TAP_726
*8305 TAP_727
*8306 TAP_728
*8307 TAP_729
*8308 TAP_730
*8309 TAP_731
*8310 TAP_732
*8311 TAP_733
*8312 TAP_734
*8313 TAP_735
*8314 TAP_736
*8315 TAP_737
*8316 TAP_738
*8317 TAP_739
*8318 TAP_740
*8319 TAP_741
*8320 TAP_742
*8321 TAP_743
*8322 TAP_744
*8323 TAP_745
*8324 TAP_746
*8325 TAP_747
*8326 TAP_748
*8327 TAP_749
*8328 TAP_750
*8329 TAP_751
*8330 TAP_752
*8331 TAP_753
*8332 TAP_754
*8333 TAP_755
*8334 TAP_756
*8335 TAP_757
*8336 TAP_758
*8337 TAP_759
*8338 TAP_760
*8339 TAP_761
*8340 TAP_762
*8341 TAP_763
*8342 TAP_764
*8343 TAP_765
*8344 TAP_766
*8345 TAP_767
*8346 TAP_768
*8347 TAP_769
*8348 TAP_770
*8349 TAP_771
*8350 TAP_772
*8351 TAP_773
*8352 TAP_774
*8353 TAP_775
*8354 TAP_776
*8355 TAP_777
*8356 TAP_778
*8357 TAP_779
*8358 TAP_780
*8359 TAP_781
*8360 TAP_782
*8361 TAP_783
*8362 TAP_784
*8363 TAP_785
*8364 TAP_786
*8365 TAP_787
*8366 TAP_788
*8367 TAP_789
*8368 TAP_790
*8369 TAP_791
*8370 TAP_792
*8371 TAP_793
*8372 TAP_794
*8373 TAP_795
*8374 TAP_796
*8375 TAP_797
*8376 TAP_798
*8377 TAP_799
*8378 TAP_800
*8379 TAP_801
*8380 TAP_802
*8381 TAP_803
*8382 TAP_804
*8383 TAP_805
*8384 TAP_806
*8385 TAP_807
*8386 TAP_808
*8387 TAP_809
*8388 TAP_810
*8389 TAP_811
*8390 TAP_812
*8391 TAP_813
*8392 TAP_814
*8393 TAP_815
*8394 TAP_816
*8395 TAP_817
*8396 TAP_818
*8397 TAP_819
*8398 TAP_820
*8399 TAP_821
*8400 TAP_822
*8401 TAP_823
*8402 TAP_824
*8403 TAP_825
*8404 TAP_826
*8405 TAP_827
*8406 TAP_828
*8407 TAP_829
*8408 TAP_830
*8409 TAP_831
*8410 TAP_832
*8411 TAP_833
*8412 TAP_834
*8413 TAP_835
*8414 TAP_836
*8415 TAP_837
*8416 TAP_838
*8417 TAP_839
*8418 TAP_840
*8419 TAP_841
*8420 TAP_842
*8421 TAP_843
*8422 TAP_844
*8423 TAP_845
*8424 TAP_846
*8425 TAP_847
*8426 TAP_848
*8427 TAP_849
*8428 TAP_850
*8429 TAP_851
*8430 TAP_852
*8431 TAP_853
*8432 TAP_854
*8433 TAP_855
*8434 TAP_856
*8435 TAP_857
*8436 TAP_858
*8437 TAP_859
*8438 TAP_860
*8439 TAP_861
*8440 TAP_862
*8441 TAP_863
*8442 TAP_864
*8443 TAP_865
*8444 TAP_866
*8445 TAP_867
*8446 TAP_868
*8447 TAP_869
*8448 TAP_870
*8449 TAP_871
*8450 TAP_872
*8451 TAP_873
*8452 TAP_874
*8453 TAP_875
*8454 TAP_876
*8455 TAP_877
*8456 TAP_878
*8457 TAP_879
*8458 TAP_880
*8459 TAP_881
*8460 TAP_882
*8461 TAP_883
*8462 TAP_884
*8463 TAP_885
*8464 TAP_886
*8465 TAP_887
*8466 TAP_888
*8467 TAP_889
*8468 TAP_890
*8469 TAP_891
*8470 TAP_892
*8471 TAP_893
*8472 TAP_894
*8473 TAP_895
*8474 TAP_896
*8475 TAP_897
*8476 TAP_898
*8477 TAP_899
*8478 TAP_900
*8479 TAP_901
*8480 TAP_902
*8481 TAP_903
*8482 TAP_904
*8483 TAP_905
*8484 TAP_906
*8485 TAP_907
*8486 TAP_908
*8487 TAP_909
*8488 TAP_910
*8489 TAP_911
*8490 TAP_912
*8491 TAP_913
*8492 TAP_914
*8493 TAP_915
*8494 TAP_916
*8495 TAP_917
*8496 TAP_918
*8497 TAP_919
*8498 TAP_920
*8499 TAP_921
*8500 TAP_922
*8501 TAP_923
*8502 TAP_924
*8503 TAP_925
*8504 TAP_926
*8505 TAP_927
*8506 TAP_928
*8507 TAP_929
*8508 TAP_930
*8509 TAP_931
*8510 TAP_932
*8511 TAP_933
*8512 TAP_934
*8513 TAP_935
*8514 TAP_936
*8515 TAP_937
*8516 TAP_938
*8517 TAP_939
*8518 TAP_940
*8519 TAP_941
*8520 TAP_942
*8521 TAP_943
*8522 TAP_944
*8523 TAP_945
*8524 TAP_946
*8525 TAP_947
*8526 TAP_948
*8527 TAP_949
*8528 TAP_950
*8529 TAP_951
*8530 TAP_952
*8531 TAP_953
*8532 TAP_954
*8533 TAP_955
*8534 TAP_956
*8535 TAP_957
*8536 TAP_958
*8537 TAP_959
*8538 TAP_960
*8539 TAP_961
*8540 TAP_962
*8541 TAP_963
*8542 TAP_964
*8543 TAP_965
*8544 TAP_966
*8545 TAP_967
*8546 TAP_968
*8547 TAP_969
*8548 TAP_970
*8549 TAP_971
*8550 TAP_972
*8551 TAP_973
*8552 TAP_974
*8553 TAP_975
*8554 TAP_976
*8555 TAP_977
*8556 TAP_978
*8557 TAP_979
*8558 TAP_980
*8559 TAP_981
*8560 TAP_982
*8561 TAP_983
*8562 TAP_984
*8563 TAP_985
*8564 TAP_986
*8565 TAP_987
*8566 TAP_988
*8567 TAP_989
*8568 TAP_990
*8569 TAP_991
*8570 TAP_992
*8571 TAP_993
*8572 TAP_994
*8573 TAP_995
*8574 TAP_996
*8575 TAP_997
*8576 TAP_998
*8577 TAP_999
*8578 _177_
*8579 _178_
*8580 _179_
*8581 _180_
*8582 _181_
*8583 _182_
*8584 _183_
*8585 _184_
*8586 _185_
*8587 _186_
*8588 _187_
*8589 _188_
*8590 _189_
*8591 _190_
*8592 _191_
*8593 _192_
*8594 _193_
*8595 _194_
*8596 _195_
*8597 _196_
*8598 _197_
*8599 _198_
*8600 _199_
*8601 _200_
*8602 _201_
*8603 _202_
*8604 _203_
*8605 _204_
*8606 _205_
*8607 _206_
*8608 _207_
*8609 _208_
*8610 _209_
*8611 _210_
*8612 _211_
*8613 _212_
*8614 _213_
*8615 _214_
*8616 _215_
*8617 _216_
*8618 _217_
*8619 _218_
*8620 _219_
*8621 _220_
*8622 _221_
*8623 _222_
*8624 _223_
*8625 _224_
*8626 _225_
*8627 _226_
*8628 _227_
*8629 _228_
*8630 _229_
*8631 _230_
*8632 _231_
*8633 _232_
*8634 _233_
*8635 _234_
*8636 _235_
*8637 _236_
*8638 _237_
*8639 _238_
*8640 _239_
*8641 _240_
*8642 _241_
*8643 _242_
*8644 _243_
*8645 _244_
*8646 _245_
*8647 _246_
*8648 _247_
*8649 _248_
*8650 _249_
*8651 _250_
*8652 _251_
*8653 _252_
*8654 _253_
*8655 _254_
*8656 _255_
*8657 _256_
*8658 _257_
*8659 _258_
*8660 _259_
*8661 _260_
*8662 _261_
*8663 _262_
*8664 _263_
*8665 _264_
*8666 _265_
*8667 _266_
*8668 _267_
*8669 _268_
*8670 _269_
*8671 _270_
*8672 _271_
*8673 _272_
*8674 _273_
*8675 _274_
*8676 _275_
*8677 _276_
*8678 _277_
*8679 _278_
*8680 _279_
*8681 _280_
*8682 _281_
*8683 _282_
*8684 _283_
*8685 _284_
*8686 _285_
*8687 _286_
*8688 _287_
*8689 _288_
*8690 _289_
*8691 _290_
*8692 _291_
*8693 _292_
*8694 _293_
*8695 _294_
*8696 _295_
*8697 _296_
*8698 _297_
*8699 _298_
*8700 _299_
*8701 _300_
*8702 _301_
*8703 _302_
*8704 _303_
*8705 _304_
*8706 _305_
*8707 _306_
*8708 _307_
*8709 _308_
*8710 _309_
*8711 _310_
*8712 _311_
*8713 _312_
*8714 _313_
*8715 _314_
*8716 _315_
*8717 _316_
*8718 _317_
*8719 _318_
*8720 _319_
*8721 _320_
*8722 _321_
*8723 _322_
*8724 _323_
*8725 _324_
*8726 _325_
*8727 _326_
*8728 _327_
*8729 _328_
*8730 _329_
*8731 _330_
*8732 _331_
*8733 _332_
*8734 _333_
*8735 _334_
*8736 _335_
*8737 _336_
*8738 _337_
*8739 _338_
*8740 _339_
*8741 _340_
*8742 _341_
*8743 _342_
*8744 _343_
*8745 _344_
*8746 _345_
*8747 _346_
*8748 _347_
*8749 _348_
*8750 _349_
*8751 _350_
*8752 _351_
*8753 _352_
*8754 _353_
*8755 _354_
*8756 _355_
*8757 _356_
*8758 _357_
*8759 _358_
*8760 _359_
*8761 _360_
*8762 _361_
*8763 _362_
*8764 _363_
*8765 _364_
*8766 _365_
*8767 _366_
*8768 _367_
*8769 _368_
*8770 _369_
*8771 _370_
*8772 _371_
*8773 _372_
*8774 _373_
*8775 _374_
*8776 _375_
*8777 _376_
*8778 _377_
*8779 _378_
*8780 _379_
*8781 _380_
*8782 _381_
*8783 _382_
*8784 _383_
*8785 _384_
*8786 _385_
*8787 _386_
*8788 _387_
*8789 _388_
*8790 _389_
*8791 _390_
*8792 _391_
*8793 _392_
*8794 _393_
*8795 _394_
*8796 _395_
*8797 _396_
*8798 _397_
*8799 _398_
*8800 _399_
*8801 _400_
*8802 _401_
*8803 _402_
*8804 _403_
*8805 _404_
*8806 _405_
*8807 _406_
*8808 _407_
*8809 _408_
*8810 _409_
*8811 _410_
*8812 _411_
*8813 _412_
*8814 _413_
*8815 _414_
*8816 _415_
*8817 _416_
*8818 _417_
*8819 _418_
*8820 _419_
*8821 _420_
*8822 _421_
*8823 _422_
*8824 _423_
*8825 _424_
*8826 _425_
*8827 _426_
*8828 _427_
*8829 _428_
*8830 _429_
*8831 _430_
*8832 _431_
*8833 _432_
*8834 _433_
*8835 _434_
*8836 _435_
*8837 _436_
*8838 _437_
*8839 _438_
*8840 _439_
*8841 _440_
*8842 _441_
*8843 _442_
*8844 _443_
*8845 _444_
*8846 _445_
*8847 _446_
*8848 _447_
*8849 _448_
*8850 _449_
*8851 _450_
*8852 _451_
*8853 _452_
*8854 _453_
*8855 _454_
*8856 _455_
*8857 _456_
*8858 _457_
*8859 clkbuf_0_clk
*8860 clkbuf_3_0__f_clk
*8861 clkbuf_3_1__f_clk
*8862 clkbuf_3_2__f_clk
*8863 clkbuf_3_3__f_clk
*8864 clkbuf_3_4__f_clk
*8865 clkbuf_3_5__f_clk
*8866 clkbuf_3_6__f_clk
*8867 clkbuf_3_7__f_clk
*8868 fanout203
*8869 fanout204
*8870 fanout205
*8871 fanout206
*8872 fanout207
*8873 fanout208
*8874 fanout209
*8875 fanout210
*8876 hold1
*8877 hold10
*8878 hold11
*8879 hold2
*8880 hold3
*8881 hold4
*8882 hold5
*8883 hold6
*8884 hold7
*8885 hold8
*8886 hold9
*8887 input1
*8888 input10
*8889 input100
*8890 input11
*8891 input12
*8892 input13
*8893 input14
*8894 input15
*8895 input16
*8896 input17
*8897 input18
*8898 input19
*8899 input2
*8900 input20
*8901 input21
*8902 input22
*8903 input23
*8904 input24
*8905 input25
*8906 input26
*8907 input27
*8908 input28
*8909 input29
*8910 input3
*8911 input30
*8912 input31
*8913 input32
*8914 input33
*8915 input34
*8916 input35
*8917 input36
*8918 input37
*8919 input38
*8920 input39
*8921 input4
*8922 input40
*8923 input41
*8924 input42
*8925 input43
*8926 input44
*8927 input45
*8928 input46
*8929 input47
*8930 input48
*8931 input49
*8932 input5
*8933 input50
*8934 input51
*8935 input52
*8936 input53
*8937 input54
*8938 input55
*8939 input56
*8940 input57
*8941 input58
*8942 input59
*8943 input6
*8944 input60
*8945 input61
*8946 input62
*8947 input63
*8948 input64
*8949 input65
*8950 input66
*8951 input67
*8952 input68
*8953 input69
*8954 input7
*8955 input70
*8956 input71
*8957 input72
*8958 input73
*8959 input74
*8960 input75
*8961 input76
*8962 input77
*8963 input78
*8964 input79
*8965 input8
*8966 input80
*8967 input81
*8968 input82
*8969 input83
*8970 input84
*8971 input85
*8972 input86
*8973 input87
*8974 input88
*8975 input89
*8976 input9
*8977 input90
*8978 input91
*8979 input92
*8980 input93
*8981 input94
*8982 input95
*8983 input96
*8984 input97
*8985 input98
*8986 input99
*8987 output101
*8988 output102
*8989 output103
*8990 output104
*8991 output105
*8992 output106
*8993 output107
*8994 output108
*8995 output109
*8996 output110
*8997 output111
*8998 output112
*8999 output113
*9000 output114
*9001 output115
*9002 output116
*9003 output117
*9004 output118
*9005 output119
*9006 output120
*9007 output121
*9008 output122
*9009 output123
*9010 output124
*9011 output125
*9012 output126
*9013 output127
*9014 output128
*9015 output129
*9016 output130
*9017 output131
*9018 output132
*9019 output133
*9020 output134
*9021 output135
*9022 output136
*9023 output137
*9024 output138
*9025 output139
*9026 output140
*9027 output141
*9028 output142
*9029 output143
*9030 output144
*9031 output145
*9032 output146
*9033 output147
*9034 output148
*9035 output149
*9036 output150
*9037 output151
*9038 output152
*9039 output153
*9040 output154
*9041 output155
*9042 output156
*9043 output157
*9044 output158
*9045 output159
*9046 output160
*9047 output161
*9048 output162
*9049 output163
*9050 output164
*9051 output165
*9052 output166
*9053 output167
*9054 output168
*9055 output169
*9056 output170
*9057 output171
*9058 output172
*9059 output173
*9060 output174
*9061 output175
*9062 output176
*9063 output177
*9064 output178
*9065 output179
*9066 output180
*9067 output181
*9068 output182
*9069 output183
*9070 output184
*9071 output185
*9072 output186
*9073 output187
*9074 output188
*9075 output189
*9076 output190
*9077 output191
*9078 output192
*9079 output193
*9080 output194
*9081 output195
*9082 output196
*9083 output197
*9084 output198
*9085 output199
*9086 output200
*9087 output201
*9088 output202

*PORTS
clk I
m_addr[0] I
m_addr[10] I
m_addr[11] I
m_addr[12] I
m_addr[13] I
m_addr[14] I
m_addr[15] I
m_addr[16] I
m_addr[17] I
m_addr[18] I
m_addr[19] I
m_addr[1] I
m_addr[20] I
m_addr[21] I
m_addr[22] I
m_addr[23] I
m_addr[24] I
m_addr[25] I
m_addr[26] I
m_addr[27] I
m_addr[28] I
m_addr[29] I
m_addr[2] I
m_addr[30] I
m_addr[31] I
m_addr[3] I
m_addr[4] I
m_addr[5] I
m_addr[6] I
m_addr[7] I
m_addr[8] I
m_addr[9] I
m_rdata[0] O
m_rdata[10] O
m_rdata[11] O
m_rdata[12] O
m_rdata[13] O
m_rdata[14] O
m_rdata[15] O
m_rdata[16] O
m_rdata[17] O
m_rdata[18] O
m_rdata[19] O
m_rdata[1] O
m_rdata[20] O
m_rdata[21] O
m_rdata[22] O
m_rdata[23] O
m_rdata[24] O
m_rdata[25] O
m_rdata[26] O
m_rdata[27] O
m_rdata[28] O
m_rdata[29] O
m_rdata[2] O
m_rdata[30] O
m_rdata[31] O
m_rdata[3] O
m_rdata[4] O
m_rdata[5] O
m_rdata[6] O
m_rdata[7] O
m_rdata[8] O
m_rdata[9] O
m_ready O
m_req I
m_wdata[0] I
m_wdata[10] I
m_wdata[11] I
m_wdata[12] I
m_wdata[13] I
m_wdata[14] I
m_wdata[15] I
m_wdata[16] I
m_wdata[17] I
m_wdata[18] I
m_wdata[19] I
m_wdata[1] I
m_wdata[20] I
m_wdata[21] I
m_wdata[22] I
m_wdata[23] I
m_wdata[24] I
m_wdata[25] I
m_wdata[26] I
m_wdata[27] I
m_wdata[28] I
m_wdata[29] I
m_wdata[2] I
m_wdata[30] I
m_wdata[31] I
m_wdata[3] I
m_wdata[4] I
m_wdata[5] I
m_wdata[6] I
m_wdata[7] I
m_wdata[8] I
m_wdata[9] I
m_write I
paddr[0] O
paddr[10] O
paddr[11] O
paddr[12] O
paddr[13] O
paddr[14] O
paddr[15] O
paddr[16] O
paddr[17] O
paddr[18] O
paddr[19] O
paddr[1] O
paddr[20] O
paddr[21] O
paddr[22] O
paddr[23] O
paddr[24] O
paddr[25] O
paddr[26] O
paddr[27] O
paddr[28] O
paddr[29] O
paddr[2] O
paddr[30] O
paddr[31] O
paddr[3] O
paddr[4] O
paddr[5] O
paddr[6] O
paddr[7] O
paddr[8] O
paddr[9] O
pclk O
penable O
prdata[0] I
prdata[10] I
prdata[11] I
prdata[12] I
prdata[13] I
prdata[14] I
prdata[15] I
prdata[16] I
prdata[17] I
prdata[18] I
prdata[19] I
prdata[1] I
prdata[20] I
prdata[21] I
prdata[22] I
prdata[23] I
prdata[24] I
prdata[25] I
prdata[26] I
prdata[27] I
prdata[28] I
prdata[29] I
prdata[2] I
prdata[30] I
prdata[31] I
prdata[3] I
prdata[4] I
prdata[5] I
prdata[6] I
prdata[7] I
prdata[8] I
prdata[9] I
pready I
presetn O
psel O
pwdata[0] O
pwdata[10] O
pwdata[11] O
pwdata[12] O
pwdata[13] O
pwdata[14] O
pwdata[15] O
pwdata[16] O
pwdata[17] O
pwdata[18] O
pwdata[19] O
pwdata[1] O
pwdata[20] O
pwdata[21] O
pwdata[22] O
pwdata[23] O
pwdata[24] O
pwdata[25] O
pwdata[26] O
pwdata[27] O
pwdata[28] O
pwdata[29] O
pwdata[2] O
pwdata[30] O
pwdata[31] O
pwdata[3] O
pwdata[4] O
pwdata[5] O
pwdata[6] O
pwdata[7] O
pwdata[8] O
pwdata[9] O
pwrite O
rstn I

*D_NET *3 0.0399541
*CONN
*P clk I
*I *8859:A I *D sky130_fd_sc_hd__clkbuf_16
*CAP
1 clk 0.00580479
2 *8859:A 0
3 *3:19 0.0104423
4 *3:11 0.0162471
5 *3:11 m_rdata[24] 7.58672e-05
6 *3:11 *154:13 0
7 *3:11 *514:95 0.00105677
8 *3:19 *8655:A2 0.000112764
9 *3:19 *311:48 0.000108631
10 *3:19 *311:52 0.000122038
11 *3:19 *312:18 2.33476e-05
12 *3:19 *383:14 0.000668975
13 *3:19 *383:112 0.0037628
14 *3:19 *388:113 0.000216872
15 *3:19 *418:10 0.00032744
16 *3:19 *437:18 0.000138119
17 *3:19 *437:46 0.000111283
18 *3:19 *487:26 0
19 *3:19 *489:23 0.000216872
20 *3:19 *489:61 0.000363483
21 *3:19 *612:14 0.00015463
*RES
1 clk *3:11 36.8637 
2 *3:11 *3:19 49.6952 
3 *3:19 *8859:A 23 
*END

*D_NET *4 0.00234647
*CONN
*P m_addr[0] I
*I *8887:A I *D sky130_fd_sc_hd__buf_1
*CAP
1 m_addr[0] 0.000739849
2 *8887:A 0
3 *4:15 0.000739849
4 *4:15 pwdata[0] 0
5 *4:15 *8919:A 0.00010018
6 *4:15 *95:15 0.000408168
7 *4:15 *165:17 0.000358425
*RES
1 m_addr[0] *4:15 34.4157 
2 *4:15 *8887:A 23 
*END

*D_NET *5 0.000755999
*CONN
*P m_addr[10] I
*I *8899:A I *D sky130_fd_sc_hd__clkbuf_1
*CAP
1 m_addr[10] 0.000338997
2 *8899:A 0.000338997
3 *8899:A m_rdata[24] 0
4 *8899:A *11:13 0
5 *8899:A *492:12 2.74987e-05
6 *8899:A *585:12 5.05059e-05
*RES
1 m_addr[10] *8899:A 49.9876 
*END

*D_NET *6 0.000832649
*CONN
*P m_addr[11] I
*I *8910:A I *D sky130_fd_sc_hd__buf_1
*CAP
1 m_addr[11] 0.000338634
2 *8910:A 0
3 *6:15 0.000338634
4 *6:15 m_rdata[2] 0
5 *6:15 *81:15 5.32136e-05
6 *6:15 *465:25 5.2497e-05
7 *6:15 *536:6 4.96717e-05
*RES
1 m_addr[11] *6:15 27.1978 
2 *6:15 *8910:A 23 
*END

*D_NET *7 0.00112378
*CONN
*P m_addr[12] I
*I *8921:A I *D sky130_fd_sc_hd__buf_1
*CAP
1 m_addr[12] 0.000356443
2 *8921:A 0
3 *7:13 0.000356443
4 *7:13 paddr[0] 0
5 *7:13 *205:13 4.5084e-05
6 *7:13 *412:18 0.000150012
7 *7:13 *418:20 9.75779e-05
8 *7:13 *423:22 7.42574e-05
9 *7:13 *547:12 4.39607e-05
*RES
1 m_addr[12] *7:13 28.1092 
2 *7:13 *8921:A 23 
*END

*D_NET *8 0.000886217
*CONN
*P m_addr[13] I
*I *8932:A I *D sky130_fd_sc_hd__buf_1
*CAP
1 m_addr[13] 0.000441
2 *8932:A 0.000441
3 *8932:A *416:36 0
4 *8932:A *417:10 4.21594e-06
5 *8932:A *610:10 0
*RES
1 m_addr[13] *8932:A 47.4664 
*END

*D_NET *9 0.00081634
*CONN
*P m_addr[14] I
*I *8943:A I *D sky130_fd_sc_hd__clkbuf_1
*CAP
1 m_addr[14] 0.000354579
2 *8943:A 0
3 *9:15 0.000354579
4 *9:15 *157:15 0
5 *9:15 *169:15 4.1708e-05
6 *9:15 *465:25 6.54744e-05
*RES
1 m_addr[14] *9:15 28.3962 
2 *9:15 *8943:A 23 
*END

*D_NET *10 0.0010488
*CONN
*P m_addr[15] I
*I *8954:A I *D sky130_fd_sc_hd__buf_1
*CAP
1 m_addr[15] 0.000475505
2 *8954:A 0.000475505
3 *8954:A *448:22 8.72486e-05
4 *8954:A *461:29 1.05441e-05
5 *8954:A *554:28 0
*RES
1 m_addr[15] *8954:A 47.4664 
*END

*D_NET *11 0.00133158
*CONN
*P m_addr[16] I
*I *8965:A I *D sky130_fd_sc_hd__dlymetal6s2s_1
*CAP
1 m_addr[16] 0.000569608
2 *8965:A 0
3 *11:13 0.000569608
4 *11:13 psel 0
5 *11:13 *412:40 2.31209e-05
6 *11:13 *423:22 2.11157e-05
7 *11:13 *530:20 6.17437e-06
8 *11:13 *591:6 0.000141954
9 *8899:A *11:13 0
*RES
1 m_addr[16] *11:13 28.5118 
2 *11:13 *8965:A 23 
*END

*D_NET *12 0.00106128
*CONN
*P m_addr[17] I
*I *8976:A I *D sky130_fd_sc_hd__clkbuf_2
*CAP
1 m_addr[17] 0.000452875
2 *8976:A 0.000452875
3 *8976:A *502:31 5.70419e-05
4 *8976:A *526:26 9.84851e-05
*RES
1 m_addr[17] *8976:A 48.15 
*END

*D_NET *13 0.0009349
*CONN
*P m_addr[18] I
*I *8888:A I *D sky130_fd_sc_hd__clkbuf_2
*CAP
1 m_addr[18] 0.00046745
2 *8888:A 0.00046745
*RES
1 m_addr[18] *8888:A 47.4457 
*END

*D_NET *14 0.000811181
*CONN
*P m_addr[19] I
*I *8890:A I *D sky130_fd_sc_hd__buf_1
*CAP
1 m_addr[19] 0.000394968
2 *8890:A 0
3 *14:13 0.000394968
4 *14:13 *8955:A 2.12457e-05
5 *14:13 *139:13 0
6 *14:13 *386:33 0
7 *14:13 *506:20 0
*RES
1 m_addr[19] *14:13 29.346 
2 *14:13 *8890:A 23 
*END

*D_NET *15 0.00117088
*CONN
*P m_addr[1] I
*I *8891:A I *D sky130_fd_sc_hd__clkbuf_1
*CAP
1 m_addr[1] 0.00050683
2 *8891:A 0.00050683
3 *8891:A *502:47 5.70419e-05
4 *8891:A *526:24 0.00010018
*RES
1 m_addr[1] *8891:A 49.1236 
*END

*D_NET *16 0.00117
*CONN
*P m_addr[20] I
*I *8892:A I *D sky130_fd_sc_hd__clkbuf_1
*CAP
1 m_addr[20] 0.000502505
2 *8892:A 0.000502505
3 *8892:A paddr[20] 0
4 *8892:A *426:8 2.30292e-05
5 *8892:A *548:22 0.00014196
*RES
1 m_addr[20] *8892:A 48.9786 
*END

*D_NET *17 0.0015316
*CONN
*P m_addr[21] I
*I *8893:A I *D sky130_fd_sc_hd__dlymetal6s2s_1
*CAP
1 m_addr[21] 0.00062495
2 *8893:A 0
3 *17:13 0.00062495
4 *17:13 *8935:A 2.85582e-05
5 *17:13 *77:15 0
6 *17:13 *418:24 0.000127761
7 *17:13 *423:22 0.000125378
*RES
1 m_addr[21] *17:13 29.9204 
2 *17:13 *8893:A 23 
*END

*D_NET *18 0.000987768
*CONN
*P m_addr[22] I
*I *8894:A I *D sky130_fd_sc_hd__clkbuf_2
*CAP
1 m_addr[22] 0.000476575
2 *8894:A 0.000476575
3 *8894:A *448:8 3.46181e-05
*RES
1 m_addr[22] *8894:A 47.4457 
*END

*D_NET *19 0.000570159
*CONN
*P m_addr[23] I
*I *8895:A I *D sky130_fd_sc_hd__buf_1
*CAP
1 m_addr[23] 0.00028508
2 *8895:A 0.00028508
3 *8895:A *8912:A 0
4 *8895:A *8951:A 0
5 *8895:A *506:22 0
*RES
1 m_addr[23] *8895:A 49.881 
*END

*D_NET *20 0.0006558
*CONN
*P m_addr[24] I
*I *8896:A I *D sky130_fd_sc_hd__buf_1
*CAP
1 m_addr[24] 0.0003279
2 *8896:A 0
3 *20:13 0.0003279
4 *20:13 paddr[24] 0
5 *20:13 *89:13 0
6 *20:13 *441:24 0
*RES
1 m_addr[24] *20:13 27.5853 
2 *20:13 *8896:A 23 
*END

*D_NET *21 0.00141094
*CONN
*P m_addr[25] I
*I *8897:A I *D sky130_fd_sc_hd__dlymetal6s2s_1
*CAP
1 m_addr[25] 0.000614999
2 *8897:A 0
3 *21:13 0.000614999
4 *21:13 *148:13 0
5 *21:13 *157:15 0
6 *21:13 *481:8 0.000180939
*RES
1 m_addr[25] *21:13 27.8907 
2 *21:13 *8897:A 23 
*END

*D_NET *22 0.000897061
*CONN
*P m_addr[26] I
*I *8898:A I *D sky130_fd_sc_hd__clkbuf_2
*CAP
1 m_addr[26] 0.000405869
2 *8898:A 0
3 *22:15 0.000405869
4 *22:15 m_rdata[4] 0
5 *22:15 *154:13 0
6 *22:15 *492:10 3.0319e-05
7 *22:15 *492:12 7.89624e-06
8 *22:15 *585:12 4.71078e-05
*RES
1 m_addr[26] *22:15 27.9021 
2 *22:15 *8898:A 23 
*END

*D_NET *23 0.000897482
*CONN
*P m_addr[27] I
*I *8900:A I *D sky130_fd_sc_hd__buf_1
*CAP
1 m_addr[27] 0.000371296
2 *8900:A 0
3 *23:15 0.000371296
4 *23:15 paddr[0] 0
5 *23:15 *77:15 0
6 *23:15 *412:18 4.9808e-05
7 *23:15 *492:12 5.2497e-05
8 *23:15 *504:6 5.25848e-05
*RES
1 m_addr[27] *23:15 27.1978 
2 *23:15 *8900:A 23 
*END

*D_NET *24 0.000759553
*CONN
*P m_addr[28] I
*I *8901:A I *D sky130_fd_sc_hd__clkbuf_2
*CAP
1 m_addr[28] 0.000362855
2 *8901:A 0
3 *24:13 0.000362855
4 *24:13 pwdata[12] 0
5 *24:13 pwdata[13] 3.38429e-05
6 *24:13 *176:10 0
7 *24:13 *441:24 0
*RES
1 m_addr[28] *24:13 28.4139 
2 *24:13 *8901:A 23 
*END

*D_NET *25 0.00175794
*CONN
*P m_addr[29] I
*I *8902:A I *D sky130_fd_sc_hd__buf_2
*CAP
1 m_addr[29] 0.000572582
2 *8902:A 0
3 *25:11 0.000572582
4 *25:11 m_rdata[15] 0.000403297
5 *25:11 pwdata[6] 0
6 *25:11 *152:15 3.75708e-05
7 *25:11 *160:11 0
8 *25:11 *401:22 0.000171906
*RES
1 m_addr[29] *25:11 32.8825 
2 *25:11 *8902:A 23 
*END

*D_NET *26 0.0010243
*CONN
*P m_addr[2] I
*I *8903:A I *D sky130_fd_sc_hd__buf_1
*CAP
1 m_addr[2] 0.000467654
2 *8903:A 0.000467654
3 *8903:A m_ready 0
4 *8903:A *502:31 5.67058e-05
5 *8903:A *526:26 3.22879e-05
*RES
1 m_addr[2] *8903:A 48.1707 
*END

*D_NET *27 0.000872937
*CONN
*P m_addr[30] I
*I *8904:A I *D sky130_fd_sc_hd__buf_1
*CAP
1 m_addr[30] 0.000414839
2 *8904:A 0
3 *27:13 0.000414839
4 *27:13 m_rdata[29] 0
5 *27:13 *165:17 0
6 *27:13 *471:35 0
7 *27:13 *530:14 4.32584e-05
*RES
1 m_addr[30] *27:13 28.8135 
2 *27:13 *8904:A 23 
*END

*D_NET *28 0.00108031
*CONN
*P m_addr[31] I
*I *8905:A I *D sky130_fd_sc_hd__buf_1
*CAP
1 m_addr[31] 0.000508659
2 *8905:A 0.000508659
3 *8905:A *598:14 6.29881e-05
*RES
1 m_addr[31] *8905:A 47.3214 
*END

*D_NET *29 0.00107601
*CONN
*P m_addr[3] I
*I *8906:A I *D sky130_fd_sc_hd__buf_1
*CAP
1 m_addr[3] 0.000538007
2 *8906:A 0.000538007
3 *8906:A *451:20 0
*RES
1 m_addr[3] *8906:A 47.3214 
*END

*D_NET *30 0.000857468
*CONN
*P m_addr[4] I
*I *8907:A I *D sky130_fd_sc_hd__clkbuf_1
*CAP
1 m_addr[4] 0.000352613
2 *8907:A 0.000352613
3 *8907:A paddr[18] 0
4 *8907:A pwrite 0
5 *8907:A *441:24 0.000152241
6 *8907:A *603:8 0
*RES
1 m_addr[4] *8907:A 49.0114 
*END

*D_NET *31 0.00105748
*CONN
*P m_addr[5] I
*I *8908:A I *D sky130_fd_sc_hd__buf_1
*CAP
1 m_addr[5] 0.00052874
2 *8908:A 0.00052874
3 *8908:A *593:18 0
*RES
1 m_addr[5] *8908:A 47.3214 
*END

*D_NET *32 0.00103144
*CONN
*P m_addr[6] I
*I *8909:A I *D sky130_fd_sc_hd__buf_1
*CAP
1 m_addr[6] 0.000471222
2 *8909:A 0.000471222
3 *8909:A m_rdata[0] 0
4 *8909:A *502:31 5.67058e-05
5 *8909:A *526:26 3.22879e-05
*RES
1 m_addr[6] *8909:A 48.1707 
*END

*D_NET *33 0.00122269
*CONN
*P m_addr[7] I
*I *8911:A I *D sky130_fd_sc_hd__clkbuf_1
*CAP
1 m_addr[7] 0.000528756
2 *8911:A 0.000528756
3 *8911:A *495:12 0
4 *8911:A *531:20 0
5 *8911:A *537:8 8.62876e-05
6 *8911:A *580:8 7.88926e-05
*RES
1 m_addr[7] *8911:A 48.2743 
*END

*D_NET *34 0.000765305
*CONN
*P m_addr[8] I
*I *8912:A I *D sky130_fd_sc_hd__clkbuf_2
*CAP
1 m_addr[8] 0.000332747
2 *8912:A 0.000332747
3 *8912:A m_rdata[13] 0
4 *8912:A *506:22 9.98109e-05
5 *8895:A *8912:A 0
*RES
1 m_addr[8] *8912:A 48.4602 
*END

*D_NET *35 0.00101099
*CONN
*P m_addr[9] I
*I *8913:A I *D sky130_fd_sc_hd__buf_1
*CAP
1 m_addr[9] 0.000461847
2 *8913:A 0.000461847
3 *8913:A *420:18 3.22879e-05
4 *8913:A *548:22 5.50106e-05
*RES
1 m_addr[9] *8913:A 48.0257 
*END

*D_NET *36 0.00142295
*CONN
*P m_rdata[0] O
*I *8987:X O *D sky130_fd_sc_hd__clkbuf_4
*CAP
1 m_rdata[0] 0.000433955
2 *8987:X 4.17307e-05
3 *36:8 0.000475685
4 *36:8 *8987:A 0.00010018
5 *36:8 *502:31 9.90162e-05
6 *36:8 *526:26 0.000272383
7 *8909:A m_rdata[0] 0
*RES
1 *8987:X *36:8 41.0036 
2 *36:8 m_rdata[0] 9.05214 
*END

*D_NET *37 0.000721162
*CONN
*P m_rdata[10] O
*I *8988:X O *D sky130_fd_sc_hd__clkbuf_4
*CAP
1 m_rdata[10] 0.000335988
2 *8988:X 0.000335988
3 m_rdata[10] paddr[30] 0
4 m_rdata[10] *8935:A 0
5 m_rdata[10] *423:22 2.05503e-05
6 m_rdata[10] *514:70 6.17437e-06
7 m_rdata[10] *514:78 2.24608e-05
*RES
1 *8988:X m_rdata[10] 47.7004 
*END

*D_NET *38 0.000866286
*CONN
*P m_rdata[11] O
*I *8989:X O *D sky130_fd_sc_hd__clkbuf_4
*CAP
1 m_rdata[11] 7.61298e-05
2 *8989:X 0.000329215
3 *38:10 0.000405344
4 m_rdata[11] paddr[18] 3.25681e-05
5 m_rdata[11] *152:15 0
6 *38:10 *8989:A 2.30292e-05
7 *38:10 *160:11 0
*RES
1 *8989:X *38:10 43.2096 
2 *38:10 m_rdata[11] 8.32853 
*END

*D_NET *39 0.00139808
*CONN
*P m_rdata[12] O
*I *8990:X O *D sky130_fd_sc_hd__clkbuf_4
*CAP
1 m_rdata[12] 0.000433955
2 *8990:X 5.30929e-05
3 *39:8 0.000487048
4 *39:8 *502:31 0.000151601
5 *39:8 *526:26 0.000272383
*RES
1 *8990:X *39:8 41.0036 
2 *39:8 m_rdata[12] 9.05214 
*END

*D_NET *40 0.000765918
*CONN
*P m_rdata[13] O
*I *8991:X O *D sky130_fd_sc_hd__clkbuf_4
*CAP
1 m_rdata[13] 8.21148e-05
2 *8991:X 0.000274825
3 *40:12 0.00035694
4 m_rdata[13] *145:13 3.25681e-05
5 *40:12 *145:13 0
6 *40:12 *399:12 1.94693e-05
7 *8912:A m_rdata[13] 0
*RES
1 *8991:X *40:12 49.8011 
2 *40:12 m_rdata[13] 0.328533 
*END

*D_NET *41 0.00107076
*CONN
*P m_rdata[14] O
*I *8992:X O *D sky130_fd_sc_hd__clkbuf_4
*CAP
1 m_rdata[14] 0.000508393
2 *8992:X 0.000508393
3 m_rdata[14] *8992:A 4.06849e-05
4 m_rdata[14] *608:8 1.32939e-05
*RES
1 *8992:X m_rdata[14] 48.2743 
*END

*D_NET *42 0.00132242
*CONN
*P m_rdata[15] O
*I *8993:X O *D sky130_fd_sc_hd__clkbuf_4
*CAP
1 m_rdata[15] 0.000459562
2 *8993:X 0.000459562
3 m_rdata[15] *160:11 0
4 *25:11 m_rdata[15] 0.000403297
*RES
1 *8993:X m_rdata[15] 48.2743 
*END

*D_NET *43 0.000844365
*CONN
*P m_rdata[16] O
*I *8994:X O *D sky130_fd_sc_hd__clkbuf_4
*CAP
1 m_rdata[16] 0.000422183
2 *8994:X 0.000422183
3 m_rdata[16] pwdata[24] 0
4 m_rdata[16] *463:14 0
*RES
1 *8994:X m_rdata[16] 46.7621 
*END

*D_NET *44 0.00107912
*CONN
*P m_rdata[17] O
*I *8995:X O *D sky130_fd_sc_hd__clkbuf_4
*CAP
1 m_rdata[17] 0.000531776
2 *8995:X 0.000531776
3 m_rdata[17] pwdata[8] 0
4 m_rdata[17] *113:12 0
5 m_rdata[17] *406:14 1.55671e-05
6 m_rdata[17] *442:57 0
*RES
1 *8995:X m_rdata[17] 47.57 
*END

*D_NET *45 0.000800103
*CONN
*P m_rdata[18] O
*I *8996:X O *D sky130_fd_sc_hd__clkbuf_4
*CAP
1 m_rdata[18] 9.15931e-05
2 *8996:X 0.000281806
3 *45:12 0.000373399
4 m_rdata[18] pwdata[1] 0
5 m_rdata[18] *8955:A 0
6 *45:12 *405:14 5.3304e-05
*RES
1 *8996:X *45:12 49.8011 
2 *45:12 m_rdata[18] 0.328533 
*END

*D_NET *46 0.00109356
*CONN
*P m_rdata[19] O
*I *8997:X O *D sky130_fd_sc_hd__clkbuf_4
*CAP
1 m_rdata[19] 0.000511203
2 *8997:X 0.000511203
3 m_rdata[19] m_rdata[26] 0
4 m_rdata[19] *133:16 0
5 m_rdata[19] *414:16 7.11496e-05
*RES
1 *8997:X m_rdata[19] 47.57 
*END

*D_NET *47 0.000877698
*CONN
*P m_rdata[1] O
*I *8998:X O *D sky130_fd_sc_hd__clkbuf_4
*CAP
1 m_rdata[1] 0.000438849
2 *8998:X 0.000438849
3 m_rdata[1] *8962:A 0
*RES
1 *8998:X m_rdata[1] 46.7621 
*END

*D_NET *48 0.00114487
*CONN
*P m_rdata[20] O
*I *8999:X O *D sky130_fd_sc_hd__clkbuf_4
*CAP
1 m_rdata[20] 0.000500606
2 *8999:X 0.000500606
3 m_rdata[20] *548:22 0.000143655
*RES
1 *8999:X m_rdata[20] 48.2743 
*END

*D_NET *49 0.00126937
*CONN
*P m_rdata[21] O
*I *9000:X O *D sky130_fd_sc_hd__clkbuf_4
*CAP
1 m_rdata[21] 0.000521563
2 *9000:X 0.000521563
3 m_rdata[21] paddr[2] 0
4 m_rdata[21] *462:24 0.000139357
5 m_rdata[21] *494:10 8.68903e-05
6 m_rdata[21] *598:22 0
*RES
1 *9000:X m_rdata[21] 47.57 
*END

*D_NET *50 0.00185926
*CONN
*P m_rdata[22] O
*I *9001:X O *D sky130_fd_sc_hd__clkbuf_4
*CAP
1 m_rdata[22] 0.000522387
2 *9001:X 0.000227579
3 *50:8 0.000749966
4 m_rdata[22] *410:8 0
5 *50:8 *425:16 0.000359332
*RES
1 *9001:X *50:8 41.9564 
2 *50:8 m_rdata[22] 10.4607 
*END

*D_NET *51 0.00114487
*CONN
*P m_rdata[23] O
*I *9002:X O *D sky130_fd_sc_hd__clkbuf_4
*CAP
1 m_rdata[23] 0.000500606
2 *9002:X 0.000500606
3 m_rdata[23] *526:24 0.000143655
*RES
1 *9002:X m_rdata[23] 48.2743 
*END

*D_NET *52 0.000935971
*CONN
*P m_rdata[24] O
*I *9003:X O *D sky130_fd_sc_hd__buf_2
*CAP
1 m_rdata[24] 0.000301156
2 *9003:X 0.000301156
3 m_rdata[24] *412:40 0.000130212
4 m_rdata[24] *530:20 0.00012758
5 *8899:A m_rdata[24] 0
6 *3:11 m_rdata[24] 7.58672e-05
*RES
1 *9003:X m_rdata[24] 48.5734 
*END

*D_NET *53 0.000885369
*CONN
*P m_rdata[25] O
*I *9004:X O *D sky130_fd_sc_hd__clkbuf_4
*CAP
1 m_rdata[25] 9.15931e-05
2 *9004:X 0.00034412
3 *53:10 0.000435713
4 m_rdata[25] paddr[12] 0
5 m_rdata[25] pwdata[17] 0
6 *53:10 *413:16 1.39431e-05
7 *53:10 *441:24 0
*RES
1 *9004:X *53:10 43.2096 
2 *53:10 m_rdata[25] 8.32853 
*END

*D_NET *54 0.00149384
*CONN
*P m_rdata[26] O
*I *9005:X O *D sky130_fd_sc_hd__clkbuf_4
*CAP
1 m_rdata[26] 0.000657964
2 *9005:X 0.000657964
3 m_rdata[26] *414:16 0.000177909
4 m_rdata[19] m_rdata[26] 0
*RES
1 *9005:X m_rdata[26] 49.9521 
*END

*D_NET *55 0.0017057
*CONN
*P m_rdata[27] O
*I *9006:X O *D sky130_fd_sc_hd__clkbuf_4
*CAP
1 m_rdata[27] 0.000406474
2 *9006:X 0.00041374
3 *55:10 0.000820214
4 m_rdata[27] m_rdata[28] 0
5 *55:10 paddr[9] 6.00083e-05
6 *55:10 *56:10 5.26733e-06
7 *55:10 *416:36 0
*RES
1 *9006:X *55:10 46.6896 
2 *55:10 m_rdata[27] 9.53067 
*END

*D_NET *56 0.00194348
*CONN
*P m_rdata[28] O
*I *9007:X O *D sky130_fd_sc_hd__buf_2
*CAP
1 m_rdata[28] 0.000323468
2 *9007:X 0.000589767
3 *56:10 0.000913235
4 m_rdata[28] paddr[31] 0
5 *56:10 paddr[9] 7.46212e-05
6 *56:10 *9051:A 3.71251e-05
7 *56:10 *92:9 0
8 *56:10 *416:36 0
9 m_rdata[27] m_rdata[28] 0
10 *55:10 *56:10 5.26733e-06
*RES
1 *9007:X *56:10 46.6482 
2 *56:10 m_rdata[28] 9.10133 
*END

*D_NET *57 0.00059811
*CONN
*P m_rdata[29] O
*I *9008:X O *D sky130_fd_sc_hd__buf_2
*CAP
1 m_rdata[29] 0.000256188
2 *9008:X 0.000256188
3 m_rdata[29] *144:15 5.0341e-05
4 m_rdata[29] *418:30 1.27424e-05
5 m_rdata[29] *530:14 2.26497e-05
6 *27:13 m_rdata[29] 0
*RES
1 *9008:X m_rdata[29] 47.1648 
*END

*D_NET *58 0.000859784
*CONN
*P m_rdata[2] O
*I *9009:X O *D sky130_fd_sc_hd__clkbuf_4
*CAP
1 m_rdata[2] 8.70388e-05
2 *9009:X 0.000325831
3 *58:12 0.000412869
4 m_rdata[2] *148:13 0
5 *58:12 *465:25 3.4045e-05
6 *6:15 m_rdata[2] 0
*RES
1 *9009:X *58:12 42.8782 
2 *58:12 m_rdata[2] 8.32853 
*END

*D_NET *59 0.00114487
*CONN
*P m_rdata[30] O
*I *9010:X O *D sky130_fd_sc_hd__clkbuf_4
*CAP
1 m_rdata[30] 0.000500606
2 *9010:X 0.000500606
3 m_rdata[30] *548:22 0.000143655
*RES
1 *9010:X m_rdata[30] 48.2743 
*END

*D_NET *60 0.000734056
*CONN
*P m_rdata[31] O
*I *9011:X O *D sky130_fd_sc_hd__clkbuf_4
*CAP
1 m_rdata[31] 0.000367028
2 *9011:X 0.000367028
3 m_rdata[31] paddr[21] 0
4 m_rdata[31] pwdata[30] 0
*RES
1 *9011:X m_rdata[31] 48.6592 
*END

*D_NET *61 0.000792792
*CONN
*P m_rdata[3] O
*I *9012:X O *D sky130_fd_sc_hd__clkbuf_4
*CAP
1 m_rdata[3] 9.15931e-05
2 *9012:X 0.000297831
3 *61:10 0.000389424
4 m_rdata[3] *73:13 0
5 m_rdata[3] *139:13 0
6 *61:10 *422:12 1.39431e-05
7 *61:10 *506:20 0
*RES
1 *9012:X *61:10 42.1532 
2 *61:10 m_rdata[3] 8.32853 
*END

*D_NET *62 0.000487114
*CONN
*P m_rdata[4] O
*I *9013:X O *D sky130_fd_sc_hd__clkbuf_4
*CAP
1 m_rdata[4] 0.000237186
2 *9013:X 0.000237186
3 m_rdata[4] *144:15 0
4 m_rdata[4] *530:14 1.27424e-05
5 *22:15 m_rdata[4] 0
*RES
1 *9013:X m_rdata[4] 47.0789 
*END

*D_NET *63 0.00180346
*CONN
*P m_rdata[5] O
*I *9014:X O *D sky130_fd_sc_hd__clkbuf_4
*CAP
1 m_rdata[5] 0.000433955
2 *9014:X 8.52127e-05
3 *63:8 0.000519168
4 *63:8 *502:31 0.000275371
5 *63:8 *526:26 0.000489755
*RES
1 *9014:X *63:8 43.3857 
2 *63:8 m_rdata[5] 9.05214 
*END

*D_NET *64 0.00114487
*CONN
*P m_rdata[6] O
*I *9015:X O *D sky130_fd_sc_hd__clkbuf_4
*CAP
1 m_rdata[6] 0.000500606
2 *9015:X 0.000500606
3 m_rdata[6] *526:24 0.000143655
*RES
1 *9015:X m_rdata[6] 48.2743 
*END

*D_NET *65 0.00091454
*CONN
*P m_rdata[7] O
*I *9016:X O *D sky130_fd_sc_hd__clkbuf_4
*CAP
1 m_rdata[7] 9.15931e-05
2 *9016:X 0.000338171
3 *65:10 0.000429765
4 m_rdata[7] paddr[12] 0
5 m_rdata[7] pwdata[27] 0
6 *65:10 *9016:A 5.50106e-05
7 *65:10 *441:24 0
*RES
1 *9016:X *65:10 43.2096 
2 *65:10 m_rdata[7] 8.32853 
*END

*D_NET *66 0.00133945
*CONN
*P m_rdata[8] O
*I *9017:X O *D sky130_fd_sc_hd__clkbuf_4
*CAP
1 m_rdata[8] 0.000554424
2 *9017:X 0.000554424
3 m_rdata[8] *8944:A 0
4 m_rdata[8] *526:20 0.000230604
*RES
1 *9017:X m_rdata[8] 49.2271 
*END

*D_NET *67 0.000852839
*CONN
*P m_rdata[9] O
*I *9018:X O *D sky130_fd_sc_hd__clkbuf_4
*CAP
1 m_rdata[9] 9.15931e-05
2 *9018:X 0.000307321
3 *67:10 0.000398914
4 m_rdata[9] paddr[27] 0
5 m_rdata[9] pwrite 0
6 *67:10 *9018:A 5.50106e-05
7 *67:10 *441:24 0
*RES
1 *9018:X *67:10 42.5054 
2 *67:10 m_rdata[9] 8.32853 
*END

*D_NET *68 0.0018621
*CONN
*P m_ready O
*I *9019:X O *D sky130_fd_sc_hd__clkbuf_4
*CAP
1 m_ready 0.000513764
2 *9019:X 0.000238919
3 *68:8 0.000752683
4 m_ready *430:151 0
5 m_ready *529:8 0
6 *68:8 *425:16 0.00035673
7 *8903:A m_ready 0
*RES
1 *9019:X *68:8 41.9564 
2 *68:8 m_ready 10.4607 
*END

*D_NET *69 0.00100025
*CONN
*P m_req I
*I *8914:A I *D sky130_fd_sc_hd__buf_1
*CAP
1 m_req 0.000472619
2 *8914:A 0.000472619
3 *8914:A *548:22 5.50106e-05
*RES
1 m_req *8914:A 48.0257 
*END

*D_NET *70 0.000743972
*CONN
*P m_wdata[0] I
*I *8915:A I *D sky130_fd_sc_hd__clkbuf_2
*CAP
1 m_wdata[0] 0.000371986
2 *8915:A 0
3 *70:13 0.000371986
4 *70:13 pwdata[9] 0
5 *70:13 *8964:A 0
6 *70:13 *506:28 0
*RES
1 m_wdata[0] *70:13 28.4139 
2 *70:13 *8915:A 23 
*END

*D_NET *71 0.00100315
*CONN
*P m_wdata[10] I
*I *8916:A I *D sky130_fd_sc_hd__buf_1
*CAP
1 m_wdata[10] 0.000469287
2 *8916:A 0.000469287
3 *8916:A *526:26 3.22879e-05
4 *8916:A *548:26 3.22879e-05
*RES
1 m_wdata[10] *8916:A 48.1707 
*END

*D_NET *72 0.00116781
*CONN
*P m_wdata[11] I
*I *8917:A I *D sky130_fd_sc_hd__clkbuf_1
*CAP
1 m_wdata[11] 0.000475579
2 *8917:A 0.000475579
3 *8917:A *548:22 0.00014196
4 *8917:A *551:10 7.46977e-05
*RES
1 m_wdata[11] *8917:A 48.9786 
*END

*D_NET *73 0.000804297
*CONN
*P m_wdata[12] I
*I *8918:A I *D sky130_fd_sc_hd__clkbuf_1
*CAP
1 m_wdata[12] 0.000375856
2 *8918:A 0
3 *73:13 0.000375856
4 *73:13 *168:13 0
5 *73:13 *506:20 0
6 *73:13 *544:8 5.25848e-05
7 m_rdata[3] *73:13 0
*RES
1 m_wdata[12] *73:13 28.8903 
2 *73:13 *8918:A 23 
*END

*D_NET *74 0.0010426
*CONN
*P m_wdata[13] I
*I *8919:A I *D sky130_fd_sc_hd__clkbuf_2
*CAP
1 m_wdata[13] 0.000471209
2 *8919:A 0.000471209
3 *8919:A *95:15 0
4 *4:15 *8919:A 0.00010018
*RES
1 m_wdata[13] *8919:A 48.15 
*END

*D_NET *75 0.0010243
*CONN
*P m_wdata[14] I
*I *8920:A I *D sky130_fd_sc_hd__buf_1
*CAP
1 m_wdata[14] 0.000467654
2 *8920:A 0.000467654
3 *8920:A *502:31 5.67058e-05
4 *8920:A *526:26 3.22879e-05
*RES
1 m_wdata[14] *8920:A 48.1707 
*END

*D_NET *76 0.00195345
*CONN
*P m_wdata[15] I
*I *8922:A I *D sky130_fd_sc_hd__clkbuf_2
*CAP
1 m_wdata[15] 0.000965211
2 *8922:A 0
3 *76:9 0.000965211
4 *76:9 *548:6 2.30292e-05
*RES
1 m_wdata[15] *76:9 35.8179 
2 *76:9 *8922:A 23 
*END

*D_NET *77 0.00127221
*CONN
*P m_wdata[16] I
*I *8923:A I *D sky130_fd_sc_hd__buf_1
*CAP
1 m_wdata[16] 0.000400827
2 *8923:A 0
3 *77:15 0.000400827
4 *77:15 *412:18 0.000183171
5 *77:15 *492:12 0.000185803
6 *77:15 *549:6 4.00259e-06
7 *77:15 *549:8 9.75779e-05
8 *17:13 *77:15 0
9 *23:15 *77:15 0
*RES
1 m_wdata[16] *77:15 28.9585 
2 *77:15 *8923:A 23 
*END

*D_NET *78 0.00124543
*CONN
*P m_wdata[17] I
*I *8924:A I *D sky130_fd_sc_hd__dlymetal6s2s_1
*CAP
1 m_wdata[17] 0.000572031
2 *8924:A 0
3 *78:17 0.000572031
4 *78:17 paddr[29] 0
5 *78:17 *169:15 0
6 *78:17 *440:23 8.62073e-06
7 *78:17 *465:25 9.86551e-06
8 *78:17 *550:6 4.00259e-06
9 *78:17 *550:8 7.88828e-05
*RES
1 m_wdata[17] *78:17 29.5061 
2 *78:17 *8924:A 23 
*END

*D_NET *79 0.00102211
*CONN
*P m_wdata[18] I
*I *8925:A I *D sky130_fd_sc_hd__buf_1
*CAP
1 m_wdata[18] 0.000468855
2 *8925:A 0.000468855
3 *8925:A pwdata[25] 0
4 *8925:A *420:18 2.93845e-05
5 *8925:A *489:65 0
6 *8925:A *548:22 5.50106e-05
*RES
1 m_wdata[18] *8925:A 48.0257 
*END

*D_NET *80 0.00102773
*CONN
*P m_wdata[19] I
*I *8926:A I *D sky130_fd_sc_hd__buf_1
*CAP
1 m_wdata[19] 0.000455819
2 *8926:A 0.000455819
3 *8926:A *526:20 0.000116096
*RES
1 m_wdata[19] *8926:A 48.1707 
*END

*D_NET *81 0.00139103
*CONN
*P m_wdata[1] I
*I *8927:A I *D sky130_fd_sc_hd__dlymetal6s2s_1
*CAP
1 m_wdata[1] 0.000518147
2 *8927:A 0
3 *81:15 0.000518147
4 *81:15 *8981:A 0
5 *81:15 *436:10 7.7588e-05
6 *81:15 *553:6 0.000143655
7 *81:15 *607:10 8.02832e-05
8 *6:15 *81:15 5.32136e-05
*RES
1 m_wdata[1] *81:15 29.7132 
2 *81:15 *8927:A 23 
*END

*D_NET *82 0.00100656
*CONN
*P m_wdata[20] I
*I *8928:A I *D sky130_fd_sc_hd__buf_1
*CAP
1 m_wdata[20] 0.000475987
2 *8928:A 0.000475987
3 *8928:A *554:8 5.45887e-05
*RES
1 m_wdata[20] *8928:A 47.4664 
*END

*D_NET *83 0.00133025
*CONN
*P m_wdata[21] I
*I *8929:A I *D sky130_fd_sc_hd__clkbuf_1
*CAP
1 m_wdata[21] 0.000488376
2 *8929:A 0.000488376
3 *8929:A paddr[25] 0
4 *8929:A *9078:A 9.67842e-05
5 *8929:A *495:22 8.58484e-05
6 *8929:A *534:8 0.00014196
7 *8929:A *588:14 2.89076e-05
*RES
1 m_wdata[21] *8929:A 48.2743 
*END

*D_NET *84 0.00127999
*CONN
*P m_wdata[22] I
*I *8930:A I *D sky130_fd_sc_hd__dlymetal6s2s_1
*CAP
1 m_wdata[22] 0.000470821
2 *8930:A 0
3 *84:15 0.000470821
4 *84:15 paddr[14] 7.48632e-05
5 *84:15 pwdata[26] 0
6 *84:15 *436:10 7.7588e-05
7 *84:15 *440:27 4.22446e-05
8 *84:15 *556:6 0.000143655
*RES
1 m_wdata[22] *84:15 29.7132 
2 *84:15 *8930:A 23 
*END

*D_NET *85 0.00106358
*CONN
*P m_wdata[23] I
*I *8931:A I *D sky130_fd_sc_hd__buf_1
*CAP
1 m_wdata[23] 0.000498278
2 *8931:A 0.000498278
3 *8931:A *416:20 1.6966e-05
4 *8931:A *495:12 0
5 *8931:A *557:8 5.00543e-05
*RES
1 m_wdata[23] *8931:A 47.4664 
*END

*D_NET *86 0.00073832
*CONN
*P m_wdata[24] I
*I *8933:A I *D sky130_fd_sc_hd__buf_1
*CAP
1 m_wdata[24] 0.000321407
2 *8933:A 0.000321407
3 *8933:A paddr[21] 0
4 *8933:A *8966:A 3.38429e-05
5 *8933:A *559:8 6.16635e-05
*RES
1 m_wdata[24] *8933:A 49.5439 
*END

*D_NET *87 0.000998099
*CONN
*P m_wdata[25] I
*I *8934:A I *D sky130_fd_sc_hd__buf_1
*CAP
1 m_wdata[25] 0.000455074
2 *8934:A 0.000455074
3 *8934:A *416:12 0
4 *8934:A *442:47 8.18453e-05
5 *8934:A *557:16 0
6 *8934:A *610:16 6.10551e-06
*RES
1 m_wdata[25] *8934:A 47.3214 
*END

*D_NET *88 0.000650736
*CONN
*P m_wdata[26] I
*I *8935:A I *D sky130_fd_sc_hd__clkbuf_1
*CAP
1 m_wdata[26] 0.000289081
2 *8935:A 0.000289081
3 *8935:A *412:26 2.29099e-05
4 *8935:A *585:18 2.11066e-05
5 m_rdata[10] *8935:A 0
6 *17:13 *8935:A 2.85582e-05
*RES
1 m_wdata[26] *8935:A 48.7862 
*END

*D_NET *89 0.000708632
*CONN
*P m_wdata[27] I
*I *8936:A I *D sky130_fd_sc_hd__clkbuf_1
*CAP
1 m_wdata[27] 0.00030638
2 *8936:A 0
3 *89:13 0.00030638
4 *89:13 *98:13 0
5 *89:13 *562:8 9.58714e-05
6 *20:13 *89:13 0
*RES
1 m_wdata[27] *89:13 27.1296 
2 *89:13 *8936:A 23 
*END

*D_NET *90 0.00100025
*CONN
*P m_wdata[28] I
*I *8937:A I *D sky130_fd_sc_hd__buf_1
*CAP
1 m_wdata[28] 0.000472619
2 *8937:A 0.000472619
3 *8937:A *548:22 5.50106e-05
*RES
1 m_wdata[28] *8937:A 48.0257 
*END

*D_NET *91 0.00121775
*CONN
*P m_wdata[29] I
*I *8938:A I *D sky130_fd_sc_hd__clkbuf_1
*CAP
1 m_wdata[29] 0.000529323
2 *8938:A 0.000529323
3 *8938:A *451:32 2.5415e-05
4 *8938:A *462:22 0
5 *8938:A *484:28 5.47927e-05
6 *8938:A *588:14 7.88926e-05
7 *8938:A *598:22 0
*RES
1 m_wdata[29] *8938:A 48.2743 
*END

*D_NET *92 0.00215941
*CONN
*P m_wdata[2] I
*I *8939:A I *D sky130_fd_sc_hd__buf_1
*CAP
1 m_wdata[2] 0.000778529
2 *8939:A 0
3 *92:9 0.000778529
4 *92:9 paddr[9] 0
5 *92:9 *173:8 3.71251e-05
6 *92:9 *465:25 0.000247678
7 *92:9 *472:30 0.000317553
8 *56:10 *92:9 0
*RES
1 m_wdata[2] *92:9 32.7314 
2 *92:9 *8939:A 23 
*END

*D_NET *93 0.00121514
*CONN
*P m_wdata[30] I
*I *8940:A I *D sky130_fd_sc_hd__clkbuf_1
*CAP
1 m_wdata[30] 0.000495034
2 *8940:A 0.000495034
3 *8940:A *451:44 0.00014196
4 *8940:A *582:10 7.88926e-05
5 *8940:A *582:12 4.21594e-06
*RES
1 m_wdata[30] *8940:A 48.2743 
*END

*D_NET *94 0.00100315
*CONN
*P m_wdata[31] I
*I *8941:A I *D sky130_fd_sc_hd__buf_1
*CAP
1 m_wdata[31] 0.000469287
2 *8941:A 0.000469287
3 *8941:A *526:26 3.22879e-05
4 *8941:A *548:26 3.22879e-05
*RES
1 m_wdata[31] *8941:A 48.1707 
*END

*D_NET *95 0.00277647
*CONN
*P m_wdata[3] I
*I *8942:A I *D sky130_fd_sc_hd__clkbuf_2
*CAP
1 m_wdata[3] 0.0011141
2 *8942:A 0
3 *95:15 0.0011141
4 *95:15 pwdata[0] 0
5 *95:15 *165:17 1.88594e-05
6 *95:15 *471:35 0
7 *95:15 *545:8 8.41012e-05
8 *95:15 *548:6 3.71369e-05
9 *8919:A *95:15 0
10 *4:15 *95:15 0.000408168
*RES
1 m_wdata[3] *95:15 42.2457 
2 *95:15 *8942:A 23 
*END

*D_NET *96 0.00100322
*CONN
*P m_wdata[4] I
*I *8944:A I *D sky130_fd_sc_hd__dlymetal6s2s_1
*CAP
1 m_wdata[4] 0.000474106
2 *8944:A 0.000474106
3 *8944:A *428:18 0
4 *8944:A *526:20 5.50106e-05
5 m_rdata[8] *8944:A 0
*RES
1 m_wdata[4] *8944:A 48.0257 
*END

*D_NET *97 0.00102341
*CONN
*P m_wdata[5] I
*I *8945:A I *D sky130_fd_sc_hd__buf_1
*CAP
1 m_wdata[5] 0.000460829
2 *8945:A 0.000460829
3 *8945:A *548:20 0.000101751
*RES
1 m_wdata[5] *8945:A 48.1707 
*END

*D_NET *98 0.000836017
*CONN
*P m_wdata[6] I
*I *8946:A I *D sky130_fd_sc_hd__clkbuf_1
*CAP
1 m_wdata[6] 0.000373362
2 *8946:A 0
3 *98:13 0.000373362
4 *98:13 pwdata[17] 3.25681e-05
5 *98:13 *180:12 7.06257e-06
6 *98:13 *441:24 0
7 *98:13 *572:10 4.9662e-05
8 *89:13 *98:13 0
*RES
1 m_wdata[6] *98:13 28.8903 
2 *98:13 *8946:A 23 
*END

*D_NET *99 0.0011717
*CONN
*P m_wdata[7] I
*I *8947:A I *D sky130_fd_sc_hd__clkbuf_1
*CAP
1 m_wdata[7] 0.000485702
2 *8947:A 0.000485702
3 *8947:A paddr[22] 0
4 *8947:A *526:26 0.00014196
5 *8947:A *548:26 5.83407e-05
*RES
1 m_wdata[7] *8947:A 49.1236 
*END

*D_NET *100 0.000961385
*CONN
*P m_wdata[8] I
*I *8948:A I *D sky130_fd_sc_hd__buf_1
*CAP
1 m_wdata[8] 0.000480693
2 *8948:A 0.000480693
*RES
1 m_wdata[8] *8948:A 47.4664 
*END

*D_NET *101 0.00111319
*CONN
*P m_wdata[9] I
*I *8949:A I *D sky130_fd_sc_hd__buf_1
*CAP
1 m_wdata[9] 0.000349463
2 *8949:A 0.000349463
3 *8949:A pwdata[6] 0.000357562
4 *8949:A *200:8 5.67058e-05
*RES
1 m_wdata[9] *8949:A 48.1707 
*END

*D_NET *102 0.000938984
*CONN
*P m_write I
*I *8950:A I *D sky130_fd_sc_hd__clkbuf_2
*CAP
1 m_write 0.000469492
2 *8950:A 0.000469492
*RES
1 m_write *8950:A 47.4457 
*END

*D_NET *103 0.00100538
*CONN
*P paddr[0] O
*I *9020:X O *D sky130_fd_sc_hd__clkbuf_4
*CAP
1 paddr[0] 0.000318205
2 *9020:X 0.000318205
3 paddr[0] *418:24 0.000185803
4 paddr[0] *423:22 0.000183171
5 *7:13 paddr[0] 0
6 *23:15 paddr[0] 0
*RES
1 *9020:X paddr[0] 49.1918 
*END

*D_NET *104 0.000807461
*CONN
*P paddr[10] O
*I *9021:X O *D sky130_fd_sc_hd__buf_2
*CAP
1 paddr[10] 0.000330412
2 *9021:X 0.000330412
3 paddr[10] paddr[30] 0
4 paddr[10] pwdata[31] 0
5 paddr[10] *412:30 7.20154e-05
6 paddr[10] *418:28 7.46212e-05
*RES
1 *9021:X paddr[10] 47.8691 
*END

*D_NET *105 0.000742194
*CONN
*P paddr[11] O
*I *9022:X O *D sky130_fd_sc_hd__clkbuf_4
*CAP
1 paddr[11] 6.90639e-05
2 *9022:X 0.000274825
3 *105:12 0.000343889
4 paddr[11] *8951:A 0
5 paddr[11] *168:13 3.49463e-05
6 *105:12 *168:13 0
7 *105:12 *433:23 1.94693e-05
*RES
1 *9022:X *105:12 49.8011 
2 *105:12 paddr[11] 0.328533 
*END

*D_NET *106 0.000760967
*CONN
*P paddr[12] O
*I *9023:X O *D sky130_fd_sc_hd__clkbuf_4
*CAP
1 paddr[12] 9.15931e-05
2 *9023:X 0.00027915
3 *106:12 0.000370743
4 *106:12 *434:29 1.94812e-05
5 m_rdata[25] paddr[12] 0
6 m_rdata[7] paddr[12] 0
*RES
1 *9023:X *106:12 49.8011 
2 *106:12 paddr[12] 0.328533 
*END

*D_NET *107 0.000804888
*CONN
*P paddr[13] O
*I *9024:X O *D sky130_fd_sc_hd__clkbuf_4
*CAP
1 paddr[13] 9.88224e-05
2 *9024:X 0.000275269
3 *107:10 0.000374091
4 paddr[13] paddr[16] 0
5 paddr[13] *158:13 0
6 *107:10 *170:10 0
7 *107:10 *435:36 5.67058e-05
8 *107:10 *439:34 0
*RES
1 *9024:X *107:10 42.1532 
2 *107:10 paddr[13] 8.32853 
*END

*D_NET *108 0.000777402
*CONN
*P paddr[14] O
*I *9025:X O *D sky130_fd_sc_hd__buf_2
*CAP
1 paddr[14] 0.000279892
2 *9025:X 0.000279892
3 paddr[14] paddr[28] 0
4 paddr[14] *436:10 8.22421e-06
5 paddr[14] *440:27 0.000105578
6 paddr[14] *465:25 2.89538e-05
7 *84:15 paddr[14] 7.48632e-05
*RES
1 *9025:X paddr[14] 48.2212 
*END

*D_NET *109 0.00142618
*CONN
*P paddr[15] O
*I *9026:X O *D sky130_fd_sc_hd__clkbuf_4
*CAP
1 paddr[15] 0.000434807
2 *9026:X 0.000250885
3 *109:12 0.000685692
4 paddr[15] paddr[28] 0
5 paddr[15] *159:15 0
6 *109:12 *9026:A 5.47927e-05
7 *109:12 *440:27 0
*RES
1 *9026:X *109:12 49.7804 
2 *109:12 paddr[15] 1.35893 
*END

*D_NET *110 0.00137351
*CONN
*P paddr[16] O
*I *9027:X O *D sky130_fd_sc_hd__clkbuf_4
*CAP
1 paddr[16] 0.000377006
2 *9027:X 0.000273354
3 *110:14 0.000650359
4 paddr[16] *151:11 0
5 *110:14 *151:11 1.02387e-05
6 *110:14 *477:44 4.9808e-05
7 *110:14 *593:8 1.27424e-05
8 paddr[13] paddr[16] 0
*RES
1 *9027:X *110:14 49.5059 
2 *110:14 paddr[16] 1.23013 
*END

*D_NET *111 0.000705301
*CONN
*P paddr[17] O
*I *9028:X O *D sky130_fd_sc_hd__buf_2
*CAP
1 paddr[17] 0.000311112
2 *9028:X 0.000311112
3 paddr[17] paddr[31] 4.40799e-05
4 paddr[17] *159:15 0
5 paddr[17] *465:25 3.89972e-05
*RES
1 *9028:X paddr[17] 48.5734 
*END

*D_NET *112 0.000792707
*CONN
*P paddr[18] O
*I *9029:X O *D sky130_fd_sc_hd__clkbuf_4
*CAP
1 paddr[18] 7.61298e-05
2 *9029:X 0.00030394
3 *112:10 0.000380069
4 *112:10 *441:24 0
5 m_rdata[11] paddr[18] 3.25681e-05
6 *8907:A paddr[18] 0
*RES
1 *9029:X *112:10 42.1532 
2 *112:10 paddr[18] 8.32853 
*END

*D_NET *113 0.00140236
*CONN
*P paddr[19] O
*I *9030:X O *D sky130_fd_sc_hd__clkbuf_4
*CAP
1 paddr[19] 5.47713e-05
2 *9030:X 0.000620139
3 *113:12 0.000674911
4 *113:12 *406:14 1.8501e-05
5 *113:12 *442:57 3.40395e-05
6 m_rdata[17] *113:12 0
*RES
1 *9030:X *113:12 49.6932 
2 *113:12 paddr[19] 2.2475 
*END

*D_NET *114 0.00114487
*CONN
*P paddr[1] O
*I *9031:X O *D sky130_fd_sc_hd__clkbuf_4
*CAP
1 paddr[1] 0.000500606
2 *9031:X 0.000500606
3 paddr[1] paddr[4] 0
4 paddr[1] *526:24 0.000143655
*RES
1 *9031:X paddr[1] 48.2743 
*END

*D_NET *115 0.00115002
*CONN
*P paddr[20] O
*I *9032:X O *D sky130_fd_sc_hd__clkbuf_4
*CAP
1 paddr[20] 0.000498112
2 *9032:X 0.000498112
3 paddr[20] *526:32 1.01436e-05
4 paddr[20] *548:22 0.000143655
5 *8892:A paddr[20] 0
*RES
1 *9032:X paddr[20] 48.2743 
*END

*D_NET *116 0.000687654
*CONN
*P paddr[21] O
*I *9033:X O *D sky130_fd_sc_hd__clkbuf_4
*CAP
1 paddr[21] 0.000343827
2 *9033:X 0.000343827
3 m_rdata[31] paddr[21] 0
4 *8933:A paddr[21] 0
*RES
1 *9033:X paddr[21] 47.6887 
*END

*D_NET *117 0.00143435
*CONN
*P paddr[22] O
*I *9034:X O *D sky130_fd_sc_hd__clkbuf_4
*CAP
1 paddr[22] 0.000433955
2 *9034:X 5.05111e-05
3 *117:8 0.000484466
4 *117:8 *9034:A 0.000141954
5 *117:8 *526:26 0.000272383
6 *117:8 *548:26 5.10805e-05
7 *8947:A paddr[22] 0
*RES
1 *9034:X *117:8 41.0036 
2 *117:8 paddr[22] 9.05214 
*END

*D_NET *118 0.00138728
*CONN
*P paddr[23] O
*I *9035:X O *D sky130_fd_sc_hd__clkbuf_4
*CAP
1 paddr[23] 0.000380543
2 *9035:X 0.000264547
3 *118:10 0.00064509
4 paddr[23] *8978:A 0
5 *118:10 *393:10 9.71035e-05
*RES
1 *9035:X *118:10 42.1014 
2 *118:10 paddr[23] 7.99571 
*END

*D_NET *119 0.00082067
*CONN
*P paddr[24] O
*I *9036:X O *D sky130_fd_sc_hd__clkbuf_4
*CAP
1 paddr[24] 9.75781e-05
2 *9036:X 0.000307495
3 *119:10 0.000405073
4 paddr[24] pwdata[13] 0
5 *119:10 *441:24 0
6 *119:10 *449:22 1.05235e-05
7 *20:13 paddr[24] 0
*RES
1 *9036:X *119:10 42.1532 
2 *119:10 paddr[24] 8.32853 
*END

*D_NET *120 0.00122229
*CONN
*P paddr[25] O
*I *9037:X O *D sky130_fd_sc_hd__clkbuf_4
*CAP
1 paddr[25] 0.000605424
2 *9037:X 0.000605424
3 paddr[25] *450:20 1.14452e-05
4 *8929:A paddr[25] 0
*RES
1 *9037:X paddr[25] 49.0407 
*END

*D_NET *121 0.000916447
*CONN
*P paddr[26] O
*I *9038:X O *D sky130_fd_sc_hd__clkbuf_4
*CAP
1 paddr[26] 0.000398359
2 *9038:X 0.000398359
3 paddr[26] *463:26 0.000119729
*RES
1 *9038:X paddr[26] 46.7621 
*END

*D_NET *122 0.000852225
*CONN
*P paddr[27] O
*I *9039:X O *D sky130_fd_sc_hd__clkbuf_4
*CAP
1 paddr[27] 7.50488e-05
2 *9039:X 0.000263912
3 *122:10 0.000338961
4 paddr[27] pwdata[27] 3.49463e-05
5 *122:10 *9039:A 0.000139357
6 *122:10 *191:12 0
7 m_rdata[9] paddr[27] 0
*RES
1 *9039:X *122:10 42.7539 
2 *122:10 paddr[27] 8.32853 
*END

*D_NET *123 0.000610583
*CONN
*P paddr[28] O
*I *9040:X O *D sky130_fd_sc_hd__clkbuf_4
*CAP
1 paddr[28] 0.00028093
2 *9040:X 0.00028093
3 paddr[28] *440:27 2.74987e-05
4 paddr[28] *465:25 2.12234e-05
5 paddr[14] paddr[28] 0
6 paddr[15] paddr[28] 0
*RES
1 *9040:X paddr[28] 48.0525 
*END

*D_NET *124 0.000626426
*CONN
*P paddr[29] O
*I *9041:X O *D sky130_fd_sc_hd__buf_2
*CAP
1 paddr[29] 0.000286686
2 *9041:X 0.000286686
3 paddr[29] penable 0
4 paddr[29] *412:14 0
5 paddr[29] *440:23 3.34756e-05
6 paddr[29] *465:25 1.95789e-05
7 *78:17 paddr[29] 0
*RES
1 *9041:X paddr[29] 47.8691 
*END

*D_NET *125 0.000953279
*CONN
*P paddr[2] O
*I *9042:X O *D sky130_fd_sc_hd__clkbuf_4
*CAP
1 paddr[2] 0.00047664
2 *9042:X 0.00047664
3 m_rdata[21] paddr[2] 0
*RES
1 *9042:X paddr[2] 46.6171 
*END

*D_NET *126 0.000677317
*CONN
*P paddr[30] O
*I *9043:X O *D sky130_fd_sc_hd__buf_2
*CAP
1 paddr[30] 0.000314313
2 *9043:X 0.000314313
3 paddr[30] *412:30 2.33476e-05
4 paddr[30] *418:28 2.5343e-05
5 m_rdata[10] paddr[30] 0
6 paddr[10] paddr[30] 0
*RES
1 *9043:X paddr[30] 47.1648 
*END

*D_NET *127 0.000782226
*CONN
*P paddr[31] O
*I *9044:X O *D sky130_fd_sc_hd__buf_2
*CAP
1 paddr[31] 8.8735e-05
2 *9044:X 0.000258854
3 *127:12 0.000347589
4 *127:12 *465:25 4.29668e-05
5 m_rdata[28] paddr[31] 0
6 paddr[17] paddr[31] 4.40799e-05
*RES
1 *9044:X *127:12 42.0496 
2 *127:12 paddr[31] 8.4144 
*END

*D_NET *128 0.00113667
*CONN
*P paddr[3] O
*I *9045:X O *D sky130_fd_sc_hd__clkbuf_4
*CAP
1 paddr[3] 0.0005183
2 *9045:X 0.0005183
3 paddr[3] *526:20 0.000100069
*RES
1 *9045:X paddr[3] 48.2743 
*END

*D_NET *129 0.00114487
*CONN
*P paddr[4] O
*I *9046:X O *D sky130_fd_sc_hd__clkbuf_4
*CAP
1 paddr[4] 0.000500606
2 *9046:X 0.000500606
3 paddr[4] *526:24 0.000143655
4 paddr[1] paddr[4] 0
*RES
1 *9046:X paddr[4] 48.2743 
*END

*D_NET *130 0.00124447
*CONN
*P paddr[5] O
*I *9047:X O *D sky130_fd_sc_hd__clkbuf_4
*CAP
1 paddr[5] 0.000551253
2 *9047:X 0.000551253
3 paddr[5] *476:14 0.00014196
4 paddr[5] *554:28 0
*RES
1 *9047:X paddr[5] 47.57 
*END

*D_NET *131 0.00106419
*CONN
*P paddr[6] O
*I *9048:X O *D sky130_fd_sc_hd__clkbuf_4
*CAP
1 paddr[6] 0.000532094
2 *9048:X 0.000532094
*RES
1 *9048:X paddr[6] 47.715 
*END

*D_NET *132 0.00127112
*CONN
*P paddr[7] O
*I *9049:X O *D sky130_fd_sc_hd__clkbuf_4
*CAP
1 paddr[7] 0.000604099
2 *9049:X 0.000604099
3 paddr[7] *151:11 0
4 paddr[7] *463:26 3.22879e-05
5 paddr[7] *477:44 3.06297e-05
*RES
1 *9049:X paddr[7] 49.2893 
*END

*D_NET *133 0.00122704
*CONN
*P paddr[8] O
*I *9050:X O *D sky130_fd_sc_hd__clkbuf_4
*CAP
1 paddr[8] 2.12208e-05
2 *9050:X 0.000582557
3 *133:16 0.000603778
4 *133:16 *414:16 1.94812e-05
5 m_rdata[19] *133:16 0
*RES
1 *9050:X *133:16 49.7346 
2 *133:16 paddr[8] 0.776786 
*END

*D_NET *134 0.000863172
*CONN
*P paddr[9] O
*I *9051:X O *D sky130_fd_sc_hd__clkbuf_4
*CAP
1 paddr[9] 0.000364271
2 *9051:X 0.000364271
3 *55:10 paddr[9] 6.00083e-05
4 *56:10 paddr[9] 7.46212e-05
5 *92:9 paddr[9] 0
*RES
1 *9051:X paddr[9] 46.7621 
*END

*D_NET *135 0.00114487
*CONN
*P pclk O
*I *9052:X O *D sky130_fd_sc_hd__buf_1
*CAP
1 pclk 0.000500606
2 *9052:X 0.000500606
3 pclk pwdata[11] 0
4 pclk *9058:A 0.000143655
*RES
1 *9052:X pclk 48.2743 
*END

*D_NET *136 0.000610163
*CONN
*P penable O
*I *9053:X O *D sky130_fd_sc_hd__buf_2
*CAP
1 penable 0.00026127
2 *9053:X 0.00026127
3 penable *205:13 0
4 penable *412:14 7.82869e-05
5 penable *490:10 9.33529e-06
6 paddr[29] penable 0
*RES
1 *9053:X penable 47.1648 
*END

*D_NET *137 0.000752195
*CONN
*P prdata[0] I
*I *8951:A I *D sky130_fd_sc_hd__buf_1
*CAP
1 prdata[0] 0.000349492
2 *8951:A 0.000349492
3 *8951:A *506:22 5.32119e-05
4 paddr[11] *8951:A 0
5 *8895:A *8951:A 0
*RES
1 prdata[0] *8951:A 48.5012 
*END

*D_NET *138 0.00101548
*CONN
*P prdata[10] I
*I *8952:A I *D sky130_fd_sc_hd__buf_1
*CAP
1 prdata[10] 0.00047377
2 *8952:A 0.00047377
3 *8952:A *502:31 1.24376e-05
4 *8952:A *526:26 3.22879e-05
5 *8952:A *548:26 2.32101e-05
*RES
1 prdata[10] *8952:A 48.1707 
*END

*D_NET *139 0.00073566
*CONN
*P prdata[11] I
*I *8953:A I *D sky130_fd_sc_hd__clkbuf_1
*CAP
1 prdata[11] 0.000341537
2 *8953:A 0
3 *139:13 0.000341537
4 *139:13 *506:20 0
5 *139:13 *579:10 5.25848e-05
6 m_rdata[3] *139:13 0
7 *14:13 *139:13 0
*RES
1 prdata[11] *139:13 27.8339 
2 *139:13 *8953:A 23 
*END

*D_NET *140 0.000782805
*CONN
*P prdata[12] I
*I *8955:A I *D sky130_fd_sc_hd__buf_1
*CAP
1 prdata[12] 0.000361552
2 *8955:A 0.000361552
3 *8955:A *386:33 3.84556e-05
4 m_rdata[18] *8955:A 0
5 *14:13 *8955:A 2.12457e-05
*RES
1 prdata[12] *8955:A 48.1491 
*END

*D_NET *141 0.000995455
*CONN
*P prdata[13] I
*I *8956:A I *D sky130_fd_sc_hd__buf_1
*CAP
1 prdata[13] 0.000497728
2 *8956:A 0.000497728
*RES
1 prdata[13] *8956:A 47.3214 
*END

*D_NET *142 0.000903596
*CONN
*P prdata[14] I
*I *8957:A I *D sky130_fd_sc_hd__buf_1
*CAP
1 prdata[14] 0.000387418
2 *8957:A 0
3 *142:15 0.000387418
4 *142:15 pwdata[26] 0
5 *142:15 *8981:A 0
6 *142:15 *465:25 7.46212e-05
7 *142:15 *583:8 5.41385e-05
*RES
1 prdata[14] *142:15 27.9021 
2 *142:15 *8957:A 23 
*END

*D_NET *143 0.00102107
*CONN
*P prdata[15] I
*I *8958:A I *D sky130_fd_sc_hd__buf_1
*CAP
1 prdata[15] 0.000412984
2 *8958:A 0.000412984
3 *8958:A *402:12 0
4 *8958:A *463:14 0
5 *8958:A *477:30 8.57661e-05
6 *8958:A *606:12 0.000109333
*RES
1 prdata[15] *8958:A 47.3214 
*END

*D_NET *144 0.000950088
*CONN
*P prdata[16] I
*I *8959:A I *D sky130_fd_sc_hd__clkbuf_2
*CAP
1 prdata[16] 0.000351328
2 *8959:A 0
3 *144:15 0.000351328
4 *144:15 *530:14 2.2781e-05
5 *144:15 *585:8 0.00014196
6 *144:15 *585:12 3.23515e-05
7 m_rdata[29] *144:15 5.0341e-05
8 m_rdata[4] *144:15 0
*RES
1 prdata[16] *144:15 28.2542 
2 *144:15 *8959:A 23 
*END

*D_NET *145 0.000645471
*CONN
*P prdata[17] I
*I *8960:A I *D sky130_fd_sc_hd__buf_1
*CAP
1 prdata[17] 0.000306452
2 *8960:A 0
3 *145:13 0.000306452
4 *145:13 *8964:A 0
5 *145:13 *506:22 0
6 m_rdata[13] *145:13 3.25681e-05
7 *40:12 *145:13 0
*RES
1 prdata[17] *145:13 27.5853 
2 *145:13 *8960:A 23 
*END

*D_NET *146 0.00103179
*CONN
*P prdata[18] I
*I *8961:A I *D sky130_fd_sc_hd__buf_1
*CAP
1 prdata[18] 0.000473522
2 *8961:A 0.000473522
3 *8961:A *526:26 5.56356e-05
4 *8961:A *548:26 2.91094e-05
*RES
1 prdata[18] *8961:A 48.1707 
*END

*D_NET *147 0.000973898
*CONN
*P prdata[19] I
*I *8962:A I *D sky130_fd_sc_hd__buf_1
*CAP
1 prdata[19] 0.000486949
2 *8962:A 0.000486949
3 *8962:A *407:12 0
4 m_rdata[1] *8962:A 0
*RES
1 prdata[19] *8962:A 47.4664 
*END

*D_NET *148 0.000873217
*CONN
*P prdata[1] I
*I *8963:A I *D sky130_fd_sc_hd__buf_1
*CAP
1 prdata[1] 0.00038368
2 *8963:A 0
3 *148:13 0.00038368
4 *148:13 *465:25 0.000105857
5 m_rdata[2] *148:13 0
6 *21:13 *148:13 0
*RES
1 prdata[1] *148:13 27.4049 
2 *148:13 *8963:A 23 
*END

*D_NET *149 0.000504257
*CONN
*P prdata[20] I
*I *8964:A I *D sky130_fd_sc_hd__dlymetal6s2s_1
*CAP
1 prdata[20] 0.000252128
2 *8964:A 0.000252128
3 *70:13 *8964:A 0
4 *145:13 *8964:A 0
*RES
1 prdata[20] *8964:A 49.1767 
*END

*D_NET *150 0.000543947
*CONN
*P prdata[21] I
*I *8966:A I *D sky130_fd_sc_hd__buf_1
*CAP
1 prdata[21] 0.000255052
2 *8966:A 0.000255052
3 *8966:A *158:13 0
4 *8966:A *559:8 0
5 *8933:A *8966:A 3.38429e-05
*RES
1 prdata[21] *8966:A 49.5289 
*END

*D_NET *151 0.00140614
*CONN
*P prdata[22] I
*I *8967:A I *D sky130_fd_sc_hd__clkbuf_2
*CAP
1 prdata[22] 0.000655543
2 *8967:A 0
3 *151:11 0.000655543
4 *151:11 presetn 0
5 *151:11 *593:8 8.48189e-05
6 paddr[16] *151:11 0
7 paddr[7] *151:11 0
8 *110:14 *151:11 1.02387e-05
*RES
1 prdata[22] *151:11 32.2641 
2 *151:11 *8967:A 23 
*END

*D_NET *152 0.00136932
*CONN
*P prdata[23] I
*I *8968:A I *D sky130_fd_sc_hd__buf_1
*CAP
1 prdata[23] 0.000413674
2 *8968:A 0
3 *152:15 0.000413674
4 *152:15 *160:11 0.000205566
5 *152:15 *401:22 2.4754e-05
6 *152:15 *526:6 0.000274078
7 m_rdata[11] *152:15 0
8 *25:11 *152:15 3.75708e-05
*RES
1 prdata[23] *152:15 31.1128 
2 *152:15 *8968:A 23 
*END

*D_NET *153 0.000673153
*CONN
*P prdata[24] I
*I *8969:A I *D sky130_fd_sc_hd__clkbuf_2
*CAP
1 prdata[24] 0.000319104
2 *8969:A 0
3 *153:13 0.000319104
4 *153:13 pwdata[9] 0
5 *153:13 *8983:A 3.49463e-05
6 *153:13 *609:10 0
*RES
1 prdata[24] *153:13 27.7096 
2 *153:13 *8969:A 23 
*END

*D_NET *154 0.0013672
*CONN
*P prdata[25] I
*I *8970:A I *D sky130_fd_sc_hd__dlymetal6s2s_1
*CAP
1 prdata[25] 0.000607384
2 *8970:A 0
3 *154:13 0.000607384
4 *154:13 *545:8 6.37358e-05
5 *154:13 *568:8 8.87011e-05
6 *3:11 *154:13 0
7 *22:15 *154:13 0
*RES
1 prdata[25] *154:13 27.8907 
2 *154:13 *8970:A 23 
*END

*D_NET *155 0.00100025
*CONN
*P prdata[26] I
*I *8971:A I *D sky130_fd_sc_hd__buf_1
*CAP
1 prdata[26] 0.000472619
2 *8971:A 0.000472619
3 *8971:A *548:22 5.50106e-05
*RES
1 prdata[26] *8971:A 48.0257 
*END

*D_NET *156 0.00102779
*CONN
*P prdata[27] I
*I *8972:A I *D sky130_fd_sc_hd__buf_1
*CAP
1 prdata[27] 0.000513896
2 *8972:A 0.000513896
*RES
1 prdata[27] *8972:A 47.3214 
*END

*D_NET *157 0.000728334
*CONN
*P prdata[28] I
*I *8973:A I *D sky130_fd_sc_hd__clkbuf_1
*CAP
1 prdata[28] 0.000346186
2 *8973:A 0
3 *157:15 0.000346186
4 *157:15 *465:25 3.59619e-05
5 *9:15 *157:15 0
6 *21:13 *157:15 0
*RES
1 prdata[28] *157:15 27.3398 
2 *157:15 *8973:A 23 
*END

*D_NET *158 0.000676774
*CONN
*P prdata[29] I
*I *8974:A I *D sky130_fd_sc_hd__buf_2
*CAP
1 prdata[29] 0.000338387
2 *8974:A 0
3 *158:13 0.000338387
4 paddr[13] *158:13 0
5 *8966:A *158:13 0
*RES
1 prdata[29] *158:13 27.9375 
2 *158:13 *8974:A 23 
*END

*D_NET *159 0.000718799
*CONN
*P prdata[2] I
*I *8975:A I *D sky130_fd_sc_hd__buf_1
*CAP
1 prdata[2] 0.000328563
2 *8975:A 0
3 *159:15 0.000328563
4 *159:15 *465:25 2.44846e-05
5 *159:15 *601:6 3.71887e-05
6 paddr[15] *159:15 0
7 paddr[17] *159:15 0
*RES
1 prdata[2] *159:15 27.1978 
2 *159:15 *8975:A 23 
*END

*D_NET *160 0.00198884
*CONN
*P prdata[30] I
*I *8977:A I *D sky130_fd_sc_hd__clkbuf_2
*CAP
1 prdata[30] 0.000891635
2 *8977:A 0
3 *160:11 0.000891635
4 m_rdata[15] *160:11 0
5 *25:11 *160:11 0
6 *38:10 *160:11 0
7 *152:15 *160:11 0.000205566
*RES
1 prdata[30] *160:11 34.4093 
2 *160:11 *8977:A 23 
*END

*D_NET *161 0.00116499
*CONN
*P prdata[31] I
*I *8978:A I *D sky130_fd_sc_hd__buf_1
*CAP
1 prdata[31] 0.000540664
2 *8978:A 0.000540664
3 *8978:A *393:10 7.88926e-05
4 *8978:A *447:23 4.77164e-06
5 paddr[23] *8978:A 0
*RES
1 prdata[31] *8978:A 49.5171 
*END

*D_NET *162 0.000963119
*CONN
*P prdata[3] I
*I *8979:A I *D sky130_fd_sc_hd__buf_1
*CAP
1 prdata[3] 0.000481559
2 *8979:A 0.000481559
*RES
1 prdata[3] *8979:A 47.3214 
*END

*D_NET *163 0.00106327
*CONN
*P prdata[4] I
*I *8980:A I *D sky130_fd_sc_hd__buf_1
*CAP
1 prdata[4] 0.00045407
2 *8980:A 0.00045407
3 *8980:A *598:34 0.000155132
*RES
1 prdata[4] *8980:A 47.3214 
*END

*D_NET *164 0.000711232
*CONN
*P prdata[5] I
*I *8981:A I *D sky130_fd_sc_hd__clkbuf_2
*CAP
1 prdata[5] 0.000344055
2 *8981:A 0.000344055
3 *8981:A *465:25 2.31209e-05
4 *81:15 *8981:A 0
5 *142:15 *8981:A 0
*RES
1 prdata[5] *8981:A 49.3485 
*END

*D_NET *165 0.00204648
*CONN
*P prdata[6] I
*I *8982:A I *D sky130_fd_sc_hd__buf_1
*CAP
1 prdata[6] 0.000759605
2 *8982:A 0
3 *165:17 0.000759605
4 *165:17 *8992:A 0
5 *165:17 *471:35 4.9808e-05
6 *165:17 *608:8 0.00010018
7 *4:15 *165:17 0.000358425
8 *27:13 *165:17 0
9 *95:15 *165:17 1.88594e-05
*RES
1 prdata[6] *165:17 32.1933 
2 *165:17 *8982:A 23 
*END

*D_NET *166 0.000712928
*CONN
*P prdata[7] I
*I *8983:A I *D sky130_fd_sc_hd__buf_1
*CAP
1 prdata[7] 0.000338991
2 *8983:A 0.000338991
3 *8983:A pwdata[30] 0
4 *153:13 *8983:A 3.49463e-05
*RES
1 prdata[7] *8983:A 49.5439 
*END

*D_NET *167 0.00091953
*CONN
*P prdata[8] I
*I *8984:A I *D sky130_fd_sc_hd__clkbuf_2
*CAP
1 prdata[8] 0.000440917
2 *8984:A 0.000440917
3 *8984:A *610:10 3.76959e-05
*RES
1 prdata[8] *8984:A 47.5907 
*END

*D_NET *168 0.000632805
*CONN
*P prdata[9] I
*I *8985:A I *D sky130_fd_sc_hd__clkbuf_1
*CAP
1 prdata[9] 0.000280367
2 *8985:A 0
3 *168:13 0.000280367
4 *168:13 *611:8 3.71251e-05
5 paddr[11] *168:13 3.49463e-05
6 *73:13 *168:13 0
7 *105:12 *168:13 0
*RES
1 prdata[9] *168:13 27.1296 
2 *168:13 *8985:A 23 
*END

*D_NET *169 0.000902275
*CONN
*P pready I
*I *8986:A I *D sky130_fd_sc_hd__buf_1
*CAP
1 pready 0.000372631
2 *8986:A 0
3 *169:15 0.000372631
4 *169:15 *465:25 7.46212e-05
5 *169:15 *612:8 4.06849e-05
6 *9:15 *169:15 4.1708e-05
7 *78:17 *169:15 0
*RES
1 pready *169:15 27.9021 
2 *169:15 *8986:A 23 
*END

*D_NET *170 0.00208129
*CONN
*P presetn O
*I *9054:X O *D sky130_fd_sc_hd__clkbuf_4
*CAP
1 presetn 0.00051479
2 *9054:X 0.000496632
3 *170:10 0.00101142
4 presetn pwdata[15] 0
5 *170:10 *178:8 5.84489e-05
6 *107:10 *170:10 0
7 *151:11 presetn 0
*RES
1 *9054:X *170:10 47.2179 
2 *170:10 presetn 11.165 
*END

*D_NET *171 0.00070273
*CONN
*P psel O
*I *9055:X O *D sky130_fd_sc_hd__buf_2
*CAP
1 psel 0.000327689
2 *9055:X 0.000327689
3 psel pwdata[28] 0
4 psel *412:30 2.26497e-05
5 psel *503:14 2.47015e-05
6 *11:13 psel 0
*RES
1 *9055:X psel 47.1648 
*END

*D_NET *172 0.000998411
*CONN
*P pwdata[0] O
*I *9056:X O *D sky130_fd_sc_hd__clkbuf_4
*CAP
1 pwdata[0] 0.000499206
2 *9056:X 0.000499206
3 *4:15 pwdata[0] 0
4 *95:15 pwdata[0] 0
*RES
1 *9056:X pwdata[0] 47.7979 
*END

*D_NET *173 0.00189611
*CONN
*P pwdata[10] O
*I *9057:X O *D sky130_fd_sc_hd__clkbuf_4
*CAP
1 pwdata[10] 0.000480781
2 *9057:X 0.000448712
3 *173:8 0.000929493
4 *92:9 *173:8 3.71251e-05
*RES
1 *9057:X *173:8 45.7679 
2 *173:8 pwdata[10] 10.8129 
*END

*D_NET *174 0.00160978
*CONN
*P pwdata[11] O
*I *9058:X O *D sky130_fd_sc_hd__clkbuf_4
*CAP
1 pwdata[11] 0.00040842
2 *9058:X 0.000228867
3 *174:8 0.000637287
4 *174:8 *8992:A 1.76557e-05
5 *174:8 *9058:A 0.000317553
6 pclk pwdata[11] 0
*RES
1 *9058:X *174:8 41.9564 
2 *174:8 pwdata[11] 8.7 
*END

*D_NET *175 0.000767869
*CONN
*P pwdata[12] O
*I *9059:X O *D sky130_fd_sc_hd__clkbuf_4
*CAP
1 pwdata[12] 9.19841e-05
2 *9059:X 0.000283996
3 *175:12 0.00037598
4 pwdata[12] pwdata[1] 0
5 *175:12 *9059:A 1.59094e-05
6 *24:13 pwdata[12] 0
*RES
1 *9059:X *175:12 49.8011 
2 *175:12 pwdata[12] 0.328533 
*END

*D_NET *176 0.000843197
*CONN
*P pwdata[13] O
*I *9060:X O *D sky130_fd_sc_hd__clkbuf_4
*CAP
1 pwdata[13] 7.59441e-05
2 *9060:X 0.000320778
3 *176:10 0.000396722
4 *176:10 *441:24 0
5 *176:10 *475:12 1.59094e-05
6 paddr[24] pwdata[13] 0
7 *24:13 pwdata[13] 3.38429e-05
8 *24:13 *176:10 0
*RES
1 *9060:X *176:10 42.5054 
2 *176:10 pwdata[13] 8.32853 
*END

*D_NET *177 0.00145379
*CONN
*P pwdata[14] O
*I *9061:X O *D sky130_fd_sc_hd__clkbuf_4
*CAP
1 pwdata[14] 0.000662728
2 *9061:X 0.000662728
3 pwdata[14] pwdata[3] 0
4 pwdata[14] *9081:A 7.08393e-05
5 pwdata[14] *476:14 5.7493e-05
*RES
1 *9061:X pwdata[14] 48.6679 
*END

*D_NET *178 0.00219281
*CONN
*P pwdata[15] O
*I *9062:X O *D sky130_fd_sc_hd__clkbuf_4
*CAP
1 pwdata[15] 0.000434506
2 *9062:X 0.000632675
3 *178:8 0.00106718
4 presetn pwdata[15] 0
5 *170:10 *178:8 5.84489e-05
*RES
1 *9062:X *178:8 48.15 
2 *178:8 pwdata[15] 9.75643 
*END

*D_NET *179 0.0011019
*CONN
*P pwdata[16] O
*I *9063:X O *D sky130_fd_sc_hd__clkbuf_4
*CAP
1 pwdata[16] 0.000550952
2 *9063:X 0.000550952
*RES
1 *9063:X pwdata[16] 47.57 
*END

*D_NET *180 0.000802332
*CONN
*P pwdata[17] O
*I *9064:X O *D sky130_fd_sc_hd__clkbuf_4
*CAP
1 pwdata[17] 7.61298e-05
2 *9064:X 0.000278569
3 *180:12 0.000354699
4 *180:12 *9064:A 5.3304e-05
5 m_rdata[25] pwdata[17] 0
6 *98:13 pwdata[17] 3.25681e-05
7 *98:13 *180:12 7.06257e-06
*RES
1 *9064:X *180:12 49.8011 
2 *180:12 pwdata[17] 0.328533 
*END

*D_NET *181 0.00130128
*CONN
*P pwdata[18] O
*I *9065:X O *D sky130_fd_sc_hd__clkbuf_4
*CAP
1 pwdata[18] 0.000556763
2 *9065:X 0.000556763
3 pwdata[18] *526:20 0.000187752
*RES
1 *9065:X pwdata[18] 49.5171 
*END

*D_NET *182 0.00139808
*CONN
*P pwdata[19] O
*I *9066:X O *D sky130_fd_sc_hd__clkbuf_4
*CAP
1 pwdata[19] 0.000433955
2 *9066:X 5.30929e-05
3 *182:8 0.000487048
4 *182:8 *502:31 0.000151601
5 *182:8 *526:26 0.000272383
*RES
1 *9066:X *182:8 41.0036 
2 *182:8 pwdata[19] 9.05214 
*END

*D_NET *183 0.00102432
*CONN
*P pwdata[1] O
*I *9067:X O *D sky130_fd_sc_hd__clkbuf_4
*CAP
1 pwdata[1] 0.000488815
2 *9067:X 0.000488815
3 pwdata[1] *427:16 2.33476e-05
4 pwdata[1] *452:20 2.33476e-05
5 m_rdata[18] pwdata[1] 0
6 pwdata[12] pwdata[1] 0
*RES
1 *9067:X pwdata[1] 47.9152 
*END

*D_NET *184 0.000877638
*CONN
*P pwdata[20] O
*I *9068:X O *D sky130_fd_sc_hd__clkbuf_4
*CAP
1 pwdata[20] 0.000438819
2 *9068:X 0.000438819
3 pwdata[20] pwdata[29] 0
4 pwdata[20] *494:16 0
*RES
1 *9068:X pwdata[20] 46.7621 
*END

*D_NET *185 0.00102055
*CONN
*P pwdata[21] O
*I *9069:X O *D sky130_fd_sc_hd__clkbuf_4
*CAP
1 pwdata[21] 0.000385785
2 *9069:X 0.000385785
3 pwdata[21] *485:34 0.000248979
*RES
1 *9069:X pwdata[21] 46.7621 
*END

*D_NET *186 0.0011083
*CONN
*P pwdata[22] O
*I *9070:X O *D sky130_fd_sc_hd__clkbuf_4
*CAP
1 pwdata[22] 0.000504062
2 *9070:X 0.000504062
3 pwdata[22] *548:22 0.00010018
*RES
1 *9070:X pwdata[22] 48.5643 
*END

*D_NET *187 0.00143481
*CONN
*P pwdata[23] O
*I *9071:X O *D sky130_fd_sc_hd__clkbuf_4
*CAP
1 pwdata[23] 0.000479898
2 *9071:X 3.90194e-05
3 *187:8 0.000518918
4 pwdata[23] *487:26 2.96154e-05
5 *187:8 *425:14 0.000184527
6 *187:8 *502:31 0.000182832
*RES
1 *9071:X *187:8 40.0507 
2 *187:8 pwdata[23] 10.1086 
*END

*D_NET *188 0.00104009
*CONN
*P pwdata[24] O
*I *9072:X O *D sky130_fd_sc_hd__clkbuf_4
*CAP
1 pwdata[24] 0.000518816
2 *9072:X 0.000518816
3 pwdata[24] *416:12 0
4 pwdata[24] *484:26 2.45549e-06
5 m_rdata[16] pwdata[24] 0
*RES
1 *9072:X pwdata[24] 47.57 
*END

*D_NET *189 0.00114487
*CONN
*P pwdata[25] O
*I *9073:X O *D sky130_fd_sc_hd__clkbuf_4
*CAP
1 pwdata[25] 0.000500606
2 *9073:X 0.000500606
3 pwdata[25] *548:22 0.000143655
4 *8925:A pwdata[25] 0
*RES
1 *9073:X pwdata[25] 48.2743 
*END

*D_NET *190 0.000584763
*CONN
*P pwdata[26] O
*I *9074:X O *D sky130_fd_sc_hd__buf_2
*CAP
1 pwdata[26] 0.000274427
2 *9074:X 0.000274427
3 pwdata[26] *436:10 1.05658e-05
4 pwdata[26] *440:27 2.5343e-05
5 *84:15 pwdata[26] 0
6 *142:15 pwdata[26] 0
*RES
1 *9074:X pwdata[26] 47.1648 
*END

*D_NET *191 0.000788794
*CONN
*P pwdata[27] O
*I *9075:X O *D sky130_fd_sc_hd__clkbuf_4
*CAP
1 pwdata[27] 7.50488e-05
2 *9075:X 0.00027437
3 *191:12 0.000349419
4 *191:12 *9075:A 5.50106e-05
5 m_rdata[7] pwdata[27] 0
6 paddr[27] pwdata[27] 3.49463e-05
7 *122:10 *191:12 0
*RES
1 *9075:X *191:12 49.8011 
2 *191:12 pwdata[27] 0.328533 
*END

*D_NET *192 0.000950969
*CONN
*P pwdata[28] O
*I *9076:X O *D sky130_fd_sc_hd__buf_2
*CAP
1 pwdata[28] 0.000322857
2 *9076:X 0.000322857
3 pwdata[28] pwdata[31] 4.74622e-05
4 pwdata[28] *412:30 0.00012758
5 pwdata[28] *418:28 0.000130212
6 psel pwdata[28] 0
*RES
1 *9076:X pwdata[28] 48.5734 
*END

*D_NET *193 0.00106915
*CONN
*P pwdata[29] O
*I *9077:X O *D sky130_fd_sc_hd__clkbuf_4
*CAP
1 pwdata[29] 0.000503143
2 *9077:X 0.000503143
3 pwdata[29] *494:16 6.28591e-05
4 pwdata[20] pwdata[29] 0
*RES
1 *9077:X pwdata[29] 47.715 
*END

*D_NET *194 0.00124785
*CONN
*P pwdata[2] O
*I *9078:X O *D sky130_fd_sc_hd__clkbuf_4
*CAP
1 pwdata[2] 0.000560933
2 *9078:X 0.000560933
3 pwdata[2] *485:24 0.000125984
4 pwdata[2] *593:18 0
*RES
1 *9078:X pwdata[2] 48.6471 
*END

*D_NET *195 0.000593378
*CONN
*P pwdata[30] O
*I *9079:X O *D sky130_fd_sc_hd__clkbuf_4
*CAP
1 pwdata[30] 0.000296689
2 *9079:X 0.000296689
3 m_rdata[31] pwdata[30] 0
4 *8983:A pwdata[30] 0
*RES
1 *9079:X pwdata[30] 47.2507 
*END

*D_NET *196 0.000962138
*CONN
*P pwdata[31] O
*I *9080:X O *D sky130_fd_sc_hd__buf_2
*CAP
1 pwdata[31] 0.00014018
2 *9080:X 0.00023754
3 *196:14 0.00037772
4 *196:14 *492:12 8.0934e-05
5 *196:14 *585:16 7.83014e-05
6 paddr[10] pwdata[31] 0
7 pwdata[28] pwdata[31] 4.74622e-05
*RES
1 *9080:X *196:14 49.5732 
2 *196:14 pwdata[31] 0.500267 
*END

*D_NET *197 0.00102258
*CONN
*P pwdata[3] O
*I *9081:X O *D sky130_fd_sc_hd__clkbuf_4
*CAP
1 pwdata[3] 0.000511289
2 *9081:X 0.000511289
3 pwdata[14] pwdata[3] 0
*RES
1 *9081:X pwdata[3] 46.6171 
*END

*D_NET *198 0.00114487
*CONN
*P pwdata[4] O
*I *9082:X O *D sky130_fd_sc_hd__clkbuf_4
*CAP
1 pwdata[4] 0.000500606
2 *9082:X 0.000500606
3 pwdata[4] pwdata[5] 0
4 pwdata[4] *548:22 0.000143655
*RES
1 *9082:X pwdata[4] 48.2743 
*END

*D_NET *199 0.00114487
*CONN
*P pwdata[5] O
*I *9083:X O *D sky130_fd_sc_hd__clkbuf_4
*CAP
1 pwdata[5] 0.000500606
2 *9083:X 0.000500606
3 pwdata[5] *548:22 0.000143655
4 pwdata[4] pwdata[5] 0
*RES
1 *9083:X pwdata[5] 48.2743 
*END

*D_NET *200 0.00299535
*CONN
*P pwdata[6] O
*I *9084:X O *D sky130_fd_sc_hd__clkbuf_4
*CAP
1 pwdata[6] 0.00113391
2 *9084:X 0.000129127
3 *200:8 0.00126304
4 *200:8 *501:29 5.50049e-05
5 *8949:A pwdata[6] 0.000357562
6 *8949:A *200:8 5.67058e-05
7 *25:11 pwdata[6] 0
*RES
1 *9084:X *200:8 40.5271 
2 *200:8 pwdata[6] 24.2485 
*END

*D_NET *201 0.00114487
*CONN
*P pwdata[7] O
*I *9085:X O *D sky130_fd_sc_hd__clkbuf_4
*CAP
1 pwdata[7] 0.000500606
2 *9085:X 0.000500606
3 pwdata[7] *526:24 0.000143655
*RES
1 *9085:X pwdata[7] 48.2743 
*END

*D_NET *202 0.000967667
*CONN
*P pwdata[8] O
*I *9086:X O *D sky130_fd_sc_hd__clkbuf_4
*CAP
1 pwdata[8] 0.000483833
2 *9086:X 0.000483833
3 m_rdata[17] pwdata[8] 0
*RES
1 *9086:X pwdata[8] 47.0936 
*END

*D_NET *203 0.000766073
*CONN
*P pwdata[9] O
*I *9087:X O *D sky130_fd_sc_hd__clkbuf_4
*CAP
1 pwdata[9] 9.15931e-05
2 *9087:X 0.000291443
3 *203:10 0.000383036
4 *203:10 *609:10 0
5 *70:13 pwdata[9] 0
6 *153:13 pwdata[9] 0
*RES
1 *9087:X *203:10 42.1532 
2 *203:10 pwdata[9] 8.32853 
*END

*D_NET *204 0.000793332
*CONN
*P pwrite O
*I *9088:X O *D sky130_fd_sc_hd__clkbuf_4
*CAP
1 pwrite 0.000385341
2 *9088:X 0.000385341
3 pwrite *603:8 2.26497e-05
4 m_rdata[9] pwrite 0
5 *8907:A pwrite 0
*RES
1 *9088:X pwrite 47.5083 
*END

*D_NET *205 0.00128435
*CONN
*P rstn I
*I *8889:A I *D sky130_fd_sc_hd__clkbuf_2
*CAP
1 rstn 0.000351097
2 *8889:A 0
3 *205:13 0.000351097
4 *205:13 *412:18 0.000319213
5 *205:13 *423:20 8.1796e-05
6 *205:13 *423:22 0.000136068
7 *205:13 *467:12 0
8 penable *205:13 0
9 *7:13 *205:13 4.5084e-05
*RES
1 rstn *205:13 30.2221 
2 *205:13 *8889:A 23 
*END

*D_NET *206 0.00182504
*CONN
*I *8790:D I *D sky130_fd_sc_hd__dfrtp_4
*I *8653:X O *D sky130_fd_sc_hd__clkbuf_1
*CAP
1 *8790:D 0.000558947
2 *8653:X 3.55839e-05
3 *206:8 0.000594531
4 *8790:D *8701:A0 0.000205616
5 *8790:D *8701:S 2.98648e-05
6 *8790:D *337:14 0.000168649
7 *8790:D *437:46 5.70419e-05
8 *206:8 *337:14 8.85189e-05
9 *206:8 *451:18 8.62876e-05
*RES
1 *8653:X *206:8 39.2014 
2 *206:8 *8790:D 47.3629 
*END

*D_NET *207 0.00050034
*CONN
*I *8791:D I *D sky130_fd_sc_hd__dfrtp_1
*I *8654:Y O *D sky130_fd_sc_hd__inv_2
*CAP
1 *8791:D 0.000199017
2 *8654:Y 0.000199017
3 *8791:D *8791:CLK 5.12254e-05
4 *8791:D *311:36 5.10805e-05
*RES
1 *8654:Y *8791:D 49.0243 
*END

*D_NET *208 0.00369447
*CONN
*I *8792:D I *D sky130_fd_sc_hd__dfrtp_1
*I *8655:Y O *D sky130_fd_sc_hd__o21ai_1
*CAP
1 *8792:D 0
2 *8655:Y 0.000187947
3 *208:20 0.00105848
4 *208:8 0.00124643
5 *208:8 *311:201 0
6 *208:8 *489:65 0
7 *208:8 *612:20 2.96369e-05
8 *208:20 *311:32 0.000467929
9 *208:20 *311:201 3.58084e-06
10 *208:20 *467:6 0.000576699
11 *208:20 *489:61 0.00012377
*RES
1 *8655:Y *208:8 40.9621 
2 *208:8 *208:20 33.648 
3 *208:20 *8792:D 23 
*END

*D_NET *209 0.000247008
*CONN
*I *8793:D I *D sky130_fd_sc_hd__dfrtp_1
*I *8657:X O *D sky130_fd_sc_hd__clkbuf_1
*CAP
1 *8793:D 0
2 *8657:X 6.69275e-05
3 *209:8 6.69275e-05
4 *209:8 *514:55 0
5 *209:8 *539:12 0.000113153
*RES
1 *8657:X *209:8 39.5536 
2 *209:8 *8793:D 38 
*END

*D_NET *210 0.000520708
*CONN
*I *8794:D I *D sky130_fd_sc_hd__dfrtp_1
*I *8659:X O *D sky130_fd_sc_hd__clkbuf_1
*CAP
1 *8794:D 0.00019314
2 *8659:X 0.00019314
3 *8794:D *570:16 7.73854e-05
4 *8794:D *570:20 5.70419e-05
*RES
1 *8659:X *8794:D 49.9771 
*END

*D_NET *211 0.000334226
*CONN
*I *8795:D I *D sky130_fd_sc_hd__dfrtp_2
*I *8661:X O *D sky130_fd_sc_hd__clkbuf_1
*CAP
1 *8795:D 3.23423e-05
2 *8661:X 6.90544e-05
3 *211:8 0.000101397
4 *8795:D *8795:CLK 1.73399e-05
5 *211:8 *602:12 0.000114092
*RES
1 *8661:X *211:8 39.5536 
2 *211:8 *8795:D 38.6214 
*END

*D_NET *212 0.000857098
*CONN
*I *8796:D I *D sky130_fd_sc_hd__dfrtp_4
*I *8663:X O *D sky130_fd_sc_hd__clkbuf_1
*CAP
1 *8796:D 0.000250683
2 *8663:X 5.10758e-05
3 *212:8 0.000301759
4 *8796:D *8796:CLK 0.000171851
5 *212:8 *316:8 4.08641e-05
6 *212:8 *508:86 4.08641e-05
*RES
1 *8663:X *212:8 39.2014 
2 *212:8 *8796:D 41.5473 
*END

*D_NET *213 0.000496122
*CONN
*I *8797:D I *D sky130_fd_sc_hd__dfrtp_1
*I *8665:X O *D sky130_fd_sc_hd__clkbuf_1
*CAP
1 *8797:D 0.000189026
2 *8665:X 0.000189026
3 *8797:D *480:24 0.00011807
*RES
1 *8665:X *8797:D 49.9771 
*END

*D_NET *214 0.00162845
*CONN
*I *8798:D I *D sky130_fd_sc_hd__dfrtp_1
*I *8667:X O *D sky130_fd_sc_hd__clkbuf_1
*CAP
1 *8798:D 0
2 *8667:X 0.000354075
3 *214:10 0.000354075
4 *214:10 *8667:A 5.12254e-05
5 *214:10 *8670:S 0.000369009
6 *214:10 *297:10 0.000188926
7 *214:10 *311:163 0.000151898
8 *214:10 *318:10 8.92738e-05
9 *214:10 *576:22 6.99679e-05
*RES
1 *8667:X *214:10 46.2857 
2 *214:10 *8798:D 38 
*END

*D_NET *215 0.000255832
*CONN
*I *8799:D I *D sky130_fd_sc_hd__dfrtp_2
*I *8669:X O *D sky130_fd_sc_hd__clkbuf_1
*CAP
1 *8799:D 0
2 *8669:X 0.000127916
3 *215:8 0.000127916
4 *215:8 *8799:RESET_B 0
*RES
1 *8669:X *215:8 39.5536 
2 *215:8 *8799:D 38 
*END

*D_NET *216 0.000792889
*CONN
*I *8800:D I *D sky130_fd_sc_hd__dfrtp_2
*I *8671:X O *D sky130_fd_sc_hd__clkbuf_1
*CAP
1 *8800:D 9.61382e-05
2 *8671:X 7.33836e-05
3 *216:8 0.000169522
4 *8800:D *8845:CLK 7.15126e-05
5 *216:8 *366:57 0.000191166
6 *216:8 *606:14 0.000191166
*RES
1 *8671:X *216:8 40.61 
2 *216:8 *8800:D 39.5743 
*END

*D_NET *217 0.00093983
*CONN
*I *8801:D I *D sky130_fd_sc_hd__dfrtp_1
*I *8675:X O *D sky130_fd_sc_hd__clkbuf_1
*CAP
1 *8801:D 0.000101416
2 *8675:X 0.000181672
3 *217:10 0.000283089
4 *8801:D *389:55 2.93845e-05
5 *8801:D *589:16 1.79538e-05
6 *217:10 *8674:S 2.64616e-05
7 *217:10 *322:14 0.000192077
8 *217:10 *323:8 1.21972e-05
9 *217:10 *389:55 4.27794e-05
10 *217:10 *556:12 1.75595e-05
11 *217:10 *556:14 3.52397e-05
*RES
1 *8675:X *217:10 41.7079 
2 *217:10 *8801:D 39.5743 
*END

*D_NET *218 0.0012155
*CONN
*I *8802:D I *D sky130_fd_sc_hd__dfrtp_2
*I *8677:X O *D sky130_fd_sc_hd__clkbuf_1
*CAP
1 *8802:D 7.21532e-05
2 *8677:X 0.000288032
3 *218:10 0.000360185
4 *8802:D *389:117 6.05398e-05
5 *218:10 *322:87 0.000296937
6 *218:10 *465:14 0.000137651
*RES
1 *8677:X *218:10 43.5929 
2 *218:10 *8802:D 39.1652 
*END

*D_NET *219 0.000528193
*CONN
*I *8803:D I *D sky130_fd_sc_hd__dfrtp_1
*I *8679:X O *D sky130_fd_sc_hd__clkbuf_1
*CAP
1 *8803:D 0.000150946
2 *8679:X 0.000150946
3 *8803:D *8823:RESET_B 0.0002263
*RES
1 *8679:X *8803:D 49.5007 
*END

*D_NET *220 0.000500773
*CONN
*I *8804:D I *D sky130_fd_sc_hd__dfrtp_4
*I *8681:X O *D sky130_fd_sc_hd__clkbuf_1
*CAP
1 *8804:D 0
2 *8681:X 0.000191014
3 *220:10 0.000191014
4 *220:10 *388:28 7.28526e-05
5 *220:10 *453:14 4.58924e-05
*RES
1 *8681:X *220:10 41.48 
2 *220:10 *8804:D 38 
*END

*D_NET *221 0.000507466
*CONN
*I *8805:D I *D sky130_fd_sc_hd__dfrtp_4
*I *8683:X O *D sky130_fd_sc_hd__clkbuf_1
*CAP
1 *8805:D 9.16379e-05
2 *8683:X 5.91203e-05
3 *221:8 0.000150758
4 *8805:D *437:34 3.87132e-05
5 *221:8 *434:21 0.000114092
6 *221:8 *597:12 5.31444e-05
*RES
1 *8683:X *221:8 39.5536 
2 *221:8 *8805:D 39.5743 
*END

*D_NET *222 0.000542666
*CONN
*I *8806:D I *D sky130_fd_sc_hd__dfrtp_2
*I *8685:X O *D sky130_fd_sc_hd__clkbuf_1
*CAP
1 *8806:D 0
2 *8685:X 0.000244039
3 *222:10 0.000244039
4 *222:10 *344:134 0
5 *222:10 *580:14 5.45887e-05
*RES
1 *8685:X *222:10 41.6043 
2 *222:10 *8806:D 38 
*END

*D_NET *223 0.000306811
*CONN
*I *8807:D I *D sky130_fd_sc_hd__dfrtp_1
*I *8687:X O *D sky130_fd_sc_hd__clkbuf_1
*CAP
1 *8807:D 0
2 *8687:X 0.000125595
3 *223:10 0.000125595
4 *223:10 *329:12 5.56203e-05
*RES
1 *8687:X *223:10 40.175 
2 *223:10 *8807:D 38 
*END

*D_NET *224 0.000442553
*CONN
*I *8808:D I *D sky130_fd_sc_hd__dfrtp_1
*I *8689:X O *D sky130_fd_sc_hd__clkbuf_1
*CAP
1 *8808:D 0.000159386
2 *8689:X 0.000159386
3 *8808:D *389:18 4.58484e-05
4 *8808:D *389:26 7.79323e-05
*RES
1 *8689:X *8808:D 49.5007 
*END

*D_NET *225 0.000477884
*CONN
*I *8809:D I *D sky130_fd_sc_hd__dfrtp_4
*I *8691:X O *D sky130_fd_sc_hd__clkbuf_1
*CAP
1 *8809:D 0.000117537
2 *8691:X 4.07576e-05
3 *225:8 0.000158295
4 *8809:D *8809:RESET_B 0
5 *8809:D *585:36 3.16665e-05
6 *225:8 *388:39 4.334e-05
7 *225:8 *597:12 8.62876e-05
*RES
1 *8691:X *225:8 39.2014 
2 *225:8 *8809:D 39.595 
*END

*D_NET *226 0.00055319
*CONN
*I *8810:D I *D sky130_fd_sc_hd__dfrtp_2
*I *8693:X O *D sky130_fd_sc_hd__clkbuf_1
*CAP
1 *8810:D 0.000218531
2 *8693:X 0.000218531
3 *8810:D *8693:A 0.000116129
*RES
1 *8693:X *8810:D 49.5007 
*END

*D_NET *227 0.00179108
*CONN
*I *8811:D I *D sky130_fd_sc_hd__dfrtp_4
*I *8696:X O *D sky130_fd_sc_hd__clkbuf_1
*CAP
1 *8811:D 0.000253165
2 *8696:X 0.000301233
3 *227:10 0.000554398
4 *8811:D *8711:A0 4.93767e-05
5 *8811:D *508:65 0.000177514
6 *227:10 *355:60 0.000192077
7 *227:10 *477:6 0.0002263
8 *227:10 *477:57 3.70187e-05
9 *227:10 *508:65 0
*RES
1 *8696:X *227:10 44.09 
2 *227:10 *8811:D 41.9771 
*END

*D_NET *228 0.0035242
*CONN
*I *8812:D I *D sky130_fd_sc_hd__dfrtp_2
*I *8698:X O *D sky130_fd_sc_hd__clkbuf_1
*CAP
1 *8812:D 0
2 *8698:X 0.00030001
3 *228:18 0.000680802
4 *228:10 0.000980811
5 *228:10 *366:32 1.01436e-05
6 *228:10 *366:90 0.000342857
7 *228:10 *368:10 0.000155457
8 *228:10 *437:46 9.41704e-05
9 *228:10 *550:16 5.72557e-05
10 *228:18 *8697:A1 0.000485162
11 *228:18 *8776:A0 0.000139352
12 *228:18 *8776:A1 6.17437e-06
13 *228:18 *335:6 4.66106e-05
14 *228:18 *376:10 0.000225393
*RES
1 *8698:X *228:10 44.1729 
2 *228:10 *228:18 27.1645 
3 *228:18 *8812:D 23 
*END

*D_NET *229 0.000434285
*CONN
*I *8813:D I *D sky130_fd_sc_hd__dfrtp_1
*I *8700:X O *D sky130_fd_sc_hd__clkbuf_1
*CAP
1 *8813:D 3.87093e-05
2 *8700:X 0.000151912
3 *229:10 0.000190622
4 *8813:D *8813:RESET_B 6.17437e-06
5 *8813:D *390:44 1.46205e-05
6 *229:10 *333:146 3.22467e-05
7 *229:10 *426:14 0
8 *229:10 *542:8 0
*RES
1 *8700:X *229:10 40.5271 
2 *229:10 *8813:D 38.6214 
*END

*D_NET *230 0.00278928
*CONN
*I *8814:D I *D sky130_fd_sc_hd__dfrtp_4
*I *8702:X O *D sky130_fd_sc_hd__clkbuf_1
*CAP
1 *8814:D 0
2 *8702:X 0.001074
3 *230:10 0.001074
4 *230:10 *8796:CLK 0.000144211
5 *230:10 *8814:CLK 4.67488e-05
6 *230:10 *385:101 9.62764e-05
7 *230:10 *385:103 0.000166062
8 *230:10 *445:10 0.000181811
9 *230:10 *508:25 6.17437e-06
*RES
1 *8702:X *230:10 39.8614 
2 *230:10 *8814:D 23 
*END

*D_NET *231 0.0016144
*CONN
*I *8815:D I *D sky130_fd_sc_hd__dfrtp_1
*I *8704:X O *D sky130_fd_sc_hd__clkbuf_1
*CAP
1 *8815:D 9.43638e-05
2 *8704:X 0.000538129
3 *231:10 0.000632493
4 *8815:D *8696:A 9.91798e-05
5 *231:10 *8703:A1 0
6 *231:10 *430:123 0
7 *231:10 *437:46 2.93845e-05
8 *231:10 *508:10 3.0647e-05
9 *231:10 *509:149 0.000190205
10 *231:10 *550:16 0
*RES
1 *8704:X *231:10 48.2743 
2 *231:10 *8815:D 40.0507 
*END

*D_NET *232 0.000540467
*CONN
*I *8816:D I *D sky130_fd_sc_hd__dfrtp_4
*I *8706:X O *D sky130_fd_sc_hd__clkbuf_1
*CAP
1 *8816:D 0
2 *8706:X 0.000148267
3 *232:10 0.000148267
4 *232:10 *8706:A 3.16784e-05
5 *232:10 *311:159 7.03766e-05
6 *232:10 *595:14 0.000141879
*RES
1 *8706:X *232:10 41.0036 
2 *232:10 *8816:D 38 
*END

*D_NET *233 0.000924661
*CONN
*I *8817:D I *D sky130_fd_sc_hd__dfrtp_1
*I *8708:X O *D sky130_fd_sc_hd__clkbuf_1
*CAP
1 *8817:D 0.000104448
2 *8708:X 0.000180469
3 *233:8 0.000284917
4 *8817:D *8817:RESET_B 1.18939e-05
5 *233:8 *8817:CLK 0.000215782
6 *233:8 *340:10 4.08641e-05
7 *233:8 *386:19 8.62876e-05
*RES
1 *8708:X *233:8 42.0186 
2 *233:8 *8817:D 39.595 
*END

*D_NET *234 0.000610482
*CONN
*I *8818:D I *D sky130_fd_sc_hd__dfrtp_1
*I *8710:X O *D sky130_fd_sc_hd__clkbuf_1
*CAP
1 *8818:D 0
2 *8710:X 0.000181132
3 *234:10 0.000181132
4 *234:10 *333:64 0.00010634
5 *234:10 *576:24 0.000141879
*RES
1 *8710:X *234:10 41.48 
2 *234:10 *8818:D 38 
*END

*D_NET *235 0.003108
*CONN
*I *8819:D I *D sky130_fd_sc_hd__dfrtp_4
*I *8712:X O *D sky130_fd_sc_hd__clkbuf_1
*CAP
1 *8819:D 0
2 *8712:X 0.000242188
3 *235:14 0.000451128
4 *235:8 0.000693316
5 *235:8 *8753:A0 0.00035673
6 *235:14 *8840:RESET_B 2.60152e-05
7 *235:14 *256:8 0.000141888
8 *235:14 *312:18 5.50049e-05
9 *235:14 *333:29 0.000212994
10 *235:14 *342:10 0.000508935
11 *235:14 *385:103 7.4416e-05
12 *235:14 *385:121 0.000216721
13 *235:14 *387:39 0
14 *235:14 *477:18 5.97917e-05
15 *235:14 *508:118 6.88715e-05
*RES
1 *8712:X *235:8 41.9564 
2 *235:8 *235:14 27.6357 
3 *235:14 *8819:D 23 
*END

*D_NET *236 0.000845649
*CONN
*I *8820:D I *D sky130_fd_sc_hd__dfrtp_4
*I *8714:X O *D sky130_fd_sc_hd__clkbuf_1
*CAP
1 *8820:D 0
2 *8714:X 0.000404998
3 *236:10 0.000404998
4 *236:10 *387:50 3.56537e-05
5 *236:10 *508:118 0
*RES
1 *8714:X *236:10 43.51 
2 *236:10 *8820:D 38 
*END

*D_NET *237 0.00145905
*CONN
*I *8821:D I *D sky130_fd_sc_hd__dfrtp_4
*I *8717:X O *D sky130_fd_sc_hd__clkbuf_1
*CAP
1 *8821:D 2.53581e-05
2 *8717:X 0.000314404
3 *237:10 0.000339762
4 *8821:D *388:60 0.000141954
5 *8821:D *489:37 8.1796e-05
6 *237:10 *241:10 0
7 *237:10 *344:29 0.000183643
8 *237:10 *344:46 0.000124102
9 *237:10 *437:34 0.000139352
10 *237:10 *453:35 0.000108681
*RES
1 *8717:X *237:10 43.945 
2 *237:10 *8821:D 39.5743 
*END

*D_NET *238 0.00187254
*CONN
*I *8822:D I *D sky130_fd_sc_hd__dfrtp_1
*I *8719:X O *D sky130_fd_sc_hd__clkbuf_1
*CAP
1 *8822:D 0
2 *8719:X 0.000415991
3 *238:10 0.000415991
4 *238:10 *345:8 7.42621e-05
5 *238:10 *346:16 0.000267173
6 *238:10 *350:20 0.000350678
7 *238:10 *515:14 0.000348447
*RES
1 *8719:X *238:10 47.1557 
2 *238:10 *8822:D 38 
*END

*D_NET *239 0.000327707
*CONN
*I *8823:D I *D sky130_fd_sc_hd__dfrtp_1
*I *8721:X O *D sky130_fd_sc_hd__clkbuf_1
*CAP
1 *8823:D 1.45987e-05
2 *8721:X 8.70232e-05
3 *239:8 0.000101622
4 *8823:D *391:43 1.73399e-05
5 *8823:D *545:16 5.50106e-05
6 *239:8 *514:95 5.21127e-05
*RES
1 *8721:X *239:8 39.5536 
2 *239:8 *8823:D 38.6214 
*END

*D_NET *240 0.00183056
*CONN
*I *8824:D I *D sky130_fd_sc_hd__dfrtp_1
*I *8723:X O *D sky130_fd_sc_hd__clkbuf_1
*CAP
1 *8824:D 1.85777e-05
2 *8723:X 0.00035695
3 *240:10 0.000375527
4 *8824:D *435:20 9.04105e-06
5 *240:10 *8824:RESET_B 0
6 *240:10 *344:155 5.50049e-05
7 *240:10 *388:8 1.97329e-05
8 *240:10 *439:14 0.00052972
9 *240:10 *457:12 2.54046e-05
10 *240:10 *472:28 0.000440597
11 *240:10 *495:12 0
12 *240:10 *531:20 0
*RES
1 *8723:X *240:10 48.2329 
2 *240:10 *8824:D 38.2123 
*END

*D_NET *241 0.0020203
*CONN
*I *8825:D I *D sky130_fd_sc_hd__dfrtp_4
*I *8725:X O *D sky130_fd_sc_hd__clkbuf_1
*CAP
1 *8825:D 0
2 *8725:X 0.000486325
3 *241:10 0.000486325
4 *241:10 *8826:RESET_B 0.000352538
5 *241:10 *311:48 0.000108681
6 *241:10 *344:29 0
7 *241:10 *349:10 2.96154e-05
8 *241:10 *350:20 0.000158629
9 *241:10 *366:24 0.000184527
10 *241:10 *388:70 3.08344e-05
11 *241:10 *453:35 0
12 *241:10 *489:37 0.000182826
13 *241:10 *498:27 0
14 *237:10 *241:10 0
*RES
1 *8725:X *241:10 48.6471 
2 *241:10 *8825:D 38 
*END

*D_NET *242 0.00171376
*CONN
*I *8826:D I *D sky130_fd_sc_hd__dfrtp_4
*I *8727:X O *D sky130_fd_sc_hd__clkbuf_1
*CAP
1 *8826:D 0
2 *8727:X 0.000456719
3 *242:10 0.000456719
4 *242:10 *8745:A1 9.84794e-05
5 *242:10 *8826:RESET_B 0
6 *242:10 *350:20 3.71251e-05
7 *242:10 *352:8 0.000602472
8 *242:10 *492:34 2.65879e-05
9 *242:10 *498:27 0
10 *242:10 *568:36 3.56537e-05
*RES
1 *8727:X *242:10 48.6471 
2 *242:10 *8826:D 38 
*END

*D_NET *243 0.000551239
*CONN
*I *8827:D I *D sky130_fd_sc_hd__dfrtp_1
*I *8729:X O *D sky130_fd_sc_hd__clkbuf_1
*CAP
1 *8827:D 0
2 *8729:X 0.000179219
3 *243:10 0.000179219
4 *243:10 *439:14 1.02949e-05
5 *243:10 *439:20 0.000110913
6 *243:10 *472:14 5.21127e-05
7 *243:10 *472:28 1.94812e-05
*RES
1 *8729:X *243:10 41.1279 
2 *243:10 *8827:D 38 
*END

*D_NET *244 0.000762674
*CONN
*I *8828:D I *D sky130_fd_sc_hd__dfrtp_2
*I *8731:X O *D sky130_fd_sc_hd__clkbuf_1
*CAP
1 *8828:D 0
2 *8731:X 0.000245358
3 *244:10 0.000245358
4 *244:10 *355:141 0.000140949
5 *244:10 *388:113 0.000131009
6 *244:10 *498:12 0
*RES
1 *8731:X *244:10 42.4329 
2 *244:10 *8828:D 38 
*END

*D_NET *245 0.000322348
*CONN
*I *8829:D I *D sky130_fd_sc_hd__dfrtp_1
*I *8733:X O *D sky130_fd_sc_hd__clkbuf_1
*CAP
1 *8829:D 1.47919e-05
2 *8733:X 0.000123863
3 *245:10 0.000138655
4 *8829:D *8829:CLK 1.10317e-05
5 *245:10 *355:115 2.93747e-05
6 *245:10 *426:14 0
7 *245:10 *551:26 4.6318e-06
*RES
1 *8733:X *245:10 39.8229 
2 *245:10 *8829:D 38.2123 
*END

*D_NET *246 0.000592594
*CONN
*I *8830:D I *D sky130_fd_sc_hd__dfrtp_1
*I *8735:X O *D sky130_fd_sc_hd__clkbuf_1
*CAP
1 *8830:D 2.67673e-05
2 *8735:X 0.000158261
3 *246:8 0.000185028
4 *8830:D *499:25 7.88828e-05
5 *8830:D *514:127 0.000143655
6 *246:8 *540:8 0
*RES
1 *8735:X *246:8 40.61 
2 *246:8 *8830:D 39.5743 
*END

*D_NET *247 0.000523821
*CONN
*I *8831:D I *D sky130_fd_sc_hd__dfrtp_1
*I *8738:X O *D sky130_fd_sc_hd__clkbuf_1
*CAP
1 *8831:D 0.000137511
2 *8738:X 6.62547e-05
3 *247:8 0.000203766
4 *247:8 *356:10 7.03869e-05
5 *247:8 *603:8 4.59027e-05
*RES
1 *8738:X *247:8 39.9057 
2 *247:8 *8831:D 40.0507 
*END

*D_NET *248 0.0014663
*CONN
*I *8832:D I *D sky130_fd_sc_hd__dfrtp_1
*I *8740:X O *D sky130_fd_sc_hd__clkbuf_1
*CAP
1 *8832:D 0
2 *8740:X 0.000599302
3 *248:10 0.000599302
4 *248:10 *8597:A 7.59964e-05
5 *248:10 *296:143 0.000116647
6 *248:10 *480:22 1.32314e-05
7 *248:10 *482:8 6.18235e-05
8 *248:10 *548:30 0
*RES
1 *8740:X *248:10 47.425 
2 *248:10 *8832:D 38 
*END

*D_NET *249 0.000708956
*CONN
*I *8833:D I *D sky130_fd_sc_hd__dfrtp_1
*I *8742:X O *D sky130_fd_sc_hd__clkbuf_1
*CAP
1 *8833:D 0
2 *8742:X 0.000197645
3 *249:10 0.000197645
4 *249:10 *322:14 0.00014411
5 *249:10 *355:145 9.91798e-05
6 *249:10 *403:10 7.03766e-05
*RES
1 *8742:X *249:10 41.9564 
2 *249:10 *8833:D 38 
*END

*D_NET *250 0.00145804
*CONN
*I *8834:D I *D sky130_fd_sc_hd__dfrtp_1
*I *8744:X O *D sky130_fd_sc_hd__clkbuf_1
*CAP
1 *8834:D 0
2 *8744:X 0.000695945
3 *250:14 0.000695945
4 *250:14 *8744:A 1.32314e-05
5 *250:14 *506:10 5.29231e-05
*RES
1 *8744:X *250:14 32.8807 
2 *250:14 *8834:D 23 
*END

*D_NET *251 0.000320244
*CONN
*I *8835:D I *D sky130_fd_sc_hd__dfrtp_4
*I *8746:X O *D sky130_fd_sc_hd__clkbuf_1
*CAP
1 *8835:D 0
2 *8746:X 0.000117288
3 *251:10 0.000117288
4 *251:10 *8746:A 3.22051e-05
5 *251:10 *360:10 5.34638e-05
*RES
1 *8746:X *251:10 40.175 
2 *251:10 *8835:D 38 
*END

*D_NET *252 0.000798266
*CONN
*I *8836:D I *D sky130_fd_sc_hd__dfrtp_1
*I *8748:X O *D sky130_fd_sc_hd__clkbuf_1
*CAP
1 *8836:D 0
2 *8748:X 0.000285983
3 *252:10 0.000285983
4 *252:10 *355:117 0.0002263
5 *252:10 *551:16 0
*RES
1 *8748:X *252:10 42.4329 
2 *252:10 *8836:D 38 
*END

*D_NET *253 0.00176499
*CONN
*I *8837:D I *D sky130_fd_sc_hd__dfrtp_1
*I *8750:X O *D sky130_fd_sc_hd__clkbuf_1
*CAP
1 *8837:D 0.000477029
2 *8750:X 8.0645e-05
3 *253:8 0.000557674
4 *8837:D *429:12 0.000591545
5 *253:8 *8750:A 5.80963e-05
6 *253:8 *288:8 0
*RES
1 *8750:X *253:8 39.5536 
2 *253:8 *8837:D 48.9993 
*END

*D_NET *254 0.00064651
*CONN
*I *8838:D I *D sky130_fd_sc_hd__dfrtp_2
*I *8752:X O *D sky130_fd_sc_hd__clkbuf_1
*CAP
1 *8838:D 0
2 *8752:X 0.000253896
3 *254:10 0.000253896
4 *254:10 *8838:RESET_B 0.000138718
5 *254:10 *487:26 0
*RES
1 *8752:X *254:10 41.9564 
2 *254:10 *8838:D 38 
*END

*D_NET *255 0.00298817
*CONN
*I *8839:D I *D sky130_fd_sc_hd__dfrtp_2
*I *8754:X O *D sky130_fd_sc_hd__clkbuf_1
*CAP
1 *8839:D 0.000510032
2 *8754:X 0.00038098
3 *255:10 0.000891012
4 *8839:D *8703:A1 6.9805e-05
5 *8839:D *8711:A0 5.38857e-05
6 *8839:D *333:135 5.50049e-05
7 *8839:D *492:34 3.44656e-05
8 *255:10 *311:62 0.000181919
9 *255:10 *366:90 0.000137788
10 *255:10 *366:99 0.000176082
11 *255:10 *476:8 0.000497202
*RES
1 *8754:X *255:10 46.8864 
2 *255:10 *8839:D 45.3587 
*END

*D_NET *256 0.000668755
*CONN
*I *8840:D I *D sky130_fd_sc_hd__dfrtp_4
*I *8756:X O *D sky130_fd_sc_hd__clkbuf_1
*CAP
1 *8840:D 0.000109513
2 *8756:X 5.07736e-05
3 *256:8 0.000160286
4 *8840:D *508:86 9.76261e-05
5 *256:8 *8840:RESET_B 7.80612e-05
6 *256:8 *508:118 3.06079e-05
7 *235:14 *256:8 0.000141888
*RES
1 *8756:X *256:8 39.9057 
2 *256:8 *8840:D 40.0507 
*END

*D_NET *257 0.00062173
*CONN
*I *8841:D I *D sky130_fd_sc_hd__dfrtp_1
*I *8759:X O *D sky130_fd_sc_hd__clkbuf_1
*CAP
1 *8841:D 3.64064e-05
2 *8759:X 0.000135815
3 *257:8 0.000172221
4 *8841:D *8841:CLK 7.59794e-05
5 *8841:D *511:26 0.00014196
6 *257:8 *8847:RESET_B 5.93485e-05
7 *257:8 *600:14 0
*RES
1 *8759:X *257:8 40.61 
2 *257:8 *8841:D 39.5743 
*END

*D_NET *258 0.00178646
*CONN
*I *8842:D I *D sky130_fd_sc_hd__dfrtp_4
*I *8761:X O *D sky130_fd_sc_hd__clkbuf_1
*CAP
1 *8842:D 0
2 *8761:X 0.000664378
3 *258:8 0.000664378
4 *258:8 *8761:A 2.18409e-05
5 *258:8 *388:113 0.000253943
6 *258:8 *479:12 0.000181919
*RES
1 *8761:X *258:8 33.1707 
2 *258:8 *8842:D 23 
*END

*D_NET *259 0.000505515
*CONN
*I *8843:D I *D sky130_fd_sc_hd__dfrtp_2
*I *8763:X O *D sky130_fd_sc_hd__clkbuf_1
*CAP
1 *8843:D 3.5879e-05
2 *8763:X 8.7038e-05
3 *259:8 0.000122917
4 *8843:D *8764:S 1.14762e-05
5 *8843:D *355:115 5.41385e-05
6 *8843:D *570:30 0.000141954
7 *259:8 *369:10 5.21127e-05
8 *259:8 *578:10 0
*RES
1 *8763:X *259:8 39.5536 
2 *259:8 *8843:D 39.5743 
*END

*D_NET *260 0.000422443
*CONN
*I *8844:D I *D sky130_fd_sc_hd__dfrtp_1
*I *8765:X O *D sky130_fd_sc_hd__clkbuf_1
*CAP
1 *8844:D 1.47919e-05
2 *8765:X 0.000100489
3 *260:10 0.000115281
4 *8844:D *296:143 1.10317e-05
5 *260:10 *8764:A0 1.05235e-05
6 *260:10 *401:10 8.62783e-05
7 *260:10 *587:16 8.4047e-05
*RES
1 *8765:X *260:10 39.8229 
2 *260:10 *8844:D 38.2123 
*END

*D_NET *261 0.00147459
*CONN
*I *8845:D I *D sky130_fd_sc_hd__dfrtp_1
*I *8767:X O *D sky130_fd_sc_hd__clkbuf_1
*CAP
1 *8845:D 0.000244461
2 *8767:X 0.000115768
3 *261:10 0.000360228
4 *8845:D *8845:RESET_B 3.76692e-06
5 *8845:D *406:8 0.000199508
6 *8845:D *439:24 0
7 *8845:D *439:26 0.000302574
8 *261:10 *366:81 0.000110913
9 *261:10 *461:14 2.64616e-05
10 *261:10 *560:8 0.000110913
*RES
1 *8767:X *261:10 40.175 
2 *261:10 *8845:D 44.8357 
*END

*D_NET *262 0.000692747
*CONN
*I *8846:D I *D sky130_fd_sc_hd__dfrtp_1
*I *8769:X O *D sky130_fd_sc_hd__clkbuf_1
*CAP
1 *8846:D 0
2 *8769:X 0.000224198
3 *262:12 0.000224198
4 *262:12 *435:28 5.72217e-05
5 *262:12 *450:20 0
6 *262:12 *485:24 0.000187129
*RES
1 *8769:X *262:12 43.1579 
2 *262:12 *8846:D 38 
*END

*D_NET *263 0.00106636
*CONN
*I *8847:D I *D sky130_fd_sc_hd__dfrtp_1
*I *8771:X O *D sky130_fd_sc_hd__clkbuf_1
*CAP
1 *8847:D 0
2 *8771:X 0.000314071
3 *263:12 0.000314071
4 *263:12 *8771:A 4.34618e-05
5 *263:12 *453:12 0
6 *263:12 *454:25 0.000242657
7 *263:12 *511:42 1.01436e-05
8 *263:12 *511:44 0.000141954
*RES
1 *8771:X *263:12 43.8621 
2 *263:12 *8847:D 38 
*END

*D_NET *264 0.0022956
*CONN
*I *8848:D I *D sky130_fd_sc_hd__dfrtp_2
*I *8773:X O *D sky130_fd_sc_hd__clkbuf_1
*CAP
1 *8848:D 0
2 *8773:X 6.77586e-05
3 *264:18 0.000494402
4 *264:8 0.00056216
5 *264:8 *280:10 0
6 *264:8 *285:48 2.79004e-05
7 *264:8 *312:18 4.21594e-06
8 *264:18 *8618:A 0.000181801
9 *264:18 *8736:A 0.000102093
10 *264:18 *8848:CLK 5.50106e-05
11 *264:18 *321:42 0.000691496
12 *264:18 *385:54 0.000108757
*RES
1 *8773:X *264:8 39.2014 
2 *264:8 *264:18 28.2986 
3 *264:18 *8848:D 23 
*END

*D_NET *265 0.000503685
*CONN
*I *8849:D I *D sky130_fd_sc_hd__dfrtp_1
*I *8775:X O *D sky130_fd_sc_hd__clkbuf_1
*CAP
1 *8849:D 0.00019329
2 *8775:X 0.00019329
3 *8849:D *8775:A 9.51377e-05
4 *8849:D *296:80 2.19667e-05
*RES
1 *8775:X *8849:D 49.5007 
*END

*D_NET *266 0.000826847
*CONN
*I *8850:D I *D sky130_fd_sc_hd__dfrtp_4
*I *8777:X O *D sky130_fd_sc_hd__clkbuf_1
*CAP
1 *8850:D 0
2 *8777:X 0.000229635
3 *266:10 0.000229635
4 *266:10 *442:41 5.56203e-05
5 *266:10 *511:62 0.000180218
6 *266:10 *560:8 0.000114083
7 *266:10 *585:38 1.76557e-05
*RES
1 *8777:X *266:10 42.0807 
2 *266:10 *8850:D 38 
*END

*D_NET *267 0.000227554
*CONN
*I *8851:D I *D sky130_fd_sc_hd__dfrtp_1
*I *8779:X O *D sky130_fd_sc_hd__clkbuf_1
*CAP
1 *8851:D 0
2 *8779:X 0.000113777
3 *267:8 0.000113777
*RES
1 *8779:X *267:8 39.9057 
2 *267:8 *8851:D 38 
*END

*D_NET *268 0.000586475
*CONN
*I *8852:D I *D sky130_fd_sc_hd__dfrtp_1
*I *8781:X O *D sky130_fd_sc_hd__clkbuf_1
*CAP
1 *8852:D 0.000192047
2 *8781:X 5.10758e-05
3 *268:8 0.000243123
4 *8852:D *386:29 1.8501e-05
5 *268:8 *378:10 4.08641e-05
6 *268:8 *479:20 4.08641e-05
*RES
1 *8781:X *268:8 39.2014 
2 *268:8 *8852:D 40.5479 
*END

*D_NET *269 0.00043786
*CONN
*I *8853:D I *D sky130_fd_sc_hd__dfrtp_1
*I *8783:X O *D sky130_fd_sc_hd__clkbuf_1
*CAP
1 *8853:D 0.00019511
2 *8783:X 0.00019511
3 *8853:D *321:142 3.7122e-06
4 *8853:D *391:20 4.39278e-05
*RES
1 *8783:X *8853:D 49.5007 
*END

*D_NET *270 0.000602728
*CONN
*I *8854:D I *D sky130_fd_sc_hd__dfrtp_1
*I *8785:X O *D sky130_fd_sc_hd__clkbuf_1
*CAP
1 *8854:D 0
2 *8785:X 0.000272753
3 *270:12 0.000272753
4 *270:12 *435:28 5.72217e-05
5 *270:12 *455:10 0
*RES
1 *8785:X *270:12 43.1579 
2 *270:12 *8854:D 38 
*END

*D_NET *271 0.000440452
*CONN
*I *8855:D I *D sky130_fd_sc_hd__dfrtp_1
*I *8787:X O *D sky130_fd_sc_hd__clkbuf_1
*CAP
1 *8855:D 0
2 *8787:X 0.000191055
3 *271:10 0.000191055
4 *271:10 *407:12 0
5 *271:10 *445:30 5.83407e-05
6 *271:10 *510:129 0
*RES
1 *8787:X *271:10 41.1279 
2 *271:10 *8855:D 38 
*END

*D_NET *272 0.000328661
*CONN
*I *8856:D I *D sky130_fd_sc_hd__dfrtp_1
*I *8789:X O *D sky130_fd_sc_hd__clkbuf_1
*CAP
1 *8856:D 2.24548e-05
2 *8789:X 0.000114371
3 *272:8 0.000136825
4 *8856:D *390:14 5.50106e-05
5 *272:8 *542:8 0
*RES
1 *8789:X *272:8 39.5536 
2 *272:8 *8856:D 38.6214 
*END

*D_NET *273 0.00338273
*CONN
*I *8581:A I *D sky130_fd_sc_hd__nand2_1
*I *8655:A2 I *D sky130_fd_sc_hd__o21ai_1
*I *8579:A I *D sky130_fd_sc_hd__inv_2
*I *8578:X O *D sky130_fd_sc_hd__or2b_1
*CAP
1 *8581:A 6.37532e-05
2 *8655:A2 0.000469807
3 *8579:A 0.000135889
4 *8578:X 0
5 *273:8 0.000816575
6 *273:4 0.000274633
7 *8579:A *311:12 4.08641e-05
8 *8579:A *311:32 0
9 *8579:A *311:201 0.00014196
10 *8579:A *408:16 9.20311e-06
11 *8579:A *489:61 8.1796e-05
12 *8581:A *8581:B 9.91741e-05
13 *8581:A *437:34 1.41077e-05
14 *8581:A *568:24 0.000141954
15 *8581:A *612:32 6.68617e-05
16 *8655:A2 *8655:A1 2.93284e-05
17 *8655:A2 *8655:B1 1.56364e-05
18 *8655:A2 *612:32 0.000618478
19 *273:8 *408:16 4.26048e-06
20 *273:8 *469:10 1.19796e-05
21 *273:8 *547:22 0
22 *273:8 *612:32 0.000233706
23 *3:19 *8655:A2 0.000112764
*RES
1 *8578:X *273:4 23 
2 *273:4 *273:8 18.6664 
3 *273:8 *8579:A 41.625 
4 *273:8 *8655:A2 46.1407 
5 *273:4 *8581:A 25.9207 
*END

*D_NET *274 0.00175279
*CONN
*I *8581:B I *D sky130_fd_sc_hd__nand2_1
*I *8655:B1 I *D sky130_fd_sc_hd__o21ai_1
*I *8580:X O *D sky130_fd_sc_hd__or2b_1
*CAP
1 *8581:B 0.000262136
2 *8655:B1 0.000137876
3 *8580:X 0
4 *274:6 0.000400012
5 *8581:B *437:22 3.28867e-05
6 *8581:B *437:34 1.32314e-05
7 *8581:B *469:8 5.50049e-05
8 *8581:B *547:22 0.000401106
9 *8581:B *568:24 0.000171111
10 *8655:B1 *8655:A1 1.21382e-05
11 *8655:B1 *418:8 5.50106e-05
12 *8655:B1 *418:10 7.42621e-05
13 *8655:B1 *612:32 2.32004e-05
14 *8581:A *8581:B 9.91741e-05
15 *8655:A2 *8655:B1 1.56364e-05
*RES
1 *8580:X *274:6 38 
2 *274:6 *8655:B1 40.9 
3 *274:6 *8581:B 46.265 
*END

*D_NET *275 0.021463
*CONN
*I *8646:B I *D sky130_fd_sc_hd__and2_1
*I *8602:A I *D sky130_fd_sc_hd__buf_4
*I *8644:B I *D sky130_fd_sc_hd__and2_1
*I *8583:A I *D sky130_fd_sc_hd__clkbuf_8
*I *8623:A I *D sky130_fd_sc_hd__clkbuf_8
*I *8648:B I *D sky130_fd_sc_hd__and2_1
*I *8582:X O *D sky130_fd_sc_hd__and3b_2
*CAP
1 *8646:B 0.000186398
2 *8602:A 0
3 *8644:B 0.000158457
4 *8583:A 2.44422e-05
5 *8623:A 0
6 *8648:B 0
7 *8582:X 0.000104488
8 *275:87 0.00330676
9 *275:78 0.00381421
10 *275:40 0.00258057
11 *275:38 0.0028857
12 *275:34 0.000902203
13 *275:30 0.00114149
14 *275:24 0.0007841
15 *275:22 0.00128695
16 *275:8 0.000591921
17 *8583:A *321:14 9.84851e-05
18 *8583:A *389:93 5.41385e-05
19 *8644:B *8757:A 0.000310641
20 *8644:B *307:10 4.95081e-05
21 *8644:B *366:8 8.05102e-05
22 *8644:B *489:49 0.000354116
23 *8646:B *308:10 0.000156058
24 *275:8 *8792:RESET_B 0.000184259
25 *275:8 *613:12 0.000160884
26 *275:22 *8651:A 0.000459843
27 *275:22 *8883:A 4.67488e-05
28 *275:22 *418:8 1.03836e-05
29 *275:22 *547:30 2.92911e-06
30 *275:22 *613:8 0.000321519
31 *275:24 *8757:A 0.000108681
32 *275:24 *311:32 0.00015034
33 *275:24 *512:14 1.34308e-05
34 *275:30 *8758:A1 0
35 *275:30 *311:32 3.71959e-05
36 *275:30 *321:12 0
37 *275:30 *389:99 0.000128965
38 *275:30 *478:8 0
39 *275:30 *512:14 9.29757e-05
40 *275:34 *296:29 0
41 *275:34 *321:109 0.000494575
42 *275:34 *430:8 0
43 *275:34 *430:10 0
44 *275:34 *478:8 0
45 *275:40 *383:155 0
46 *275:40 *478:8 0
47 *275:40 *600:10 0
48 *275:40 *600:14 0
49 *275:78 *8757:A 8.82392e-05
50 *275:78 *8758:A1 6.1255e-05
51 *275:78 *310:10 4.06408e-05
52 *275:78 *310:12 0.000112172
53 *275:78 *311:32 7.67847e-05
54 *275:78 *391:68 0
55 *275:78 *512:14 0
56 *275:78 *549:12 0
57 *275:78 *614:35 0
58 *275:87 *321:140 0
59 *275:87 *379:10 0
60 *275:87 *549:12 0
*RES
1 *8582:X *275:8 40.61 
2 *275:8 *275:22 40.8336 
3 *275:22 *275:24 2.25786 
4 *275:24 *275:30 9.715 
5 *275:30 *275:34 28.5264 
6 *275:34 *275:38 19.9093 
7 *275:38 *275:40 48.3886 
8 *275:40 *8648:B 38 
9 *275:34 *8623:A 23 
10 *275:30 *8583:A 39.0979 
11 *275:24 *8644:B 43.8829 
12 *275:22 *275:78 13.3607 
13 *275:78 *8602:A 38 
14 *275:78 *275:87 59.6571 
15 *275:87 *8646:B 42.4329 
*END

*D_NET *276 0.00085678
*CONN
*I *8585:A I *D sky130_fd_sc_hd__buf_1
*I *8584:X O *D sky130_fd_sc_hd__and2_1
*CAP
1 *8585:A 0
2 *8584:X 0.00036976
3 *276:10 0.00036976
4 *276:10 *462:10 0.00011726
*RES
1 *8584:X *276:10 44.7736 
2 *276:10 *8585:A 38 
*END

*D_NET *277 0.00053305
*CONN
*I *8587:A I *D sky130_fd_sc_hd__clkbuf_2
*I *8586:X O *D sky130_fd_sc_hd__and2_1
*CAP
1 *8587:A 0.000149255
2 *8586:X 4.50246e-05
3 *277:8 0.000194279
4 *8587:A *407:8 1.73399e-05
5 *277:8 *557:20 8.62876e-05
6 *277:8 *610:24 4.08641e-05
*RES
1 *8586:X *277:8 39.2014 
2 *277:8 *8587:A 40.0714 
*END

*D_NET *278 0.000481707
*CONN
*I *8589:A I *D sky130_fd_sc_hd__clkbuf_1
*I *8588:X O *D sky130_fd_sc_hd__and2_1
*CAP
1 *8589:A 8.43197e-05
2 *8588:X 8.43197e-05
3 *8589:A *419:6 4.06849e-05
4 *8589:A *601:16 0.000272383
*RES
1 *8588:X *8589:A 49.0036 
*END

*D_NET *279 0.00105884
*CONN
*I *8591:A I *D sky130_fd_sc_hd__clkbuf_1
*I *8590:X O *D sky130_fd_sc_hd__and2_1
*CAP
1 *8591:A 0.000152322
2 *8590:X 0.00020287
3 *279:8 0.000355192
4 *8591:A *428:14 0.000170538
5 *279:8 *430:83 0.000177914
*RES
1 *8590:X *279:8 42.7229 
2 *279:8 *8591:A 41.48 
*END

*D_NET *280 0.00181715
*CONN
*I *8593:A I *D sky130_fd_sc_hd__clkbuf_2
*I *8592:X O *D sky130_fd_sc_hd__and2_1
*CAP
1 *8593:A 0
2 *8592:X 0.000548242
3 *280:10 0.000548242
4 *280:10 *285:48 0
5 *280:10 *312:18 3.47781e-05
6 *280:10 *385:40 5.48395e-05
7 *280:10 *477:18 0.000150017
8 *280:10 *602:16 0.00048103
9 *264:8 *280:10 0
*RES
1 *8592:X *280:10 47.7564 
2 *280:10 *8593:A 38 
*END

*D_NET *281 0.00358518
*CONN
*I *8595:A I *D sky130_fd_sc_hd__dlymetal6s2s_1
*I *8594:X O *D sky130_fd_sc_hd__and2_1
*CAP
1 *8595:A 0.000153624
2 *8594:X 0.000204541
3 *281:20 0.000511302
4 *281:12 0.000562219
5 *8595:A *8697:A1 0.000430442
6 *8595:A *335:6 0.000522815
7 *281:12 *293:8 8.4047e-05
8 *281:12 *296:118 0.000222106
9 *281:12 *385:54 0.000118382
10 *281:12 *430:54 0
11 *281:12 *430:123 5.87192e-05
12 *281:12 *607:28 1.01436e-05
13 *281:20 *8652:A1 0.00026599
14 *281:20 *285:84 0.000178517
15 *281:20 *385:76 6.12055e-05
16 *281:20 *385:93 3.31127e-05
17 *281:20 *487:22 0.000145513
18 *281:20 *510:12 2.24973e-05
*RES
1 *8594:X *281:12 43.4893 
2 *281:12 *281:20 36.8979 
3 *281:20 *8595:A 44.3593 
*END

*D_NET *282 0.00165792
*CONN
*I *8597:A I *D sky130_fd_sc_hd__buf_1
*I *8596:X O *D sky130_fd_sc_hd__and2_1
*CAP
1 *8597:A 5.70032e-05
2 *8596:X 0.00037236
3 *282:10 0.000429363
4 *8597:A *296:143 0.000187129
5 *8597:A *480:22 6.68617e-05
6 *282:10 *8739:A1 0.000124513
7 *282:10 *425:8 0.000155121
8 *282:10 *430:143 0.000149249
9 *282:10 *502:29 2.81216e-05
10 *282:10 *608:26 1.21972e-05
11 *248:10 *8597:A 7.59964e-05
*RES
1 *8596:X *282:10 44.8979 
2 *282:10 *8597:A 40.9 
*END

*D_NET *283 0.000713064
*CONN
*I *8599:A I *D sky130_fd_sc_hd__buf_1
*I *8598:X O *D sky130_fd_sc_hd__and2_1
*CAP
1 *8599:A 0
2 *8598:X 0.000263187
3 *283:10 0.000263187
4 *283:10 *422:12 5.67058e-05
5 *283:10 *544:12 0.000129984
*RES
1 *8598:X *283:10 43.6964 
2 *283:10 *8599:A 38 
*END

*D_NET *284 0.00156408
*CONN
*I *8601:A I *D sky130_fd_sc_hd__clkbuf_2
*I *8600:X O *D sky130_fd_sc_hd__and2_1
*CAP
1 *8601:A 0.00011954
2 *8600:X 0.000445344
3 *284:14 0.000564884
4 *8601:A *296:118 2.05503e-05
5 *8601:A *428:12 5.67058e-05
6 *8601:A *430:56 0.000226295
7 *8601:A *510:12 2.24608e-05
8 *284:14 *8600:A 5.3304e-05
9 *284:14 *8600:B 2.33476e-05
10 *284:14 *430:42 1.05441e-05
11 *284:14 *557:20 2.11066e-05
*RES
1 *8600:X *284:14 47.5996 
2 *284:14 *8601:A 48.8482 
*END

*D_NET *285 0.0773021
*CONN
*I *8613:B I *D sky130_fd_sc_hd__and2_1
*I *8605:B I *D sky130_fd_sc_hd__and2_1
*I *8621:B I *D sky130_fd_sc_hd__and2_1
*I *8609:B I *D sky130_fd_sc_hd__and2_1
*I *8607:B I *D sky130_fd_sc_hd__and2_1
*I *8603:B I *D sky130_fd_sc_hd__and2_1
*I *8615:B I *D sky130_fd_sc_hd__and2_1
*I *8617:B I *D sky130_fd_sc_hd__and2_1
*I *8619:B I *D sky130_fd_sc_hd__and2_1
*I *8611:B I *D sky130_fd_sc_hd__and2_1
*I *8602:X O *D sky130_fd_sc_hd__buf_4
*CAP
1 *8613:B 0.000112858
2 *8605:B 0
3 *8621:B 0
4 *8609:B 0
5 *8607:B 0
6 *8603:B 0
7 *8615:B 0
8 *8617:B 0
9 *8619:B 0
10 *8611:B 0
11 *8602:X 0
12 *285:165 0.00101955
13 *285:159 0.00349894
14 *285:150 0.000556328
15 *285:124 0.000224973
16 *285:112 0.00211467
17 *285:110 0.0018897
18 *285:108 0.00123374
19 *285:102 0.00128366
20 *285:98 0.00279654
21 *285:96 0.00274662
22 *285:84 0.00064357
23 *285:58 0.00143974
24 *285:54 0.00265894
25 *285:52 0.00124268
26 *285:50 2.34823e-05
27 *285:48 0.00195176
28 *285:46 0.00270132
29 *285:42 0.000861275
30 *285:32 0.00123977
31 *285:26 0.00188038
32 *285:22 0.00685274
33 *285:20 0.00490052
34 *285:18 0.0011439
35 *285:4 0.00373615
36 *8613:B *467:6 0.000320422
37 *8613:B *612:14 0.000574102
38 *285:18 *391:66 0
39 *285:18 *540:8 0
40 *285:18 *549:12 0
41 *285:22 *333:103 4.6595e-05
42 *285:26 *8713:A0 6.51477e-06
43 *285:26 *8713:A1 8.14599e-05
44 *285:26 *333:103 7.53384e-06
45 *285:26 *387:67 0.000267178
46 *285:26 *452:10 9.25285e-05
47 *285:26 *452:12 3.40295e-05
48 *285:32 *295:8 2.5415e-05
49 *285:32 *333:91 0
50 *285:32 *401:10 0.000408328
51 *285:32 *452:12 5.50106e-05
52 *285:32 *587:20 1.14452e-05
53 *285:42 *8697:A0 0.0002246
54 *285:42 *8711:A1 0
55 *285:42 *292:10 0.000367555
56 *285:42 *321:78 0
57 *285:42 *333:16 0
58 *285:42 *337:14 4.21594e-06
59 *285:42 *401:10 0.00025236
60 *285:42 *404:24 0.000106217
61 *285:42 *424:10 0.000119457
62 *285:42 *451:18 0
63 *285:42 *451:20 0
64 *285:46 *312:18 0
65 *285:46 *451:20 0.000238464
66 *285:46 *487:26 8.94487e-05
67 *285:48 *312:18 0
68 *285:48 *385:10 0
69 *285:48 *385:40 0
70 *285:48 *451:20 0.00406021
71 *285:48 *477:20 0
72 *285:54 *407:8 0.00501562
73 *285:54 *586:22 0.00265238
74 *285:58 *290:10 5.70419e-05
75 *285:58 *407:8 0.00204221
76 *285:84 *617:DIODE 0.000261685
77 *285:84 *8652:A1 0.000180224
78 *285:84 *8652:S 2.81041e-05
79 *285:84 *312:8 0.000163247
80 *285:84 *374:8 0.000351434
81 *285:84 *487:22 6.24154e-05
82 *285:98 *289:10 0.000250617
83 *285:98 *508:86 0.000266798
84 *285:108 *581:10 0.00144619
85 *285:112 *355:12 0.00488527
86 *285:124 *286:12 0.000126847
87 *285:124 *427:12 7.0902e-05
88 *285:124 *579:10 0.000299285
89 *285:150 *333:103 5.31444e-05
90 *285:150 *333:142 0
91 *285:150 *355:81 0.00121118
92 *285:159 *391:28 0.00126956
93 *285:159 *391:37 0.000218483
94 *285:165 *313:8 0
95 *285:165 *322:96 0
96 *285:165 *391:39 2.60152e-05
97 *285:165 *431:14 1.01436e-05
98 *285:165 *539:12 0
99 *264:8 *285:48 2.79004e-05
100 *280:10 *285:48 0
101 *281:20 *285:84 0.000178517
*RES
1 *8602:X *285:4 23 
2 *285:4 *285:18 36.0457 
3 *285:18 *285:20 15 
4 *285:20 *285:22 63.0336 
5 *285:22 *285:26 19.4507 
6 *285:26 *285:32 26.6829 
7 *285:32 *285:42 32.5243 
8 *285:42 *285:46 18.3143 
9 *285:46 *285:48 53.3186 
10 *285:48 *285:50 15 
11 *285:50 *285:52 0.497143 
12 *285:52 *285:54 55.1725 
13 *285:54 *285:58 39.9475 
14 *285:58 *8611:B 23 
15 *285:50 *8619:B 23 
16 *285:46 *285:84 30.7636 
17 *285:84 *8617:B 23 
18 *285:42 *8615:B 23 
19 *285:32 *285:96 15 
20 *285:96 *285:98 52.0757 
21 *285:98 *285:102 1.11857 
22 *285:102 *285:108 43.2336 
23 *285:108 *285:110 15 
24 *285:110 *285:112 53.505 
25 *285:112 *285:124 36.38 
26 *285:124 *8603:B 23 
27 *285:112 *8607:B 23 
28 *285:102 *8609:B 23 
29 *285:26 *8621:B 23 
30 *285:22 *285:150 45.9914 
31 *285:150 *8605:B 23 
32 *285:4 *285:159 39.4607 
33 *285:159 *285:165 44.935 
34 *285:165 *8613:B 29.3386 
*END

*D_NET *286 0.00145332
*CONN
*I *8604:A I *D sky130_fd_sc_hd__buf_1
*I *8603:X O *D sky130_fd_sc_hd__and2_1
*CAP
1 *8604:A 0
2 *8603:X 0.000571146
3 *286:12 0.000571146
4 *286:12 *8750:A 0
5 *286:12 *288:8 4.31296e-05
6 *286:12 *427:12 0.000141052
7 *285:124 *286:12 0.000126847
*RES
1 *8603:X *286:12 49.1857 
2 *286:12 *8604:A 38 
*END

*D_NET *287 0.000451295
*CONN
*I *8606:A I *D sky130_fd_sc_hd__buf_1
*I *8605:X O *D sky130_fd_sc_hd__and2_1
*CAP
1 *8606:A 0.000135841
2 *8605:X 0.000135841
3 *8606:A *515:10 0.000179613
*RES
1 *8605:X *8606:A 49.48 
*END

*D_NET *288 0.00133354
*CONN
*I *8608:A I *D sky130_fd_sc_hd__buf_1
*I *8607:X O *D sky130_fd_sc_hd__and2_1
*CAP
1 *8608:A 5.98189e-05
2 *8607:X 0.000420255
3 *288:8 0.000480074
4 *8608:A *404:8 5.12254e-05
5 *288:8 *8750:A 0
6 *288:8 *8837:RESET_B 9.88575e-05
7 *288:8 *355:32 0
8 *288:8 *359:10 2.29192e-05
9 *288:8 *474:10 3.83778e-05
10 *288:8 *509:52 0.000118879
11 *253:8 *288:8 0
12 *286:12 *288:8 4.31296e-05
*RES
1 *8607:X *288:8 45.8921 
2 *288:8 *8608:A 39.0979 
*END

*D_NET *289 0.00112418
*CONN
*I *8610:A I *D sky130_fd_sc_hd__buf_1
*I *8609:X O *D sky130_fd_sc_hd__and2_1
*CAP
1 *8610:A 0
2 *8609:X 0.000408718
3 *289:10 0.000408718
4 *289:10 *311:110 5.61311e-05
5 *289:10 *602:12 0
6 *285:98 *289:10 0.000250617
*RES
1 *8609:X *289:10 45.1671 
2 *289:10 *8610:A 38 
*END

*D_NET *290 0.000957731
*CONN
*I *8612:A I *D sky130_fd_sc_hd__clkbuf_1
*I *8611:X O *D sky130_fd_sc_hd__and2_1
*CAP
1 *8612:A 0
2 *8611:X 0.00038399
3 *290:10 0.00038399
4 *290:10 *407:8 8.7843e-05
5 *290:10 *605:8 4.48671e-05
6 *285:58 *290:10 5.70419e-05
*RES
1 *8611:X *290:10 44.3386 
2 *290:10 *8612:A 38 
*END

*D_NET *291 0.00116459
*CONN
*I *8614:A I *D sky130_fd_sc_hd__buf_1
*I *8613:X O *D sky130_fd_sc_hd__and2_1
*CAP
1 *8614:A 0
2 *8613:X 0.000450949
3 *291:10 0.000450949
4 *291:10 *400:8 3.20914e-05
5 *291:10 *612:14 0.000230604
*RES
1 *8613:X *291:10 45.6021 
2 *291:10 *8614:A 38 
*END

*D_NET *292 0.00190586
*CONN
*I *8616:A I *D sky130_fd_sc_hd__clkbuf_2
*I *8615:X O *D sky130_fd_sc_hd__and2_1
*CAP
1 *8616:A 0
2 *8615:X 0.000407651
3 *292:10 0.000407651
4 *292:10 *8697:A0 0.00035322
5 *292:10 *404:24 0.000369786
6 *285:42 *292:10 0.000367555
*RES
1 *8615:X *292:10 47.0314 
2 *292:10 *8616:A 38 
*END

*D_NET *293 0.00220635
*CONN
*I *8618:A I *D sky130_fd_sc_hd__buf_1
*I *8617:X O *D sky130_fd_sc_hd__and2_1
*CAP
1 *8618:A 0.000796161
2 *8617:X 4.2377e-05
3 *293:8 0.000838538
4 *8618:A *8736:A 9.91701e-05
5 *8618:A *8848:CLK 2.93845e-05
6 *8618:A *385:54 2.81406e-06
7 *8618:A *585:38 4.57742e-05
8 *293:8 *385:54 8.62876e-05
9 *264:18 *8618:A 0.000181801
10 *281:12 *293:8 8.4047e-05
*RES
1 *8617:X *293:8 39.2014 
2 *293:8 *8618:A 49.1443 
*END

*D_NET *294 0.000912262
*CONN
*I *8620:A I *D sky130_fd_sc_hd__buf_1
*I *8619:X O *D sky130_fd_sc_hd__and2_1
*CAP
1 *8620:A 0.00011696
2 *8619:X 0.000184473
3 *294:10 0.000301433
4 *294:10 *407:8 0.000141954
5 *294:10 *451:20 0
6 *294:10 *477:20 0.000167443
*RES
1 *8619:X *294:10 41.8321 
2 *294:10 *8620:A 39.5743 
*END

*D_NET *295 0.000985653
*CONN
*I *8622:A I *D sky130_fd_sc_hd__buf_1
*I *8621:X O *D sky130_fd_sc_hd__and2_1
*CAP
1 *8622:A 0.000372046
2 *8621:X 4.82822e-05
3 *295:8 0.000420328
4 *8622:A *405:10 3.32942e-05
5 *295:8 *333:91 8.62876e-05
6 *285:32 *295:8 2.5415e-05
*RES
1 *8621:X *295:8 39.2014 
2 *295:8 *8622:A 43.4271 
*END

*D_NET *296 0.0903987
*CONN
*I *8632:B I *D sky130_fd_sc_hd__and2_1
*I *8636:B I *D sky130_fd_sc_hd__and2_1
*I *8626:B I *D sky130_fd_sc_hd__and2_1
*I *8634:B I *D sky130_fd_sc_hd__and2_1
*I *8640:B I *D sky130_fd_sc_hd__and2_1
*I *8628:B I *D sky130_fd_sc_hd__and2_1
*I *8624:B I *D sky130_fd_sc_hd__and2_1
*I *8630:B I *D sky130_fd_sc_hd__and2_1
*I *8638:B I *D sky130_fd_sc_hd__and2_1
*I *8642:B I *D sky130_fd_sc_hd__and2_1
*I *8623:X O *D sky130_fd_sc_hd__clkbuf_8
*CAP
1 *8632:B 0
2 *8636:B 1.50079e-05
3 *8626:B 0
4 *8634:B 0.000141629
5 *8640:B 0
6 *8628:B 0
7 *8624:B 4.01155e-05
8 *8630:B 0
9 *8638:B 0
10 *8642:B 0
11 *8623:X 0
12 *296:151 0.000127209
13 *296:145 0.00456035
14 *296:143 0.00522994
15 *296:131 0.00215773
16 *296:120 0.00402111
17 *296:118 0.0030844
18 *296:102 0.000192402
19 *296:96 0.000611185
20 *296:82 0.00268696
21 *296:80 0.00366124
22 *296:76 0.00125404
23 *296:63 0.00094848
24 *296:57 0.00481575
25 *296:55 0.00427213
26 *296:51 0.00020616
27 *296:44 0.00230788
28 *296:42 0.00360186
29 *296:40 0.00210284
30 *296:29 0.00220075
31 *296:16 0.00318801
32 *296:14 0.00429505
33 *296:6 0.00249893
34 *8634:B *302:10 7.44354e-05
35 *8636:B *434:25 5.50049e-05
36 *8636:B *596:12 5.50049e-05
37 *296:14 *321:109 0
38 *296:14 *430:10 0.00163094
39 *296:16 *599:14 0.00010018
40 *296:29 *304:6 0.000445374
41 *296:29 *430:10 0.000303726
42 *296:29 *430:25 0.000392915
43 *296:40 *8638:A 0.000566283
44 *296:40 *430:25 0.00218397
45 *296:42 *430:25 0.000314364
46 *296:42 *607:20 0.00198792
47 *296:44 *430:75 0.000839247
48 *296:55 *430:33 0
49 *296:55 *510:12 2.57346e-05
50 *296:55 *510:20 1.14452e-05
51 *296:57 *8818:RESET_B 0.000129984
52 *296:57 *311:159 0
53 *296:57 *311:163 0
54 *296:57 *430:33 9.52414e-06
55 *296:57 *488:10 0.000163256
56 *296:57 *488:14 0.00020964
57 *296:57 *510:20 0.000644821
58 *296:57 *510:36 0.00584228
59 *296:57 *557:16 0
60 *296:57 *590:10 0
61 *296:63 *8641:A 0.000102093
62 *296:63 *297:10 3.50539e-05
63 *296:63 *305:8 4.08641e-05
64 *296:63 *488:14 0.000141879
65 *296:63 *510:82 5.47808e-05
66 *296:63 *527:8 2.07355e-05
67 *296:63 *534:16 0.000136738
68 *296:63 *557:16 0
69 *296:76 *402:12 0.000641809
70 *296:76 *510:48 0.000162855
71 *296:80 *8775:A 9.98532e-05
72 *296:96 *430:33 0
73 *296:96 *510:12 0.000136039
74 *296:96 *607:28 0.00025214
75 *296:102 *302:10 2.93747e-05
76 *296:118 *385:54 1.59312e-05
77 *296:118 *430:123 0
78 *296:118 *510:12 0.000163934
79 *296:118 *585:44 0.000215791
80 *296:118 *607:28 0.000183811
81 *296:120 *8815:CLK 0.000156388
82 *296:120 *303:8 8.85189e-05
83 *296:120 *343:8 8.85189e-05
84 *296:120 *363:8 0.000169683
85 *296:120 *388:117 0.000365001
86 *296:120 *388:130 0.000234382
87 *296:120 *430:123 8.34165e-05
88 *296:120 *430:125 0.00282352
89 *296:120 *475:10 0.000354788
90 *296:120 *507:25 0.0025874
91 *296:120 *510:12 0.00144339
92 *296:131 *430:125 0.0017599
93 *296:131 *430:135 0.000164548
94 *296:131 *480:22 8.62876e-05
95 *296:131 *507:25 0.00118601
96 *296:131 *509:84 0
97 *296:143 *8739:A1 7.53384e-06
98 *296:143 *8740:A 1.37232e-05
99 *296:143 *8844:RESET_B 3.99364e-05
100 *296:143 *480:22 1.41077e-05
101 *296:143 *509:88 0.000542904
102 *296:143 *509:96 0.000274531
103 *296:145 *509:96 0.000668462
104 *296:151 *520:8 2.5415e-05
105 *8597:A *296:143 0.000187129
106 *8601:A *296:118 2.05503e-05
107 *8844:D *296:143 1.10317e-05
108 *8849:D *296:80 2.19667e-05
109 *248:10 *296:143 0.000116647
110 *275:34 *296:29 0
111 *281:12 *296:118 0.000222106
*RES
1 *8623:X *296:6 38 
2 *296:6 *296:14 44.0829 
3 *296:14 *296:16 58.2693 
4 *296:16 *8642:B 23 
5 *296:6 *296:29 44.0207 
6 *296:29 *8638:B 23 
7 *296:29 *296:40 25.9032 
8 *296:40 *296:42 31.8275 
9 *296:42 *296:44 41.5943 
10 *296:44 *8630:B 23 
11 *296:42 *296:51 15 
12 *296:51 *296:55 1.91607 
13 *296:55 *296:57 112.158 
14 *296:57 *296:63 24.6736 
15 *296:63 *8624:B 23.8493 
16 *296:63 *296:76 38.5964 
17 *296:76 *296:80 13.0189 
18 *296:80 *296:82 49.9318 
19 *296:82 *8628:B 23 
20 *296:57 *8640:B 38 
21 *296:51 *296:96 3.66643 
22 *296:96 *296:102 16.1186 
23 *296:102 *8634:B 25.5271 
24 *296:102 *8626:B 23 
25 *296:96 *296:118 9.04179 
26 *296:118 *296:120 92.9346 
27 *296:120 *8636:B 38.6214 
28 *296:120 *296:131 46.98 
29 *296:131 *296:143 35.3518 
30 *296:143 *296:145 61.8425 
31 *296:145 *296:151 32.2579 
32 *296:151 *8632:B 23 
*END

*D_NET *297 0.00158395
*CONN
*I *8625:A I *D sky130_fd_sc_hd__buf_1
*I *8624:X O *D sky130_fd_sc_hd__and2_1
*CAP
1 *8625:A 6.95423e-05
2 *8624:X 0.000211421
3 *297:10 0.000280964
4 *8625:A *8798:RESET_B 0.000222785
5 *8625:A *8845:CLK 0.000221084
6 *297:10 *318:10 0.000172429
7 *297:10 *510:82 5.50049e-05
8 *297:10 *534:16 3.7122e-06
9 *297:10 *576:22 0.000123024
10 *214:10 *297:10 0.000188926
11 *296:63 *297:10 3.50539e-05
*RES
1 *8624:X *297:10 43.1371 
2 *297:10 *8625:A 40.5271 
*END

*D_NET *298 0.00235724
*CONN
*I *8627:A I *D sky130_fd_sc_hd__clkbuf_2
*I *8626:X O *D sky130_fd_sc_hd__and2_1
*CAP
1 *8627:A 4.62547e-05
2 *8626:X 0.000461327
3 *298:12 0.000507582
4 *8627:A *511:62 0.000137651
5 *8627:A *585:38 0.000137651
6 *298:12 *302:10 0.00063429
7 *298:12 *412:10 2.5343e-05
8 *298:12 *442:41 0.000234939
9 *298:12 *560:8 0.000172201
*RES
1 *8626:X *298:12 49.9107 
2 *298:12 *8627:A 39.5743 
*END

*D_NET *299 0.000964361
*CONN
*I *8629:A I *D sky130_fd_sc_hd__clkbuf_1
*I *8628:X O *D sky130_fd_sc_hd__and2_1
*CAP
1 *8629:A 9.25024e-05
2 *8628:X 0.000104549
3 *299:8 0.000197051
4 *8629:A *559:16 0.000367267
5 *8629:A *600:6 0.000202991
*RES
1 *8628:X *299:8 39.5536 
2 *299:8 *8629:A 42.4536 
*END

*D_NET *300 0.000982533
*CONN
*I *8631:A I *D sky130_fd_sc_hd__dlymetal6s2s_1
*I *8630:X O *D sky130_fd_sc_hd__and2_1
*CAP
1 *8631:A 0
2 *8630:X 0.000376106
3 *300:10 0.000376106
4 *300:10 *430:71 0
5 *300:10 *430:75 0.00023032
*RES
1 *8630:X *300:10 44.3386 
2 *300:10 *8631:A 38 
*END

*D_NET *301 0.000257244
*CONN
*I *8633:A I *D sky130_fd_sc_hd__clkbuf_1
*I *8632:X O *D sky130_fd_sc_hd__and2_1
*CAP
1 *8633:A 4.06507e-05
2 *8632:X 4.06507e-05
3 *8633:A *411:10 3.22879e-05
4 *8633:A *570:20 0.000143655
*RES
1 *8632:X *8633:A 47.5743 
*END

*D_NET *302 0.00210871
*CONN
*I *8635:A I *D sky130_fd_sc_hd__clkbuf_2
*I *8634:X O *D sky130_fd_sc_hd__and2_1
*CAP
1 *8635:A 0
2 *8634:X 0.000628266
3 *302:10 0.000628266
4 *302:10 *442:41 0.000114083
5 *8634:B *302:10 7.44354e-05
6 *296:102 *302:10 2.93747e-05
7 *298:12 *302:10 0.00063429
*RES
1 *8634:X *302:10 47.7979 
2 *302:10 *8635:A 38 
*END

*D_NET *303 0.000946078
*CONN
*I *8637:A I *D sky130_fd_sc_hd__buf_1
*I *8636:X O *D sky130_fd_sc_hd__and2_1
*CAP
1 *8637:A 0.000343352
2 *8636:X 4.11681e-05
3 *303:8 0.00038452
4 *303:8 *430:125 8.85189e-05
5 *296:120 *303:8 8.85189e-05
*RES
1 *8636:X *303:8 39.2014 
2 *303:8 *8637:A 43.6343 
*END

*D_NET *304 0.000803868
*CONN
*I *8639:A I *D sky130_fd_sc_hd__dlymetal6s2s_1
*I *8638:X O *D sky130_fd_sc_hd__and2_1
*CAP
1 *8639:A 0
2 *8638:X 9.10053e-05
3 *304:6 9.10053e-05
4 *304:6 *430:25 0.000176484
5 *296:29 *304:6 0.000445374
*RES
1 *8638:X *304:6 27.9093 
2 *304:6 *8639:A 23 
*END

*D_NET *305 0.000729713
*CONN
*I *8641:A I *D sky130_fd_sc_hd__dlymetal6s2s_1
*I *8640:X O *D sky130_fd_sc_hd__and2_1
*CAP
1 *8641:A 8.35797e-05
2 *8640:X 9.39811e-05
3 *305:8 0.000177561
4 *8641:A *416:8 0.00014196
5 *8641:A *527:8 7.27085e-05
6 *305:8 *488:14 1.69668e-05
7 *305:8 *557:16 0
8 *296:63 *8641:A 0.000102093
9 *296:63 *305:8 4.08641e-05
*RES
1 *8640:X *305:8 39.9057 
2 *305:8 *8641:A 41.0036 
*END

*D_NET *306 0.000680941
*CONN
*I *8643:A I *D sky130_fd_sc_hd__buf_1
*I *8642:X O *D sky130_fd_sc_hd__and2_1
*CAP
1 *8643:A 8.97072e-05
2 *8642:X 0.000136309
3 *306:8 0.000226016
4 *8643:A *589:12 0.000228909
*RES
1 *8642:X *306:8 40.2579 
2 *306:8 *8643:A 40.5271 
*END

*D_NET *307 0.00216527
*CONN
*I *8645:A I *D sky130_fd_sc_hd__clkbuf_2
*I *8644:X O *D sky130_fd_sc_hd__and2_1
*CAP
1 *8645:A 0
2 *8644:X 0.000761071
3 *307:10 0.000761071
4 *307:10 *8757:A 0.000351508
5 *307:10 *311:32 0.00013274
6 *307:10 *321:12 0.000109377
7 *307:10 *614:10 0
8 *8644:B *307:10 4.95081e-05
*RES
1 *8644:X *307:10 49.2271 
2 *307:10 *8645:A 38 
*END

*D_NET *308 0.000739303
*CONN
*I *8647:A I *D sky130_fd_sc_hd__buf_1
*I *8646:X O *D sky130_fd_sc_hd__and2_1
*CAP
1 *8647:A 0
2 *8646:X 0.000291622
3 *308:10 0.000291622
4 *8646:B *308:10 0.000156058
*RES
1 *8646:X *308:10 42.9093 
2 *308:10 *8647:A 38 
*END

*D_NET *309 0.000821823
*CONN
*I *8649:A I *D sky130_fd_sc_hd__clkbuf_2
*I *8648:X O *D sky130_fd_sc_hd__and2_1
*CAP
1 *8649:A 0
2 *8648:X 0.000216305
3 *309:6 0.000216305
4 *309:6 *553:6 7.42621e-05
5 *309:6 *553:12 0.00031495
*RES
1 *8648:X *309:6 27.9093 
2 *309:6 *8649:A 23 
*END

*D_NET *310 0.00348578
*CONN
*I *8672:A I *D sky130_fd_sc_hd__buf_8
*I *8651:A I *D sky130_fd_sc_hd__buf_6
*I *8757:A I *D sky130_fd_sc_hd__clkbuf_8
*I *8650:X O *D sky130_fd_sc_hd__or3b_2
*CAP
1 *8672:A 0
2 *8651:A 0.00018869
3 *8757:A 0.000196438
4 *8650:X 0.000160108
5 *310:12 0.000482967
6 *310:10 0.000257946
7 *8651:A *418:8 0.000143655
8 *8651:A *547:30 0.000285231
9 *8757:A *366:8 1.40958e-05
10 *8757:A *512:14 8.40712e-05
11 *310:10 *8650:C_N 3.7122e-06
12 *310:10 *512:10 3.7122e-06
13 *310:10 *512:14 6.68587e-05
14 *310:10 *514:57 1.89178e-05
15 *310:12 *512:14 0.000107651
16 *8644:B *8757:A 0.000310641
17 *275:22 *8651:A 0.000459843
18 *275:24 *8757:A 0.000108681
19 *275:78 *8757:A 8.82392e-05
20 *275:78 *310:10 4.06408e-05
21 *275:78 *310:12 0.000112172
22 *307:10 *8757:A 0.000351508
*RES
1 *8650:X *310:10 41.0036 
2 *310:10 *310:12 2.96214 
3 *310:12 *8757:A 44.5664 
4 *310:12 *8651:A 45.7886 
5 *310:10 *8672:A 38 
*END

*D_NET *311 0.0708764
*CONN
*I *8656:S I *D sky130_fd_sc_hd__mux2_1
*I *8654:A I *D sky130_fd_sc_hd__inv_2
*I *8652:S I *D sky130_fd_sc_hd__mux2_1
*I *8666:S I *D sky130_fd_sc_hd__mux2_1
*I *8670:S I *D sky130_fd_sc_hd__mux2_1
*I *8662:S I *D sky130_fd_sc_hd__mux2_1
*I *8658:S I *D sky130_fd_sc_hd__mux2_1
*I *8664:S I *D sky130_fd_sc_hd__mux2_1
*I *8660:S I *D sky130_fd_sc_hd__mux2_1
*I *8668:S I *D sky130_fd_sc_hd__mux2_1
*I *8651:X O *D sky130_fd_sc_hd__buf_6
*CAP
1 *8656:S 0
2 *8654:A 0
3 *8652:S 3.41818e-05
4 *8666:S 0
5 *8670:S 0.000245153
6 *8662:S 2.51855e-05
7 *8658:S 0
8 *8664:S 2.34823e-05
9 *8660:S 0.000163681
10 *8668:S 0
11 *8651:X 0.000142862
12 *311:207 0.000638066
13 *311:201 0.00223293
14 *311:163 0.000933555
15 *311:159 0.00449513
16 *311:157 0.00430332
17 *311:149 0.000821316
18 *311:133 0.000428035
19 *311:114 0.00206238
20 *311:110 0.00797478
21 *311:99 0.00652759
22 *311:97 0.00153732
23 *311:86 0.00199814
24 *311:78 0.00166289
25 *311:64 0.00223157
26 *311:62 0.00142715
27 *311:52 0.0017456
28 *311:48 0.00268372
29 *311:36 0.00184046
30 *311:32 0.000994903
31 *311:14 0.00235044
32 *311:12 0.000142862
33 *8652:S *8652:A1 5.3304e-05
34 *8652:S *374:8 9.67842e-05
35 *8660:S *529:8 0
36 *8660:S *602:12 0
37 *8662:S *387:39 4.2573e-05
38 *8664:S *8664:A1 0
39 *8670:S *384:52 5.70419e-05
40 *8670:S *435:28 6.16164e-05
41 *8670:S *534:16 0.000422378
42 *8670:S *537:22 0.000151601
43 *8670:S *576:22 1.80023e-05
44 *311:12 *8580:B_N 9.75779e-05
45 *311:12 *408:16 8.62876e-05
46 *311:12 *613:8 0
47 *311:32 *8758:A1 7.65203e-05
48 *311:32 *366:8 0.000107482
49 *311:32 *489:49 7.57281e-06
50 *311:32 *614:10 0.000107748
51 *311:36 *8791:CLK 9.67842e-05
52 *311:36 *547:30 0.000285385
53 *311:48 *8682:A1 0.000216776
54 *311:48 *8726:S 0.00027612
55 *311:48 *8821:RESET_B 0.00011569
56 *311:48 *8826:RESET_B 6.43031e-05
57 *311:48 *388:70 8.62876e-05
58 *311:48 *453:35 5.42593e-05
59 *311:48 *489:37 0
60 *311:48 *547:30 0.000696779
61 *311:52 *366:24 0.000506685
62 *311:52 *388:70 5.50049e-05
63 *311:52 *489:37 9.91895e-05
64 *311:62 *388:113 0.000901045
65 *311:62 *448:22 0
66 *311:62 *489:8 1.01436e-05
67 *311:62 *489:23 0.000111852
68 *311:64 *383:112 0.00010109
69 *311:64 *388:113 0.000339196
70 *311:78 *321:78 3.81565e-05
71 *311:78 *355:12 0.000688599
72 *311:78 *404:24 0
73 *311:86 *8662:A0 0.000140935
74 *311:86 *8668:A1 0
75 *311:86 *321:78 0
76 *311:86 *387:39 0.00044298
77 *311:86 *462:8 5.47927e-05
78 *311:86 *462:10 0
79 *311:86 *508:86 0.000243605
80 *311:86 *532:10 0
81 *311:97 *8668:A1 0.00014196
82 *311:97 *458:23 0.0018764
83 *311:110 *383:90 0.000138759
84 *311:110 *529:8 0
85 *311:110 *602:8 0
86 *311:110 *602:12 0
87 *311:114 *8664:A1 0.000180812
88 *311:133 *8658:A1 7.88828e-05
89 *311:133 *8664:A1 1.76557e-05
90 *311:133 *8794:CLK 0
91 *311:133 *8794:RESET_B 0
92 *311:133 *386:65 0
93 *311:133 *460:12 0
94 *311:133 *525:10 0
95 *311:149 *355:8 0.000190121
96 *311:149 *355:60 4.15283e-06
97 *311:149 *383:10 4.73716e-05
98 *311:149 *385:76 8.93663e-05
99 *311:149 *385:93 0.000126346
100 *311:157 *355:8 3.48301e-05
101 *311:157 *385:54 2.26406e-05
102 *311:157 *385:65 3.75345e-05
103 *311:157 *385:76 0.000184258
104 *311:157 *510:12 0
105 *311:157 *576:24 0.00047819
106 *311:159 *510:12 4.39199e-05
107 *311:159 *576:24 0
108 *311:159 *590:10 0.00386973
109 *311:159 *595:14 0.00181279
110 *311:163 *318:10 1.69668e-05
111 *311:163 *488:14 0
112 *311:163 *534:16 6.48049e-05
113 *311:163 *576:22 0
114 *311:163 *576:24 0.000247637
115 *311:201 *489:61 0.000202947
116 *311:201 *489:65 0.000585999
117 *311:201 *612:14 0.000487153
118 *311:207 *393:16 0.000311554
119 *311:207 *394:27 0.00060547
120 *8579:A *311:12 4.08641e-05
121 *8579:A *311:32 0
122 *8579:A *311:201 0.00014196
123 *8791:D *311:36 5.10805e-05
124 *3:19 *311:48 0.000108631
125 *3:19 *311:52 0.000122038
126 *208:8 *311:201 0
127 *208:20 *311:32 0.000467929
128 *208:20 *311:201 3.58084e-06
129 *214:10 *8670:S 0.000369009
130 *214:10 *311:163 0.000151898
131 *232:10 *311:159 7.03766e-05
132 *241:10 *311:48 0.000108681
133 *255:10 *311:62 0.000181919
134 *275:24 *311:32 0.00015034
135 *275:30 *311:32 3.71959e-05
136 *275:78 *311:32 7.67847e-05
137 *285:84 *8652:S 2.81041e-05
138 *289:10 *311:110 5.61311e-05
139 *296:57 *311:159 0
140 *296:57 *311:163 0
141 *307:10 *311:32 0.00013274
*RES
1 *8651:X *311:12 40.7964 
2 *311:12 *311:14 15 
3 *311:14 *311:32 48.56 
4 *311:32 *311:36 6.35929 
5 *311:36 *311:48 44.9943 
6 *311:48 *311:52 37.0607 
7 *311:52 *311:62 43.6093 
8 *311:62 *311:64 10.6264 
9 *311:64 *311:78 47.9593 
10 *311:78 *311:86 40.6886 
11 *311:86 *8668:S 23 
12 *311:86 *311:97 39.2536 
13 *311:97 *311:99 15 
14 *311:99 *8660:S 40.61 
15 *311:99 *311:110 121.986 
16 *311:110 *311:114 43.2543 
17 *311:114 *8664:S 23.4971 
18 *311:114 *311:133 37.7679 
19 *311:133 *8658:S 23 
20 *311:78 *8662:S 23.6214 
21 *311:64 *311:149 21.4836 
22 *311:149 *311:157 10.0568 
23 *311:157 *311:159 104.918 
24 *311:159 *311:163 15.5461 
25 *311:163 *8670:S 46.7829 
26 *311:163 *8666:S 38 
27 *311:149 *8652:S 39.0979 
28 *311:36 *8654:A 23 
29 *311:14 *311:201 44.3521 
30 *311:201 *311:207 30.8879 
31 *311:207 *8656:S 23 
*END

*D_NET *312 0.00363958
*CONN
*I *8653:A I *D sky130_fd_sc_hd__clkbuf_1
*I *8652:X O *D sky130_fd_sc_hd__mux2_1
*CAP
1 *8653:A 0
2 *8652:X 0.000338476
3 *312:18 0.000895134
4 *312:8 0.00123361
5 *312:8 *617:DIODE 0.000141954
6 *312:18 *8697:S 0.000165583
7 *312:18 *8796:CLK 6.55012e-05
8 *312:18 *333:29 0.000154431
9 *312:18 *333:31 0.000252791
10 *312:18 *385:103 4.5707e-05
11 *312:18 *387:39 0
12 *312:18 *477:18 6.58018e-05
13 *312:18 *487:26 0
14 *3:19 *312:18 2.33476e-05
15 *235:14 *312:18 5.50049e-05
16 *264:8 *312:18 4.21594e-06
17 *280:10 *312:18 3.47781e-05
18 *285:46 *312:18 0
19 *285:48 *312:18 0
20 *285:84 *312:8 0.000163247
*RES
1 *8652:X *312:8 42.9093 
2 *312:8 *312:18 30.8879 
3 *312:18 *8653:A 23 
*END

*D_NET *313 0.000746551
*CONN
*I *8657:A I *D sky130_fd_sc_hd__clkbuf_1
*I *8656:X O *D sky130_fd_sc_hd__mux2_1
*CAP
1 *8657:A 0
2 *8656:X 0.000197932
3 *313:8 0.000197932
4 *313:8 *431:14 0
5 *313:8 *539:12 0.000350687
6 *285:165 *313:8 0
*RES
1 *8656:X *313:8 42.7229 
2 *313:8 *8657:A 38 
*END

*D_NET *314 0.000397743
*CONN
*I *8659:A I *D sky130_fd_sc_hd__clkbuf_1
*I *8658:X O *D sky130_fd_sc_hd__mux2_1
*CAP
1 *8659:A 0
2 *8658:X 0.000126364
3 *314:10 0.000126364
4 *314:10 *8658:A0 2.30292e-05
5 *314:10 *8794:CLK 6.68793e-05
6 *314:10 *415:8 5.51058e-05
*RES
1 *8658:X *314:10 40.8793 
2 *314:10 *8659:A 38 
*END

*D_NET *315 0.00017301
*CONN
*I *8661:A I *D sky130_fd_sc_hd__clkbuf_1
*I *8660:X O *D sky130_fd_sc_hd__mux2_1
*CAP
1 *8661:A 5.54209e-05
2 *8660:X 5.54209e-05
3 *8661:A *8660:A1 3.91386e-05
4 *8661:A *404:16 2.30292e-05
*RES
1 *8660:X *8661:A 47.4707 
*END

*D_NET *316 0.00068265
*CONN
*I *8663:A I *D sky130_fd_sc_hd__clkbuf_1
*I *8662:X O *D sky130_fd_sc_hd__mux2_1
*CAP
1 *8663:A 0
2 *8662:X 0.000226817
3 *316:8 0.000226817
4 *316:8 *321:78 0.000188152
5 *316:8 *508:86 0
6 *212:8 *316:8 4.08641e-05
*RES
1 *8662:X *316:8 43.075 
2 *316:8 *8663:A 38 
*END

*D_NET *317 0.000723954
*CONN
*I *8665:A I *D sky130_fd_sc_hd__clkbuf_1
*I *8664:X O *D sky130_fd_sc_hd__mux2_1
*CAP
1 *8665:A 0
2 *8664:X 0.000321159
3 *317:10 0.000321159
4 *317:10 *386:65 8.16356e-05
*RES
1 *8664:X *317:10 42.785 
2 *317:10 *8665:A 38 
*END

*D_NET *318 0.00120903
*CONN
*I *8667:A I *D sky130_fd_sc_hd__clkbuf_1
*I *8666:X O *D sky130_fd_sc_hd__mux2_1
*CAP
1 *8667:A 2.99825e-05
2 *8666:X 0.000223072
3 *318:10 0.000253054
4 *8667:A *8640:A 9.84851e-05
5 *318:10 *576:22 0.000274543
6 *214:10 *8667:A 5.12254e-05
7 *214:10 *318:10 8.92738e-05
8 *297:10 *318:10 0.000172429
9 *311:163 *318:10 1.69668e-05
*RES
1 *8666:X *318:10 43.2407 
2 *318:10 *8667:A 39.0979 
*END

*D_NET *319 0.000709361
*CONN
*I *8669:A I *D sky130_fd_sc_hd__clkbuf_1
*I *8668:X O *D sky130_fd_sc_hd__mux2_1
*CAP
1 *8669:A 0.000165559
2 *8668:X 5.69925e-05
3 *319:8 0.000222551
4 *8669:A *8796:CLK 5.67058e-05
5 *8669:A *8799:RESET_B 1.41077e-05
6 *8669:A *404:24 0.000104926
7 *319:8 *395:8 8.85189e-05
*RES
1 *8668:X *319:8 39.2014 
2 *319:8 *8669:A 41.8736 
*END

*D_NET *320 0.00113165
*CONN
*I *8671:A I *D sky130_fd_sc_hd__clkbuf_1
*I *8670:X O *D sky130_fd_sc_hd__mux2_1
*CAP
1 *8671:A 2.95294e-05
2 *8670:X 0.000279658
3 *320:12 0.000309187
4 *8671:A *588:22 5.50049e-05
5 *320:12 *366:57 0.000207142
6 *320:12 *384:52 2.30292e-05
7 *320:12 *402:12 0.000204655
8 *320:12 *537:22 2.34437e-05
*RES
1 *8670:X *320:12 45.25 
2 *320:12 *8671:A 38.6214 
*END

*D_NET *321 0.0993959
*CONN
*I *8778:S I *D sky130_fd_sc_hd__mux2_1
*I *8782:S I *D sky130_fd_sc_hd__mux2_1
*I *8788:S I *D sky130_fd_sc_hd__mux2_1
*I *8780:S I *D sky130_fd_sc_hd__mux2_1
*I *8673:A I *D sky130_fd_sc_hd__buf_4
*I *8715:A I *D sky130_fd_sc_hd__clkbuf_8
*I *8736:A I *D sky130_fd_sc_hd__buf_6
*I *8694:A I *D sky130_fd_sc_hd__clkbuf_8
*I *8786:S I *D sky130_fd_sc_hd__mux2_1
*I *8784:S I *D sky130_fd_sc_hd__mux2_1
*I *8672:X O *D sky130_fd_sc_hd__buf_8
*CAP
1 *8778:S 0
2 *8782:S 9.43263e-05
3 *8788:S 2.34823e-05
4 *8780:S 0
5 *8673:A 0
6 *8715:A 0
7 *8736:A 0.000208085
8 *8694:A 0
9 *8786:S 0
10 *8784:S 0
11 *8672:X 0
12 *321:177 0.00191297
13 *321:154 0.00863858
14 *321:152 0.00939973
15 *321:142 0.00397097
16 *321:140 0.003468
17 *321:132 0.000375984
18 *321:130 0.00232409
19 *321:128 0.00232409
20 *321:126 0.00212397
21 *321:109 0.000888602
22 *321:78 0.000806232
23 *321:69 0.00193836
24 *321:67 0.00193836
25 *321:60 0.00150897
26 *321:56 0.00168858
27 *321:52 0.00224899
28 *321:48 0.00602165
29 *321:46 0.00409877
30 *321:42 0.00210671
31 *321:34 0.00141836
32 *321:30 0.00271567
33 *321:28 0.0033477
34 *321:20 0.00162823
35 *321:14 0.00216477
36 *321:12 0.00127828
37 *321:4 0.00115302
38 *8736:A *333:54 5.29353e-05
39 *8736:A *576:24 5.52131e-05
40 *8782:S *493:14 3.08966e-05
41 *8782:S *497:16 0.000124306
42 *321:12 *8578:B_N 0
43 *321:12 *8791:RESET_B 0
44 *321:12 *8792:RESET_B 0
45 *321:12 *389:99 0
46 *321:12 *430:8 1.05441e-05
47 *321:12 *512:14 0
48 *321:12 *613:37 1.19692e-05
49 *321:12 *614:10 0
50 *321:12 *614:25 0
51 *321:12 *614:35 3.91747e-05
52 *321:14 *389:93 4.75206e-05
53 *321:14 *389:106 0.000105934
54 *321:20 *389:93 0.00111515
55 *321:20 *440:12 0.000596527
56 *321:28 *8692:A0 0.000785351
57 *321:28 *344:18 1.03836e-05
58 *321:28 *389:93 0.000223698
59 *321:28 *412:14 0.000116687
60 *321:28 *440:12 0.000223698
61 *321:28 *472:12 0
62 *321:28 *541:14 5.13811e-05
63 *321:28 *602:16 7.9284e-05
64 *321:30 *412:14 0.000173213
65 *321:30 *602:16 0.00388982
66 *321:34 *333:54 2.29192e-05
67 *321:34 *576:24 8.4047e-05
68 *321:48 *383:26 0.000329432
69 *321:48 *383:40 0.000338254
70 *321:48 *462:10 0
71 *321:48 *532:10 0.00245813
72 *321:60 *384:18 0
73 *321:60 *384:90 0
74 *321:60 *409:14 0
75 *321:69 *384:90 0.000441215
76 *321:69 *384:94 0.00385812
77 *321:78 *8662:A1 3.46181e-05
78 *321:78 *401:10 0
79 *321:78 *404:24 0
80 *321:78 *458:21 6.88819e-05
81 *321:78 *508:86 0
82 *321:78 *532:10 0.000909987
83 *321:78 *535:10 0
84 *321:109 *478:8 0.00062031
85 *321:126 *8792:RESET_B 3.98859e-05
86 *321:126 *408:16 0
87 *321:126 *437:34 4.94192e-05
88 *321:126 *514:57 0.000140259
89 *321:126 *516:20 6.17437e-06
90 *321:126 *516:22 7.59794e-05
91 *321:126 *516:35 6.48142e-05
92 *321:126 *568:24 0.000224605
93 *321:126 *613:29 5.70419e-05
94 *321:126 *613:37 5.97612e-05
95 *321:130 *391:20 0.000512633
96 *321:130 *391:22 0.00132199
97 *321:130 *391:28 6.68587e-05
98 *321:130 *408:16 0
99 *321:130 *408:18 0
100 *321:130 *516:35 0
101 *321:130 *516:37 0
102 *321:130 *563:10 6.16439e-05
103 *321:140 *379:10 0.000179137
104 *321:140 *497:16 0.000530622
105 *321:140 *516:37 0
106 *321:142 *8788:A1 0.000173442
107 *321:152 *8788:A1 3.22879e-05
108 *321:152 *366:99 0
109 *321:154 *8780:A1 6.17437e-06
110 *321:177 *514:57 0.00204182
111 *321:177 *516:20 0.003201
112 *8583:A *321:14 9.84851e-05
113 *8618:A *8736:A 9.91701e-05
114 *8853:D *321:142 3.7122e-06
115 *264:18 *8736:A 0.000102093
116 *264:18 *321:42 0.000691496
117 *275:30 *321:12 0
118 *275:34 *321:109 0.000494575
119 *275:87 *321:140 0
120 *285:42 *321:78 0
121 *296:14 *321:109 0
122 *307:10 *321:12 0.000109377
123 *311:78 *321:78 3.81565e-05
124 *311:86 *321:78 0
125 *316:8 *321:78 0.000188152
*RES
1 *8672:X *321:4 23 
2 *321:4 *321:12 45.7843 
3 *321:12 *321:14 5.38571 
4 *321:14 *321:20 19.8443 
5 *321:20 *321:28 45.515 
6 *321:28 *321:30 43.0236 
7 *321:30 *321:34 16.2014 
8 *321:34 *321:42 31.5093 
9 *321:42 *321:46 17.0507 
10 *321:46 *321:48 94.8714 
11 *321:48 *321:52 49.4479 
12 *321:52 *321:56 18.3143 
13 *321:56 *321:60 43.3164 
14 *321:60 *8784:S 23 
15 *321:56 *321:67 15 
16 *321:67 *321:69 54.4579 
17 *321:69 *8786:S 23 
18 *321:42 *321:78 35.2171 
19 *321:78 *8694:A 38 
20 *321:34 *8736:A 42.495 
21 *321:20 *8715:A 23 
22 *321:14 *321:109 39.4429 
23 *321:109 *8673:A 38 
24 *321:4 *321:126 36.7114 
25 *321:126 *321:128 15 
26 *321:128 *321:130 56.1357 
27 *321:130 *321:132 15 
28 *321:132 *321:140 38.4721 
29 *321:140 *321:142 52.5521 
30 *321:142 *321:152 43.0293 
31 *321:152 *321:154 152.602 
32 *321:154 *8780:S 23 
33 *321:142 *8788:S 23.4971 
34 *321:132 *8782:S 25.0714 
35 *321:126 *321:177 62.5571 
36 *321:177 *8778:S 23 
*END

*D_NET *322 0.0442207
*CONN
*I *8686:S I *D sky130_fd_sc_hd__mux2_1
*I *8678:S I *D sky130_fd_sc_hd__mux2_1
*I *8676:S I *D sky130_fd_sc_hd__mux2_1
*I *8682:S I *D sky130_fd_sc_hd__mux2_1
*I *8690:S I *D sky130_fd_sc_hd__mux2_1
*I *8692:S I *D sky130_fd_sc_hd__mux2_1
*I *8680:S I *D sky130_fd_sc_hd__mux2_1
*I *8674:S I *D sky130_fd_sc_hd__mux2_1
*I *8688:S I *D sky130_fd_sc_hd__mux2_1
*I *8684:S I *D sky130_fd_sc_hd__mux2_1
*I *8673:X O *D sky130_fd_sc_hd__buf_4
*CAP
1 *8686:S 0
2 *8678:S 0
3 *8676:S 0
4 *8682:S 0.00030587
5 *8690:S 0.000123219
6 *8692:S 9.95045e-05
7 *8680:S 0
8 *8674:S 2.35907e-05
9 *8688:S 0
10 *8684:S 0.000585388
11 *8673:X 0
12 *322:107 0.0015962
13 *322:100 0.00154319
14 *322:96 0.00414158
15 *322:87 0.00371868
16 *322:83 0.00503683
17 *322:63 0.000735265
18 *322:52 0.00118355
19 *322:43 0.000867413
20 *322:16 0.00186196
21 *322:14 0.0023587
22 *322:10 0.00155747
23 *322:8 0.00157779
24 *322:4 0.00335684
25 *8674:S *323:8 5.50049e-05
26 *8682:S *8770:A1 1.69668e-05
27 *8682:S *366:138 0.000127263
28 *8682:S *486:21 6.88852e-05
29 *8682:S *591:14 0
30 *8684:S *328:10 0
31 *8684:S *403:10 0
32 *8684:S *435:10 0.000139647
33 *8684:S *512:49 0
34 *8690:S *8690:A1 3.71369e-05
35 *8690:S *331:14 9.84851e-05
36 *8690:S *423:14 0.000198206
37 *8690:S *511:26 3.7122e-06
38 *8692:S *344:8 0.000438462
39 *8692:S *389:93 0.000438462
40 *322:10 *8801:RESET_B 0.00128606
41 *322:10 *556:14 0.000430673
42 *322:14 *8801:RESET_B 0.000242996
43 *322:14 *389:10 0.000929226
44 *322:14 *389:12 0.0002832
45 *322:14 *389:55 4.85126e-05
46 *322:14 *403:10 0.000642401
47 *322:14 *439:8 0
48 *322:14 *556:14 1.44346e-05
49 *322:16 *389:12 0.00237953
50 *322:16 *403:10 0
51 *322:43 *8801:RESET_B 0.000246757
52 *322:43 *556:14 8.1606e-05
53 *322:52 *8801:RESET_B 0.000225265
54 *322:52 *439:8 0
55 *322:52 *511:110 0.00132982
56 *322:52 *556:14 0.000552925
57 *322:63 *8690:A1 0
58 *322:63 *366:138 1.14452e-05
59 *322:63 *439:8 0
60 *322:63 *454:25 0
61 *322:63 *511:26 0
62 *322:63 *556:14 0.000103941
63 *322:87 *583:18 0.00218258
64 *322:96 *391:39 0
65 *322:96 *583:18 9.18526e-05
66 *322:100 *325:10 7.59964e-05
67 *322:100 *503:20 1.76557e-05
68 *322:100 *523:6 5.67058e-05
69 *322:107 *8686:A1 3.22879e-05
70 *217:10 *8674:S 2.64616e-05
71 *217:10 *322:14 0.000192077
72 *218:10 *322:87 0.000296937
73 *249:10 *322:14 0.00014411
74 *285:165 *322:96 0
*RES
1 *8673:X *322:4 23 
2 *322:4 *322:8 32.2964 
3 *322:8 *322:10 17.0479 
4 *322:10 *322:14 36.2811 
5 *322:14 *322:16 34.7068 
6 *322:16 *8684:S 49.4136 
7 *322:16 *8688:S 38 
8 *322:10 *8674:S 38.6214 
9 *322:8 *322:43 3.31429 
10 *322:43 *8680:S 38 
11 *322:43 *322:52 22.6821 
12 *322:52 *8692:S 42.9093 
13 *322:52 *322:63 5.77929 
14 *322:63 *8690:S 41.9564 
15 *322:63 *8682:S 43.7793 
16 *322:4 *322:83 42.0707 
17 *322:83 *322:87 46.4857 
18 *322:87 *8676:S 38 
19 *322:87 *322:96 47.6843 
20 *322:96 *322:100 44.2071 
21 *322:100 *8678:S 23 
22 *322:83 *322:107 29.2071 
23 *322:107 *8686:S 23 
*END

*D_NET *323 0.000851849
*CONN
*I *8675:A I *D sky130_fd_sc_hd__clkbuf_1
*I *8674:X O *D sky130_fd_sc_hd__mux2_1
*CAP
1 *8675:A 0
2 *8674:X 0.000266933
3 *323:8 0.000266933
4 *323:8 *464:23 0.000144231
5 *323:8 *538:12 0.00010655
6 *8674:S *323:8 5.50049e-05
7 *217:10 *323:8 1.21972e-05
*RES
1 *8674:X *323:8 29.235 
2 *323:8 *8675:A 23 
*END

*D_NET *324 0.0010097
*CONN
*I *8677:A I *D sky130_fd_sc_hd__clkbuf_1
*I *8676:X O *D sky130_fd_sc_hd__mux2_1
*CAP
1 *8677:A 0
2 *8676:X 0.000152535
3 *324:8 0.000152535
4 *324:8 *8676:A0 0.00010655
5 *324:8 *423:14 0.000486246
6 *324:8 *423:20 1.14154e-05
7 *324:8 *465:14 0.000100415
*RES
1 *8676:X *324:8 29.235 
2 *324:8 *8677:A 23 
*END

*D_NET *325 0.000634078
*CONN
*I *8679:A I *D sky130_fd_sc_hd__clkbuf_1
*I *8678:X O *D sky130_fd_sc_hd__mux2_1
*CAP
1 *8679:A 0
2 *8678:X 0.000242491
3 *325:10 0.000242491
4 *325:10 *8823:RESET_B 6.16531e-05
5 *325:10 *391:49 1.14452e-05
6 *322:100 *325:10 7.59964e-05
*RES
1 *8678:X *325:10 41.9564 
2 *325:10 *8679:A 38 
*END

*D_NET *326 0.000318954
*CONN
*I *8681:A I *D sky130_fd_sc_hd__clkbuf_1
*I *8680:X O *D sky130_fd_sc_hd__mux2_1
*CAP
1 *8681:A 0.000159477
2 *8680:X 0.000159477
*RES
1 *8680:X *8681:A 48.9 
*END

*D_NET *327 0.00116116
*CONN
*I *8683:A I *D sky130_fd_sc_hd__clkbuf_1
*I *8682:X O *D sky130_fd_sc_hd__mux2_1
*CAP
1 *8683:A 0
2 *8682:X 0.000293997
3 *327:10 0.000293997
4 *327:10 *8682:A1 0.000240811
5 *327:10 *434:21 0.000222123
6 *327:10 *454:25 0.000110228
*RES
1 *8682:X *327:10 44.7736 
2 *327:10 *8683:A 38 
*END

*D_NET *328 0.00103027
*CONN
*I *8685:A I *D sky130_fd_sc_hd__clkbuf_1
*I *8684:X O *D sky130_fd_sc_hd__mux2_1
*CAP
1 *8685:A 0
2 *8684:X 0.000350804
3 *328:10 0.000350804
4 *328:10 *344:134 0.000222113
5 *328:10 *435:20 0.00010655
6 *328:10 *512:49 0
7 *328:10 *580:14 0
8 *8684:S *328:10 0
*RES
1 *8684:X *328:10 44.7736 
2 *328:10 *8685:A 38 
*END

*D_NET *329 0.000740963
*CONN
*I *8687:A I *D sky130_fd_sc_hd__clkbuf_1
*I *8686:X O *D sky130_fd_sc_hd__mux2_1
*CAP
1 *8687:A 7.35678e-05
2 *8686:X 0.000269104
3 *329:12 0.000342671
4 *329:12 *8807:RESET_B 0
5 *329:12 *389:123 0
6 *223:10 *329:12 5.56203e-05
*RES
1 *8686:X *329:12 43.2614 
2 *329:12 *8687:A 39.4707 
*END

*D_NET *330 0.000969888
*CONN
*I *8689:A I *D sky130_fd_sc_hd__clkbuf_1
*I *8688:X O *D sky130_fd_sc_hd__mux2_1
*CAP
1 *8689:A 0
2 *8688:X 0.000467045
3 *330:10 0.000467045
4 *330:10 *580:14 3.57974e-05
*RES
1 *8688:X *330:10 44.6907 
2 *330:10 *8689:A 38 
*END

*D_NET *331 0.00153801
*CONN
*I *8691:A I *D sky130_fd_sc_hd__clkbuf_1
*I *8690:X O *D sky130_fd_sc_hd__mux2_1
*CAP
1 *8691:A 0
2 *8690:X 0.000327756
3 *331:14 0.000327756
4 *331:14 *8770:A1 5.67058e-05
5 *331:14 *8771:A 0.000193334
6 *331:14 *423:12 0.00042085
7 *331:14 *423:14 2.80394e-05
8 *331:14 *471:14 1.37232e-05
9 *331:14 *511:26 0
10 *331:14 *511:44 7.13587e-05
11 *8690:S *331:14 9.84851e-05
*RES
1 *8690:X *331:14 32.7564 
2 *331:14 *8691:A 23 
*END

*D_NET *332 0.000631029
*CONN
*I *8693:A I *D sky130_fd_sc_hd__clkbuf_1
*I *8692:X O *D sky130_fd_sc_hd__mux2_1
*CAP
1 *8693:A 0.000145179
2 *8692:X 4.63418e-05
3 *332:8 0.000191521
4 *332:8 *388:28 8.85189e-05
5 *332:8 *597:12 4.334e-05
6 *8810:D *8693:A 0.000116129
*RES
1 *8692:X *332:8 39.2014 
2 *332:8 *8693:A 40.9 
*END

*D_NET *333 0.0470763
*CONN
*I *8707:S I *D sky130_fd_sc_hd__mux2_1
*I *8699:S I *D sky130_fd_sc_hd__mux2_1
*I *8703:S I *D sky130_fd_sc_hd__mux2_1
*I *8695:S I *D sky130_fd_sc_hd__mux2_1
*I *8713:S I *D sky130_fd_sc_hd__mux2_1
*I *8701:S I *D sky130_fd_sc_hd__mux2_1
*I *8705:S I *D sky130_fd_sc_hd__mux2_1
*I *8709:S I *D sky130_fd_sc_hd__mux2_1
*I *8697:S I *D sky130_fd_sc_hd__mux2_1
*I *8711:S I *D sky130_fd_sc_hd__mux2_1
*I *8694:X O *D sky130_fd_sc_hd__clkbuf_8
*CAP
1 *8707:S 0
2 *8699:S 0
3 *8703:S 0
4 *8695:S 0
5 *8713:S 0
6 *8701:S 0.000157765
7 *8705:S 0
8 *8709:S 0
9 *8697:S 0.000109288
10 *8711:S 2.14194e-05
11 *8694:X 6.7348e-05
12 *333:157 0.004106
13 *333:155 0.00518949
14 *333:146 0.00146258
15 *333:142 0.00688396
16 *333:135 0.000550155
17 *333:118 0.00118068
18 *333:112 0.00621076
19 *333:103 0.000125813
20 *333:95 0.00118451
21 *333:91 0.0025603
22 *333:64 0.000600296
23 *333:54 0.00261868
24 *333:48 0.00233626
25 *333:31 0.000579861
26 *333:29 0.000568211
27 *333:16 0.000676195
28 *333:8 0.00104135
29 *8697:S *8697:A0 6.17437e-06
30 *8697:S *8697:A1 5.50049e-05
31 *8697:S *335:6 1.03955e-05
32 *8697:S *424:10 9.84794e-05
33 *8697:S *477:18 7.56417e-05
34 *8701:S *8701:A0 6.5896e-05
35 *8701:S *337:14 1.75562e-05
36 *8711:S *8711:A0 5.90675e-06
37 *333:8 *508:86 7.88828e-05
38 *333:16 *8711:A0 2.4754e-05
39 *333:16 *8711:A1 0.000229769
40 *333:16 *487:26 7.91206e-05
41 *333:29 *8711:A0 2.93747e-05
42 *333:29 *387:39 0
43 *333:29 *477:18 7.45065e-05
44 *333:31 *477:18 0.000115946
45 *333:48 *355:12 0.000146262
46 *333:54 *355:8 0.000242624
47 *333:54 *385:20 5.33597e-05
48 *333:54 *402:10 0
49 *333:54 *402:12 0.000567808
50 *333:54 *445:20 0
51 *333:54 *459:12 2.54046e-05
52 *333:54 *576:24 8.43986e-05
53 *333:64 *8710:A 0.000135016
54 *333:64 *385:20 0.000412601
55 *333:64 *402:12 0
56 *333:64 *450:18 0.00048325
57 *333:64 *481:12 4.67488e-05
58 *333:64 *576:24 0.000184725
59 *333:91 *387:67 4.96264e-05
60 *333:91 *487:26 0.000335594
61 *333:91 *587:20 0
62 *333:95 *483:12 0.000877493
63 *333:103 *8713:A0 1.94693e-05
64 *333:103 *355:81 1.94418e-05
65 *333:112 *483:12 0.000174996
66 *333:118 *8695:A0 0.00010018
67 *333:118 *8695:A1 1.41077e-05
68 *333:118 *8713:A0 0
69 *333:118 *355:81 0
70 *333:118 *394:27 0.000143655
71 *333:118 *446:23 0
72 *333:118 *509:149 0
73 *333:135 *8695:A0 0.000180218
74 *333:135 *8703:A1 0.000438474
75 *333:135 *366:99 0.000453325
76 *333:135 *394:27 0.000166987
77 *333:135 *476:25 0.000220454
78 *333:135 *492:34 1.76557e-05
79 *333:142 *355:81 0
80 *333:142 *355:90 0
81 *333:142 *446:23 0
82 *333:146 *8700:A 5.73309e-05
83 *333:146 *426:14 0.000101762
84 *333:155 *487:26 0.000633534
85 *333:155 *587:20 0
86 *333:157 *383:98 0.000212815
87 *8736:A *333:54 5.29353e-05
88 *8790:D *8701:S 2.98648e-05
89 *8839:D *333:135 5.50049e-05
90 *229:10 *333:146 3.22467e-05
91 *234:10 *333:64 0.00010634
92 *235:14 *333:29 0.000212994
93 *285:22 *333:103 4.6595e-05
94 *285:26 *333:103 7.53384e-06
95 *285:32 *333:91 0
96 *285:42 *333:16 0
97 *285:150 *333:103 5.31444e-05
98 *285:150 *333:142 0
99 *295:8 *333:91 8.62876e-05
100 *312:18 *8697:S 0.000165583
101 *312:18 *333:29 0.000154431
102 *312:18 *333:31 0.000252791
103 *321:34 *333:54 2.29192e-05
*RES
1 *8694:X *333:8 39.5743 
2 *333:8 *333:16 22.7679 
3 *333:16 *8711:S 23.4971 
4 *333:16 *333:29 21.0486 
5 *333:29 *333:31 3.66643 
6 *333:31 *8697:S 41.3557 
7 *333:31 *333:48 34.4329 
8 *333:48 *333:54 42.4643 
9 *333:54 *333:64 32.2343 
10 *333:64 *8709:S 23 
11 *333:54 *8705:S 38 
12 *333:29 *8701:S 41.045 
13 *333:8 *333:91 13.5264 
14 *333:91 *333:95 32.7729 
15 *333:95 *333:103 33.3557 
16 *333:103 *8713:S 23 
17 *333:95 *333:112 18.48 
18 *333:112 *333:118 27.6357 
19 *333:118 *8695:S 23 
20 *333:118 *333:135 44.065 
21 *333:135 *8703:S 23 
22 *333:112 *333:142 105.084 
23 *333:142 *333:146 41.3486 
24 *333:146 *8699:S 23 
25 *333:91 *333:155 41.2036 
26 *333:155 *333:157 73.0386 
27 *333:157 *8707:S 23 
*END

*D_NET *334 0.00122103
*CONN
*I *8696:A I *D sky130_fd_sc_hd__clkbuf_1
*I *8695:X O *D sky130_fd_sc_hd__mux2_1
*CAP
1 *8696:A 0.000468299
2 *8695:X 7.99533e-05
3 *334:8 0.000548252
4 *8696:A *8815:CLK 2.53471e-05
5 *334:8 *446:23 0
6 *334:8 *509:149 0
7 *8815:D *8696:A 9.91798e-05
*RES
1 *8695:X *334:8 39.2014 
2 *334:8 *8696:A 44.5871 
*END

*D_NET *335 0.0055896
*CONN
*I *8698:A I *D sky130_fd_sc_hd__clkbuf_1
*I *8697:X O *D sky130_fd_sc_hd__mux2_1
*CAP
1 *8698:A 0
2 *8697:X 0.00162816
3 *335:12 0.00026371
4 *335:6 0.00189187
5 *335:6 *8697:A0 0.00018282
6 *335:6 *8697:A1 0.000292653
7 *335:6 *8776:A0 7.44257e-05
8 *335:6 *8776:A1 0.000180224
9 *335:6 *8812:RESET_B 7.51159e-05
10 *335:12 *364:14 6.25742e-05
11 *335:12 *448:22 0
12 *335:12 *476:8 0.000358234
13 *8595:A *335:6 0.000522815
14 *8697:S *335:6 1.03955e-05
15 *228:18 *335:6 4.66106e-05
*RES
1 *8697:X *335:6 46.49 
2 *335:6 *335:12 35.075 
3 *335:12 *8698:A 23 
*END

*D_NET *336 0.000187498
*CONN
*I *8700:A I *D sky130_fd_sc_hd__clkbuf_1
*I *8699:X O *D sky130_fd_sc_hd__mux2_1
*CAP
1 *8700:A 6.50835e-05
2 *8699:X 6.50835e-05
3 *333:146 *8700:A 5.73309e-05
*RES
1 *8699:X *8700:A 47.4707 
*END

*D_NET *337 0.000993017
*CONN
*I *8702:A I *D sky130_fd_sc_hd__clkbuf_1
*I *8701:X O *D sky130_fd_sc_hd__mux2_1
*CAP
1 *8702:A 0
2 *8701:X 0.000294926
3 *337:14 0.000294926
4 *337:14 *8711:A1 7.37814e-06
5 *337:14 *387:39 9.4713e-05
6 *337:14 *451:18 2.21344e-05
7 *8701:S *337:14 1.75562e-05
8 *8790:D *337:14 0.000168649
9 *206:8 *337:14 8.85189e-05
10 *285:42 *337:14 4.21594e-06
*RES
1 *8701:X *337:14 45.0843 
2 *337:14 *8702:A 38 
*END

*D_NET *338 0.0018196
*CONN
*I *8704:A I *D sky130_fd_sc_hd__clkbuf_1
*I *8703:X O *D sky130_fd_sc_hd__mux2_1
*CAP
1 *8704:A 0.00043793
2 *8703:X 0.000134245
3 *338:8 0.000572175
4 *8704:A *437:46 0.000274236
5 *338:8 *364:14 0.00030457
6 *338:8 *476:8 9.22257e-05
7 *338:8 *476:25 4.21594e-06
*RES
1 *8703:X *338:8 42.0186 
2 *338:8 *8704:A 46.2857 
*END

*D_NET *339 0.0011026
*CONN
*I *8706:A I *D sky130_fd_sc_hd__clkbuf_1
*I *8705:X O *D sky130_fd_sc_hd__mux2_1
*CAP
1 *8706:A 0.000427978
2 *8705:X 4.92713e-05
3 *339:8 0.000477249
4 *339:8 *402:12 2.79004e-05
5 *339:8 *445:22 8.85189e-05
6 *232:10 *8706:A 3.16784e-05
*RES
1 *8705:X *339:8 39.2014 
2 *339:8 *8706:A 45.0636 
*END

*D_NET *340 0.000676905
*CONN
*I *8708:A I *D sky130_fd_sc_hd__clkbuf_1
*I *8707:X O *D sky130_fd_sc_hd__mux2_1
*CAP
1 *8708:A 0
2 *8707:X 0.000255836
3 *340:10 0.000255836
4 *340:10 *386:19 3.07161e-05
5 *340:10 *470:14 9.36522e-05
6 *233:8 *340:10 4.08641e-05
*RES
1 *8707:X *340:10 42.785 
2 *340:10 *8708:A 38 
*END

*D_NET *341 0.000310278
*CONN
*I *8710:A I *D sky130_fd_sc_hd__clkbuf_1
*I *8709:X O *D sky130_fd_sc_hd__mux2_1
*CAP
1 *8710:A 8.7631e-05
2 *8709:X 8.7631e-05
3 *333:64 *8710:A 0.000135016
*RES
1 *8709:X *8710:A 47.9471 
*END

*D_NET *342 0.00267935
*CONN
*I *8712:A I *D sky130_fd_sc_hd__clkbuf_1
*I *8711:X O *D sky130_fd_sc_hd__mux2_1
*CAP
1 *8712:A 0.000201589
2 *8711:X 0.000572365
3 *342:10 0.000773954
4 *8712:A *8753:A0 0.000484551
5 *342:10 *8711:A0 8.1796e-05
6 *342:10 *8711:A1 5.61579e-05
7 *342:10 *387:39 0
8 *342:10 *387:50 0
9 *342:10 *508:118 0
10 *235:14 *342:10 0.000508935
*RES
1 *8711:X *342:10 49.02 
2 *342:10 *8712:A 43.3857 
*END

*D_NET *343 0.00100205
*CONN
*I *8714:A I *D sky130_fd_sc_hd__clkbuf_1
*I *8713:X O *D sky130_fd_sc_hd__mux2_1
*CAP
1 *8714:A 0.00037134
2 *8713:X 4.11681e-05
3 *343:8 0.000412508
4 *343:8 *507:25 8.85189e-05
5 *296:120 *343:8 8.85189e-05
*RES
1 *8713:X *343:8 39.2014 
2 *343:8 *8714:A 44.235 
*END

*D_NET *344 0.0603771
*CONN
*I *8722:S I *D sky130_fd_sc_hd__mux2_1
*I *8728:S I *D sky130_fd_sc_hd__mux2_1
*I *8718:S I *D sky130_fd_sc_hd__mux2_1
*I *8734:S I *D sky130_fd_sc_hd__mux2_1
*I *8732:S I *D sky130_fd_sc_hd__mux2_1
*I *8720:S I *D sky130_fd_sc_hd__mux2_1
*I *8730:S I *D sky130_fd_sc_hd__mux2_1
*I *8716:S I *D sky130_fd_sc_hd__mux2_1
*I *8726:S I *D sky130_fd_sc_hd__mux2_1
*I *8724:S I *D sky130_fd_sc_hd__mux2_1
*I *8715:X O *D sky130_fd_sc_hd__clkbuf_8
*CAP
1 *8722:S 0
2 *8728:S 0.000135842
3 *8718:S 0
4 *8734:S 0.000754532
5 *8732:S 0
6 *8720:S 0
7 *8730:S 0
8 *8716:S 0
9 *8726:S 0.000138017
10 *8724:S 2.53514e-05
11 *8715:X 0.000314208
12 *344:155 0.000317055
13 *344:138 0.000549759
14 *344:134 0.00201855
15 *344:130 0.00492414
16 *344:128 0.00300245
17 *344:109 0.000922194
18 *344:103 0.00234243
19 *344:101 0.00355587
20 *344:88 0.00557211
21 *344:86 0.00557211
22 *344:84 0.00250648
23 *344:82 0.00112538
24 *344:75 0.000366459
25 *344:59 0.00071724
26 *344:46 0.000464078
27 *344:29 0.000554909
28 *344:18 0.00116072
29 *344:8 0.00114598
30 *8724:S *8724:A1 0.000141954
31 *8724:S *423:12 0.000141954
32 *8726:S *8726:A1 0.000274078
33 *8726:S *8821:RESET_B 5.3304e-05
34 *8726:S *8826:RESET_B 0
35 *8726:S *453:35 0.000137546
36 *8728:S *8728:A0 0.000193189
37 *8728:S *8824:RESET_B 5.12254e-05
38 *8728:S *565:14 8.82787e-06
39 *8734:S *8734:A0 0.00010018
40 *8734:S *8735:A 0.000143655
41 *8734:S *355:117 0.00239222
42 *8734:S *499:16 2.93747e-05
43 *8734:S *528:6 0.000135811
44 *344:8 *389:93 3.88863e-05
45 *344:18 *8692:A0 0.000311309
46 *344:18 *389:93 2.64616e-05
47 *344:18 *541:14 0
48 *344:18 *553:24 0
49 *344:29 *8805:CLK 0
50 *344:29 *8821:RESET_B 0.000159609
51 *344:29 *483:8 2.76611e-06
52 *344:29 *553:24 0
53 *344:46 *453:35 2.49836e-05
54 *344:46 *483:8 5.22857e-05
55 *344:59 *8822:RESET_B 0.000330135
56 *344:59 *346:8 0.000137651
57 *344:59 *346:16 0.000608375
58 *344:59 *350:20 0
59 *344:59 *454:14 0.000166987
60 *344:59 *483:8 9.79034e-05
61 *344:75 *346:8 0.000137651
62 *344:75 *350:20 0.000108908
63 *344:75 *454:14 5.67058e-05
64 *344:75 *492:34 2.02517e-05
65 *344:75 *515:14 0
66 *344:75 *526:34 6.48049e-05
67 *344:75 *568:36 4.21594e-06
68 *344:84 *515:14 0.0021682
69 *344:84 *526:34 0.00150547
70 *344:88 *8721:A 5.50106e-05
71 *344:88 *530:30 5.70419e-05
72 *344:101 *390:10 0.00170173
73 *344:101 *526:34 0.000170444
74 *344:103 *390:10 0.000225743
75 *344:103 *390:38 0.0011249
76 *344:103 *390:79 8.8524e-05
77 *344:103 *499:16 1.34542e-05
78 *344:103 *526:32 0
79 *344:103 *597:10 0
80 *344:109 *390:79 2.80935e-06
81 *344:109 *499:16 4.99925e-05
82 *344:109 *526:32 0
83 *344:130 *389:61 0.00198598
84 *344:130 *389:76 0.00120858
85 *344:130 *389:93 0.000212217
86 *344:130 *453:12 1.62473e-05
87 *344:130 *453:14 0.00128428
88 *344:130 *454:25 7.80883e-05
89 *344:130 *556:12 0
90 *344:130 *556:14 0
91 *344:134 *389:12 0
92 *344:134 *453:14 0.00157811
93 *344:134 *512:49 0
94 *344:134 *556:12 0
95 *344:134 *580:14 0
96 *344:138 *8824:RESET_B 0.000192022
97 *344:138 *565:14 0.000137613
98 *344:155 *8824:RESET_B 9.39159e-05
99 *344:155 *388:8 0
100 *344:155 *439:14 0.000173278
101 *344:155 *472:28 1.30309e-05
102 *344:155 *472:30 0.000190662
103 *344:155 *580:14 0.000400905
104 *8692:S *344:8 0.000438462
105 *222:10 *344:134 0
106 *237:10 *344:29 0.000183643
107 *237:10 *344:46 0.000124102
108 *240:10 *344:155 5.50049e-05
109 *241:10 *344:29 0
110 *311:48 *8726:S 0.00027612
111 *321:28 *344:18 1.03836e-05
112 *328:10 *344:134 0.000222113
*RES
1 *8715:X *344:8 29.3593 
2 *344:8 *344:18 28.9614 
3 *344:18 *8724:S 39.5743 
4 *344:18 *344:29 5.77929 
5 *344:29 *8726:S 44.0486 
6 *344:29 *344:46 2.61 
7 *344:46 *8716:S 38 
8 *344:46 *344:59 25.9993 
9 *344:59 *344:75 37.3743 
10 *344:75 *8730:S 23 
11 *344:59 *344:82 15 
12 *344:82 *344:84 39.585 
13 *344:84 *344:86 15 
14 *344:86 *344:88 99.7186 
15 *344:88 *8720:S 23 
16 *344:84 *344:101 34.3754 
17 *344:101 *344:103 53.4221 
18 *344:103 *344:109 18.0554 
19 *344:109 *8732:S 23 
20 *344:109 *8734:S 49.3486 
21 *344:59 *8718:S 23 
22 *344:8 *344:128 15 
23 *344:128 *344:130 78.6211 
24 *344:130 *344:134 44.1318 
25 *344:134 *344:138 18.9564 
26 *344:138 *8728:S 26.9564 
27 *344:138 *344:155 39.8807 
28 *344:155 *8722:S 23 
*END

*D_NET *345 0.000953595
*CONN
*I *8717:A I *D sky130_fd_sc_hd__clkbuf_1
*I *8716:X O *D sky130_fd_sc_hd__mux2_1
*CAP
1 *8717:A 0
2 *8716:X 0.000219874
3 *345:8 0.000219874
4 *345:8 *346:16 0.000225399
5 *345:8 *437:34 0.000136799
6 *345:8 *437:46 7.73854e-05
7 *238:10 *345:8 7.42621e-05
*RES
1 *8716:X *345:8 29.235 
2 *345:8 *8717:A 23 
*END

*D_NET *346 0.00305499
*CONN
*I *8719:A I *D sky130_fd_sc_hd__clkbuf_1
*I *8718:X O *D sky130_fd_sc_hd__mux2_1
*CAP
1 *8719:A 0
2 *8718:X 0.000256954
3 *346:16 0.000408138
4 *346:8 0.000665093
5 *346:16 *437:34 3.98818e-05
6 *346:16 *515:14 0.000308675
7 *238:10 *346:16 0.000267173
8 *344:59 *346:8 0.000137651
9 *344:59 *346:16 0.000608375
10 *344:75 *346:8 0.000137651
11 *345:8 *346:16 0.000225399
*RES
1 *8718:X *346:8 42.4329 
2 *346:8 *346:16 28.05 
3 *346:16 *8719:A 23 
*END

*D_NET *347 0.000194244
*CONN
*I *8721:A I *D sky130_fd_sc_hd__clkbuf_1
*I *8720:X O *D sky130_fd_sc_hd__mux2_1
*CAP
1 *8721:A 6.96167e-05
2 *8720:X 6.96167e-05
3 *344:88 *8721:A 5.50106e-05
*RES
1 *8720:X *8721:A 47.4707 
*END

*D_NET *348 0.000278131
*CONN
*I *8723:A I *D sky130_fd_sc_hd__clkbuf_1
*I *8722:X O *D sky130_fd_sc_hd__mux2_1
*CAP
1 *8723:A 9.02766e-05
2 *8722:X 9.02766e-05
3 *8723:A *8729:A 0
4 *8723:A *472:28 9.75779e-05
*RES
1 *8722:X *8723:A 47.9471 
*END

*D_NET *349 0.00043664
*CONN
*I *8725:A I *D sky130_fd_sc_hd__clkbuf_1
*I *8724:X O *D sky130_fd_sc_hd__mux2_1
*CAP
1 *8725:A 0
2 *8724:X 0.000169169
3 *349:10 0.000169169
4 *349:10 *423:12 5.67058e-05
5 *349:10 *472:12 0
6 *349:10 *489:37 1.19796e-05
7 *241:10 *349:10 2.96154e-05
*RES
1 *8724:X *349:10 40.8793 
2 *349:10 *8725:A 38 
*END

*D_NET *350 0.0032647
*CONN
*I *8727:A I *D sky130_fd_sc_hd__clkbuf_1
*I *8726:X O *D sky130_fd_sc_hd__mux2_1
*CAP
1 *8727:A 0
2 *8726:X 0.000302102
3 *350:20 0.000598499
4 *350:8 0.000900601
5 *350:8 *8821:RESET_B 2.9938e-05
6 *350:8 *8826:RESET_B 3.22879e-05
7 *350:8 *453:35 0.000264564
8 *350:20 *453:35 4.23714e-05
9 *350:20 *492:34 0.000402107
10 *350:20 *498:27 0
11 *350:20 *515:14 3.68907e-05
12 *350:20 *568:36 0
13 *238:10 *350:20 0.000350678
14 *241:10 *350:20 0.000158629
15 *242:10 *350:20 3.71251e-05
16 *344:59 *350:20 0
17 *344:75 *350:20 0.000108908
*RES
1 *8726:X *350:8 42.4329 
2 *350:8 *350:20 30.37 
3 *350:20 *8727:A 23 
*END

*D_NET *351 0.00122609
*CONN
*I *8729:A I *D sky130_fd_sc_hd__clkbuf_1
*I *8728:X O *D sky130_fd_sc_hd__mux2_1
*CAP
1 *8729:A 9.34338e-05
2 *8728:X 0.000388228
3 *351:10 0.000481662
4 *8729:A *472:28 0.000143655
5 *351:10 *8728:A1 5.72908e-05
6 *351:10 *472:14 0
7 *351:10 *495:12 6.18235e-05
8 *8723:A *8729:A 0
*RES
1 *8728:X *351:10 44.0693 
2 *351:10 *8729:A 40.4236 
*END

*D_NET *352 0.00203638
*CONN
*I *8731:A I *D sky130_fd_sc_hd__clkbuf_1
*I *8730:X O *D sky130_fd_sc_hd__mux2_1
*CAP
1 *8731:A 6.68753e-05
2 *8730:X 0.000237156
3 *352:8 0.000304031
4 *8731:A *388:70 4.21281e-05
5 *8731:A *388:113 3.22879e-05
6 *8731:A *489:23 0.000141052
7 *352:8 *8745:A1 0.000192087
8 *352:8 *472:12 0.000418288
9 *242:10 *352:8 0.000602472
*RES
1 *8730:X *352:8 46.2443 
2 *352:8 *8731:A 40.0714 
*END

*D_NET *353 0.00063894
*CONN
*I *8733:A I *D sky130_fd_sc_hd__clkbuf_1
*I *8732:X O *D sky130_fd_sc_hd__mux2_1
*CAP
1 *8733:A 9.9304e-05
2 *8732:X 9.9304e-05
3 *8733:A *355:115 0.000291654
4 *8733:A *570:30 0.000148678
*RES
1 *8732:X *8733:A 49.8529 
*END

*D_NET *354 0.000330522
*CONN
*I *8735:A I *D sky130_fd_sc_hd__clkbuf_1
*I *8734:X O *D sky130_fd_sc_hd__mux2_1
*CAP
1 *8735:A 9.34338e-05
2 *8734:X 9.34338e-05
3 *8734:S *8735:A 0.000143655
*RES
1 *8734:X *8735:A 48.4236 
*END

*D_NET *355 0.0816558
*CONN
*I *8745:S I *D sky130_fd_sc_hd__mux2_1
*I *8741:S I *D sky130_fd_sc_hd__mux2_1
*I *8753:S I *D sky130_fd_sc_hd__mux2_1
*I *8747:S I *D sky130_fd_sc_hd__mux2_1
*I *8739:S I *D sky130_fd_sc_hd__mux2_1
*I *8751:S I *D sky130_fd_sc_hd__mux2_1
*I *8755:S I *D sky130_fd_sc_hd__mux2_1
*I *8737:S I *D sky130_fd_sc_hd__mux2_1
*I *8743:S I *D sky130_fd_sc_hd__mux2_1
*I *8749:S I *D sky130_fd_sc_hd__mux2_1
*I *615:DIODE I *D sky130_fd_sc_hd__diode_2
*I *8736:X O *D sky130_fd_sc_hd__buf_6
*CAP
1 *8745:S 0
2 *8741:S 0
3 *8753:S 0
4 *8747:S 2.34823e-05
5 *8739:S 2.79806e-05
6 *8751:S 0
7 *8755:S 0
8 *8737:S 5.145e-05
9 *8743:S 0
10 *8749:S 0
11 *615:DIODE 0.000242676
12 *8736:X 0.000378444
13 *355:145 0.00200227
14 *355:141 0.00696344
15 *355:139 0.00546564
16 *355:137 0.00136686
17 *355:126 0.000874609
18 *355:117 0.00215256
19 *355:115 0.00370522
20 *355:107 0.00171153
21 *355:94 0.000345268
22 *355:90 0.00358304
23 *355:81 0.00444722
24 *355:73 0.00140329
25 *355:60 0.00119084
26 *355:41 0.00225851
27 *355:32 0.00257786
28 *355:14 0.000262277
29 *355:12 0.0064275
30 *355:10 0.00603711
31 *355:8 0.00122429
32 *615:DIODE *362:10 0.000173278
33 *8739:S *8739:A0 0.00010018
34 *8739:S *8739:A1 2.18506e-05
35 *8739:S *480:22 0.00014196
36 *8747:S *571:24 0
37 *355:8 *445:20 0
38 *355:8 *576:24 5.21024e-05
39 *355:12 *362:10 0.000617576
40 *355:14 *362:10 5.50049e-05
41 *355:32 *8749:A1 1.86869e-05
42 *355:32 *8837:RESET_B 6.53342e-05
43 *355:32 *474:10 2.29192e-05
44 *355:32 *474:29 0.000130692
45 *355:32 *506:10 0.000133316
46 *355:32 *509:52 6.43149e-05
47 *355:41 *8780:A1 0.000327912
48 *355:41 *474:29 0.000581274
49 *355:41 *479:20 0
50 *355:41 *491:21 0.00078465
51 *355:41 *509:52 2.96805e-05
52 *355:41 *575:8 0.0025549
53 *355:60 *8652:A1 0
54 *355:60 *8790:RESET_B 7.43283e-05
55 *355:60 *8811:RESET_B 5.43968e-05
56 *355:60 *383:10 4.45839e-05
57 *355:60 *385:93 0
58 *355:60 *385:101 0
59 *355:60 *445:20 0
60 *355:60 *477:57 7.80354e-05
61 *355:60 *507:25 0
62 *355:60 *508:29 7.93983e-05
63 *355:73 *8753:A0 0.000234333
64 *355:73 *364:6 0.000267173
65 *355:73 *476:25 2.30292e-05
66 *355:73 *507:25 0
67 *355:73 *508:118 0
68 *355:73 *509:12 0.000194318
69 *355:73 *548:34 5.15848e-05
70 *355:81 *8713:A0 0.000175438
71 *355:81 *430:125 0.000535169
72 *355:81 *578:12 0.000227683
73 *355:90 *578:12 0.00222624
74 *355:94 *578:10 7.28893e-05
75 *355:94 *578:12 6.07611e-06
76 *355:107 *369:10 0
77 *355:107 *578:10 5.6572e-05
78 *355:115 *8764:S 0.000289842
79 *355:115 *570:30 0.00115658
80 *355:117 *8734:A0 0.00121128
81 *355:117 *528:6 2.47702e-05
82 *355:117 *570:30 4.39278e-05
83 *355:117 *571:24 0.00012377
84 *355:126 *364:6 5.50106e-05
85 *355:126 *476:25 1.76557e-05
86 *355:137 *364:6 0.000957559
87 *355:137 *476:25 1.22822e-05
88 *355:137 *504:14 0.00133903
89 *355:139 *513:46 3.70094e-05
90 *355:141 *8828:RESET_B 0.000135547
91 *355:141 *388:74 0
92 *355:141 *388:90 0
93 *355:141 *498:12 0
94 *355:141 *513:46 0.000239765
95 *355:145 *8741:A1 1.94812e-05
96 *355:145 *8742:A 0.000143655
97 *8733:A *355:115 0.000291654
98 *8734:S *355:117 0.00239222
99 *8843:D *355:115 5.41385e-05
100 *227:10 *355:60 0.000192077
101 *244:10 *355:141 0.000140949
102 *245:10 *355:115 2.93747e-05
103 *249:10 *355:145 9.91798e-05
104 *252:10 *355:117 0.0002263
105 *285:112 *355:12 0.00488527
106 *285:150 *355:81 0.00121118
107 *288:8 *355:32 0
108 *311:78 *355:12 0.000688599
109 *311:149 *355:8 0.000190121
110 *311:149 *355:60 4.15283e-06
111 *311:157 *355:8 3.48301e-05
112 *333:48 *355:12 0.000146262
113 *333:54 *355:8 0.000242624
114 *333:103 *355:81 1.94418e-05
115 *333:118 *355:81 0
116 *333:142 *355:81 0
117 *333:142 *355:90 0
*RES
1 *8736:X *355:8 46.2443 
2 *355:8 *355:10 15 
3 *355:10 *355:12 135.451 
4 *355:12 *355:14 0.621429 
5 *355:14 *615:DIODE 28.4064 
6 *355:14 *8749:S 23 
7 *355:12 *355:32 23.2443 
8 *355:32 *8743:S 38 
9 *355:32 *355:41 67.7564 
10 *355:41 *8737:S 38.6214 
11 *355:8 *355:60 15.4114 
12 *355:60 *8755:S 38 
13 *355:60 *355:73 24.1764 
14 *355:73 *355:81 47.0243 
15 *355:81 *8751:S 38 
16 *355:81 *355:90 84.7525 
17 *355:90 *355:94 3.8425 
18 *355:94 *8739:S 39.5743 
19 *355:94 *355:107 17.61 
20 *355:107 *355:115 38.7979 
21 *355:115 *355:117 50.6464 
22 *355:117 *8747:S 23.4971 
23 *355:73 *355:126 0.621429 
24 *355:126 *8753:S 23 
25 *355:126 *355:137 42.3221 
26 *355:137 *355:139 8.59643 
27 *355:139 *355:141 92.7586 
28 *355:141 *355:145 49.4479 
29 *355:145 *8741:S 23 
30 *355:139 *8745:S 38 
*END

*D_NET *356 0.00120378
*CONN
*I *8738:A I *D sky130_fd_sc_hd__clkbuf_1
*I *8737:X O *D sky130_fd_sc_hd__mux2_1
*CAP
1 *8738:A 0
2 *8737:X 0.000371147
3 *356:10 0.000371147
4 *356:10 *8737:A1 0.000175048
5 *356:10 *501:21 0.000216051
6 *356:10 *603:8 0
7 *247:8 *356:10 7.03869e-05
*RES
1 *8737:X *356:10 45.6021 
2 *356:10 *8738:A 38 
*END

*D_NET *357 0.000332481
*CONN
*I *8740:A I *D sky130_fd_sc_hd__clkbuf_1
*I *8739:X O *D sky130_fd_sc_hd__mux2_1
*CAP
1 *8740:A 9.27245e-05
2 *8739:X 9.27245e-05
3 *8740:A *8739:A1 0.000133309
4 *8740:A *480:22 0
5 *296:143 *8740:A 1.37232e-05
*RES
1 *8739:X *8740:A 47.9471 
*END

*D_NET *358 0.000330522
*CONN
*I *8742:A I *D sky130_fd_sc_hd__clkbuf_1
*I *8741:X O *D sky130_fd_sc_hd__mux2_1
*CAP
1 *8742:A 9.34338e-05
2 *8741:X 9.34338e-05
3 *355:145 *8742:A 0.000143655
*RES
1 *8741:X *8742:A 48.4236 
*END

*D_NET *359 0.00193118
*CONN
*I *8744:A I *D sky130_fd_sc_hd__clkbuf_1
*I *8743:X O *D sky130_fd_sc_hd__mux2_1
*CAP
1 *8744:A 0.000112511
2 *8743:X 0.000531426
3 *359:10 0.000643937
4 *359:10 *404:8 0.000607156
5 *359:10 *404:14 0
6 *250:14 *8744:A 1.32314e-05
7 *288:8 *359:10 2.29192e-05
*RES
1 *8743:X *359:10 46.0164 
2 *359:10 *8744:A 40.2993 
*END

*D_NET *360 0.00103074
*CONN
*I *8746:A I *D sky130_fd_sc_hd__clkbuf_1
*I *8745:X O *D sky130_fd_sc_hd__mux2_1
*CAP
1 *8746:A 8.00727e-05
2 *8745:X 0.000233695
3 *360:10 0.000313767
4 *8746:A *388:90 0.000158237
5 *360:10 *388:90 0.00014411
6 *360:10 *492:34 1.14762e-05
7 *360:10 *513:46 3.7122e-06
8 *251:10 *8746:A 3.22051e-05
9 *251:10 *360:10 5.34638e-05
*RES
1 *8745:X *360:10 42.64 
2 *360:10 *8746:A 40.4236 
*END

*D_NET *361 0.000185471
*CONN
*I *8748:A I *D sky130_fd_sc_hd__clkbuf_1
*I *8747:X O *D sky130_fd_sc_hd__mux2_1
*CAP
1 *8748:A 5.8675e-05
2 *8747:X 5.8675e-05
3 *8748:A *8734:A0 5.67058e-05
4 *8748:A *571:24 1.14154e-05
*RES
1 *8747:X *8748:A 47.4707 
*END

*D_NET *362 0.00252568
*CONN
*I *8750:A I *D sky130_fd_sc_hd__clkbuf_1
*I *8749:X O *D sky130_fd_sc_hd__mux2_1
*CAP
1 *8750:A 0.000276082
2 *8749:X 0.000399888
3 *362:10 0.000675971
4 *362:10 *474:16 0.000269781
5 *615:DIODE *362:10 0.000173278
6 *253:8 *8750:A 5.80963e-05
7 *286:12 *8750:A 0
8 *288:8 *8750:A 0
9 *355:12 *362:10 0.000617576
10 *355:14 *362:10 5.50049e-05
*RES
1 *8749:X *362:10 49.1236 
2 *362:10 *8750:A 42.7229 
*END

*D_NET *363 0.00121841
*CONN
*I *8752:A I *D sky130_fd_sc_hd__clkbuf_1
*I *8751:X O *D sky130_fd_sc_hd__mux2_1
*CAP
1 *8752:A 0.00038913
2 *8751:X 5.03899e-05
3 *363:8 0.00043952
4 *363:8 *430:125 0.000169683
5 *296:120 *363:8 0.000169683
*RES
1 *8751:X *363:8 40.2579 
2 *363:8 *8752:A 43.8621 
*END

*D_NET *364 0.00503192
*CONN
*I *8754:A I *D sky130_fd_sc_hd__clkbuf_1
*I *8753:X O *D sky130_fd_sc_hd__mux2_1
*CAP
1 *8754:A 0
2 *8753:X 0.000650648
3 *364:14 0.000908194
4 *364:6 0.00155884
5 *364:14 *366:99 0
6 *364:14 *388:113 5.50106e-05
7 *364:14 *448:22 0.00021234
8 *364:14 *476:8 0
9 *364:14 *476:25 0
10 *335:12 *364:14 6.25742e-05
11 *338:8 *364:14 0.00030457
12 *355:73 *364:6 0.000267173
13 *355:126 *364:6 5.50106e-05
14 *355:137 *364:6 0.000957559
*RES
1 *8753:X *364:6 36.9614 
2 *364:6 *364:14 48.3736 
3 *364:14 *8754:A 23 
*END

*D_NET *365 0.000234224
*CONN
*I *8756:A I *D sky130_fd_sc_hd__clkbuf_1
*I *8755:X O *D sky130_fd_sc_hd__mux2_1
*CAP
1 *8756:A 9.00426e-05
2 *8755:X 9.00426e-05
3 *8756:A *441:18 5.41385e-05
*RES
1 *8755:X *8756:A 47.9471 
*END

*D_NET *366 0.0652148
*CONN
*I *8758:S I *D sky130_fd_sc_hd__mux2_1
*I *8770:S I *D sky130_fd_sc_hd__mux2_1
*I *8776:S I *D sky130_fd_sc_hd__mux2_1
*I *8762:S I *D sky130_fd_sc_hd__mux2_1
*I *8764:S I *D sky130_fd_sc_hd__mux2_1
*I *8760:S I *D sky130_fd_sc_hd__mux2_1
*I *8766:S I *D sky130_fd_sc_hd__mux2_1
*I *8774:S I *D sky130_fd_sc_hd__mux2_1
*I *8768:S I *D sky130_fd_sc_hd__mux2_1
*I *8772:S I *D sky130_fd_sc_hd__mux2_1
*I *8757:X O *D sky130_fd_sc_hd__clkbuf_8
*CAP
1 *8758:S 0
2 *8770:S 0
3 *8776:S 0
4 *8762:S 0
5 *8764:S 0.00138405
6 *8760:S 0
7 *8766:S 0
8 *8774:S 4.79486e-05
9 *8768:S 0.000905315
10 *8772:S 1.80505e-05
11 *8757:X 0.000250137
12 *366:151 0.000363787
13 *366:138 6.93597e-05
14 *366:113 0.00148675
15 *366:107 0.000305399
16 *366:99 0.00526971
17 *366:90 0.00535311
18 *366:81 0.000837374
19 *366:57 0.00133028
20 *366:51 0.00144948
21 *366:49 0.00181394
22 *366:47 0.00124649
23 *366:45 0.00130768
24 *366:43 0.00192494
25 *366:41 0.00186374
26 *366:32 0.000367084
27 *366:26 0.000635132
28 *366:24 0.00310377
29 *366:18 0.00388464
30 *366:8 0.00132543
31 *8764:S *8764:A1 4.39278e-05
32 *8764:S *8765:A 0
33 *8764:S *8832:CLK 0.000465579
34 *8764:S *570:22 2.80924e-06
35 *8764:S *570:30 1.08906e-05
36 *8768:S *384:52 0.000168985
37 *8768:S *435:28 0.000585247
38 *8772:S *8850:CLK 5.50049e-05
39 *8772:S *423:8 2.93747e-05
40 *8774:S *8774:A0 1.35999e-05
41 *8774:S *375:12 1.1258e-05
42 *8774:S *524:6 5.82853e-05
43 *8774:S *600:6 1.12268e-05
44 *366:8 *489:49 0.000313255
45 *366:18 *8759:A 7.85468e-05
46 *366:18 *8847:RESET_B 0.000150933
47 *366:18 *486:8 0.000193739
48 *366:18 *489:49 0.000189322
49 *366:24 *8776:A1 0.00018703
50 *366:24 *8847:CLK 0.000264564
51 *366:24 *376:10 5.3304e-05
52 *366:24 *486:8 5.12254e-05
53 *366:24 *489:37 0.000421934
54 *366:24 *489:49 3.9557e-05
55 *366:32 *8850:CLK 4.08664e-05
56 *366:32 *376:10 0.000164291
57 *366:32 *423:8 0.0002314
58 *366:32 *476:8 1.12487e-05
59 *366:32 *511:62 3.71369e-05
60 *366:32 *550:16 0
61 *366:43 *442:41 0.00062449
62 *366:43 *442:45 0.00083886
63 *366:43 *442:47 0
64 *366:43 *487:10 5.01247e-05
65 *366:43 *511:72 0.000191148
66 *366:43 *557:20 0
67 *366:43 *610:24 0.0039427
68 *366:47 *442:47 0
69 *366:47 *557:16 0.00295016
70 *366:47 *557:20 0.000971595
71 *366:47 *610:16 0.00480398
72 *366:51 *8885:A 0.00029217
73 *366:51 *524:6 8.26843e-05
74 *366:51 *600:6 2.85801e-05
75 *366:57 *402:12 0
76 *366:57 *606:14 0.000294925
77 *366:81 *406:12 0.000160182
78 *366:81 *461:14 0
79 *366:81 *476:8 0
80 *366:81 *560:8 0.000329914
81 *366:81 *600:6 3.24081e-05
82 *366:90 *8760:A1 2.8314e-06
83 *366:90 *476:8 0.000116542
84 *366:90 *479:12 7.59926e-06
85 *366:99 *8703:A1 5.55278e-05
86 *366:99 *8760:A1 4.77164e-06
87 *366:99 *8839:RESET_B 0.000166513
88 *366:99 *390:22 0
89 *366:99 *446:23 0.00464783
90 *366:99 *476:25 5.23561e-05
91 *366:99 *550:16 8.49404e-06
92 *366:107 *8739:A0 9.58714e-05
93 *366:107 *446:23 0.000236229
94 *366:107 *480:12 9.41704e-05
95 *366:107 *573:8 1.58805e-05
96 *366:113 *446:23 0.000133316
97 *366:113 *514:163 8.4047e-05
98 *366:138 *8770:A1 6.4393e-05
99 *366:151 *8758:A1 5.67058e-05
100 *366:151 *8841:CLK 0.000111134
101 *366:151 *391:68 0.000102085
102 *366:151 *437:34 0.00014196
103 *366:151 *568:24 3.17634e-05
104 *8644:B *366:8 8.05102e-05
105 *8682:S *366:138 0.000127263
106 *8757:A *366:8 1.40958e-05
107 *8843:D *8764:S 1.14762e-05
108 *216:8 *366:57 0.000191166
109 *228:10 *366:32 1.01436e-05
110 *228:10 *366:90 0.000342857
111 *241:10 *366:24 0.000184527
112 *255:10 *366:90 0.000137788
113 *255:10 *366:99 0.000176082
114 *261:10 *366:81 0.000110913
115 *311:32 *366:8 0.000107482
116 *311:52 *366:24 0.000506685
117 *320:12 *366:57 0.000207142
118 *321:152 *366:99 0
119 *322:63 *366:138 1.14452e-05
120 *333:135 *366:99 0.000453325
121 *355:115 *8764:S 0.000289842
122 *364:14 *366:99 0
*RES
1 *8757:X *366:8 28.8829 
2 *366:8 *366:18 13.6921 
3 *366:18 *366:24 46.4 
4 *366:24 *366:26 15 
5 *366:26 *366:32 22.5193 
6 *366:32 *8772:S 23.6214 
7 *366:32 *366:41 15 
8 *366:41 *366:43 59.1289 
9 *366:43 *366:45 1.09786 
10 *366:45 *366:47 63.3546 
11 *366:47 *366:49 15 
12 *366:49 *366:51 13.485 
13 *366:51 *366:57 40.7093 
14 *366:57 *8768:S 43.155 
15 *366:51 *8774:S 24.9471 
16 *366:49 *366:81 45.1421 
17 *366:81 *8766:S 23 
18 *366:26 *366:90 6.40071 
19 *366:90 *8760:S 38 
20 *366:90 *366:99 129.827 
21 *366:99 *366:107 19.9404 
22 *366:107 *366:113 31.9057 
23 *366:113 *8764:S 43.0514 
24 *366:107 *8762:S 23 
25 *366:24 *8776:S 23 
26 *366:18 *366:138 31.9057 
27 *366:138 *8770:S 23 
28 *366:8 *366:151 37.7057 
29 *366:151 *8758:S 23 
*END

*D_NET *367 0.00112611
*CONN
*I *8759:A I *D sky130_fd_sc_hd__clkbuf_1
*I *8758:X O *D sky130_fd_sc_hd__mux2_1
*CAP
1 *8759:A 3.65502e-05
2 *8758:X 0.000281449
3 *367:8 0.000317999
4 *8759:A *489:49 9.61805e-05
5 *367:8 *8841:CLK 0.000161877
6 *367:8 *391:68 0.00015351
7 *366:18 *8759:A 7.85468e-05
*RES
1 *8758:X *367:8 42.3707 
2 *367:8 *8759:A 39.595 
*END

*D_NET *368 0.00173734
*CONN
*I *8761:A I *D sky130_fd_sc_hd__clkbuf_1
*I *8760:X O *D sky130_fd_sc_hd__mux2_1
*CAP
1 *8761:A 0.0001124
2 *8760:X 0.000292829
3 *368:10 0.000405229
4 *8761:A *388:113 0.000261956
5 *8761:A *479:12 0.000138444
6 *368:10 *437:46 0.000191633
7 *368:10 *479:12 0.000157547
8 *228:10 *368:10 0.000155457
9 *258:8 *8761:A 2.18409e-05
*RES
1 *8760:X *368:10 43.2614 
2 *368:10 *8761:A 41.0036 
*END

*D_NET *369 0.000815307
*CONN
*I *8763:A I *D sky130_fd_sc_hd__clkbuf_1
*I *8762:X O *D sky130_fd_sc_hd__mux2_1
*CAP
1 *8763:A 0
2 *8762:X 0.000331507
3 *369:10 0.000331507
4 *369:10 *446:23 0
5 *369:10 *480:22 0.00010018
6 *369:10 *514:163 0
7 *369:10 *578:10 0
8 *259:8 *369:10 5.21127e-05
9 *355:107 *369:10 0
*RES
1 *8762:X *369:10 43.8207 
2 *369:10 *8763:A 38 
*END

*D_NET *370 0.000409562
*CONN
*I *8765:A I *D sky130_fd_sc_hd__clkbuf_1
*I *8764:X O *D sky130_fd_sc_hd__mux2_1
*CAP
1 *8765:A 0.000112064
2 *8764:X 0.000112064
3 *8765:A *8764:A0 0.000185434
4 *8764:S *8765:A 0
*RES
1 *8764:X *8765:A 48.9 
*END

*D_NET *371 0.00168552
*CONN
*I *8767:A I *D sky130_fd_sc_hd__clkbuf_1
*I *8766:X O *D sky130_fd_sc_hd__mux2_1
*CAP
1 *8767:A 0.000160784
2 *8766:X 0.000288984
3 *371:8 0.000449768
4 *8767:A *461:14 0.000308946
5 *371:8 *442:47 0
6 *371:8 *610:16 0.000477039
*RES
1 *8766:X *371:8 44.4836 
2 *371:8 *8767:A 41.48 
*END

*D_NET *372 0.000234224
*CONN
*I *8769:A I *D sky130_fd_sc_hd__clkbuf_1
*I *8768:X O *D sky130_fd_sc_hd__mux2_1
*CAP
1 *8769:A 7.14741e-05
2 *8768:X 7.14741e-05
3 *8769:A *435:28 5.41385e-05
4 *8769:A *485:24 3.71369e-05
*RES
1 *8768:X *8769:A 47.9471 
*END

*D_NET *373 0.000496556
*CONN
*I *8771:A I *D sky130_fd_sc_hd__clkbuf_1
*I *8770:X O *D sky130_fd_sc_hd__mux2_1
*CAP
1 *8771:A 0.000102377
2 *8770:X 0.000102377
3 *8771:A *511:44 5.50049e-05
4 *263:12 *8771:A 4.34618e-05
5 *331:14 *8771:A 0.000193334
*RES
1 *8770:X *8771:A 48.9 
*END

*D_NET *374 0.00259178
*CONN
*I *8773:A I *D sky130_fd_sc_hd__clkbuf_1
*I *8772:X O *D sky130_fd_sc_hd__mux2_1
*CAP
1 *8773:A 0
2 *8772:X 0.000397248
3 *374:8 0.000397248
4 *374:8 *8652:A1 1.56762e-05
5 *374:8 *423:8 0.000984484
6 *374:8 *487:22 0.000348905
7 *8652:S *374:8 9.67842e-05
8 *285:84 *374:8 0.000351434
*RES
1 *8772:X *374:8 36.3814 
2 *374:8 *8773:A 23 
*END

*D_NET *375 0.00121397
*CONN
*I *8775:A I *D sky130_fd_sc_hd__clkbuf_1
*I *8774:X O *D sky130_fd_sc_hd__mux2_1
*CAP
1 *8775:A 9.24345e-05
2 *8774:X 0.000154915
3 *375:12 0.00024735
4 *375:12 *8774:A0 2.95526e-05
5 *375:12 *477:30 0.000241736
6 *375:12 *606:14 0.000241736
7 *8774:S *375:12 1.1258e-05
8 *8849:D *8775:A 9.51377e-05
9 *296:80 *8775:A 9.98532e-05
*RES
1 *8774:X *375:12 42.4329 
2 *375:12 *8775:A 40.5479 
*END

*D_NET *376 0.00155818
*CONN
*I *8777:A I *D sky130_fd_sc_hd__clkbuf_1
*I *8776:X O *D sky130_fd_sc_hd__mux2_1
*CAP
1 *8777:A 4.01155e-05
2 *8776:X 0.000338923
3 *376:10 0.000379038
4 *376:10 *8776:A1 1.03836e-05
5 *376:10 *476:8 0.000323812
6 *376:10 *511:62 2.29192e-05
7 *376:10 *550:16 0
8 *228:18 *376:10 0.000225393
9 *366:24 *376:10 5.3304e-05
10 *366:32 *376:10 0.000164291
*RES
1 *8776:X *376:10 45.8507 
2 *376:10 *8777:A 38.8493 
*END

*D_NET *377 0.000448444
*CONN
*I *8779:A I *D sky130_fd_sc_hd__clkbuf_1
*I *8778:X O *D sky130_fd_sc_hd__mux2_1
*CAP
1 *8779:A 3.82853e-05
2 *8778:X 0.000107326
3 *377:8 0.000145611
4 *8779:A *547:16 0.00010018
5 *8779:A *568:24 5.70419e-05
*RES
1 *8778:X *377:8 39.5536 
2 *377:8 *8779:A 39.595 
*END

*D_NET *378 0.00102176
*CONN
*I *8781:A I *D sky130_fd_sc_hd__clkbuf_1
*I *8780:X O *D sky130_fd_sc_hd__mux2_1
*CAP
1 *8781:A 0
2 *8780:X 0.000373466
3 *378:10 0.000373466
4 *378:10 *8780:A1 0.000115184
5 *378:10 *479:20 0
6 *378:10 *491:21 6.67764e-05
7 *378:10 *562:8 5.20072e-05
8 *268:8 *378:10 4.08641e-05
*RES
1 *8780:X *378:10 45.25 
2 *378:10 *8781:A 38 
*END

*D_NET *379 0.000878131
*CONN
*I *8783:A I *D sky130_fd_sc_hd__clkbuf_1
*I *8782:X O *D sky130_fd_sc_hd__mux2_1
*CAP
1 *8783:A 0
2 *8782:X 0.000329877
3 *379:10 0.000329877
4 *379:10 *391:12 3.92407e-05
5 *379:10 *516:37 0
6 *275:87 *379:10 0
7 *321:140 *379:10 0.000179137
*RES
1 *8782:X *379:10 43.7379 
2 *379:10 *8783:A 38 
*END

*D_NET *380 0.00104751
*CONN
*I *8785:A I *D sky130_fd_sc_hd__clkbuf_1
*I *8784:X O *D sky130_fd_sc_hd__mux2_1
*CAP
1 *8785:A 0.000250377
2 *8784:X 8.35757e-05
3 *380:8 0.000333952
4 *8785:A *435:28 0.000266457
5 *380:8 *494:10 0.000113153
*RES
1 *8784:X *380:8 39.5536 
2 *380:8 *8785:A 43.8829 
*END

*D_NET *381 0.00121609
*CONN
*I *8787:A I *D sky130_fd_sc_hd__clkbuf_1
*I *8786:X O *D sky130_fd_sc_hd__mux2_1
*CAP
1 *8787:A 0.000384249
2 *8786:X 6.87722e-05
3 *381:8 0.000453021
4 *8787:A *445:30 0.000284634
5 *381:8 *510:129 0
6 *381:8 *605:8 2.5415e-05
*RES
1 *8786:X *381:8 39.2014 
2 *381:8 *8787:A 44.8564 
*END

*D_NET *382 0.000459886
*CONN
*I *8789:A I *D sky130_fd_sc_hd__clkbuf_1
*I *8788:X O *D sky130_fd_sc_hd__mux2_1
*CAP
1 *8789:A 0.000148152
2 *8788:X 8.17907e-05
3 *382:8 0.000229943
4 *382:8 *542:8 0
*RES
1 *8788:X *382:8 39.2014 
2 *382:8 *8789:A 40.7757 
*END

*D_NET *383 0.0647657
*CONN
*I *8866:A I *D sky130_fd_sc_hd__clkbuf_16
*I *8867:A I *D sky130_fd_sc_hd__clkbuf_16
*I *8865:A I *D sky130_fd_sc_hd__clkbuf_16
*I *8864:A I *D sky130_fd_sc_hd__clkbuf_16
*I *8863:A I *D sky130_fd_sc_hd__clkbuf_16
*I *8862:A I *D sky130_fd_sc_hd__clkbuf_16
*I *8861:A I *D sky130_fd_sc_hd__clkbuf_16
*I *8860:A I *D sky130_fd_sc_hd__clkbuf_16
*I *8859:X O *D sky130_fd_sc_hd__clkbuf_16
*CAP
1 *8866:A 0
2 *8867:A 0
3 *8865:A 0
4 *8864:A 4.07761e-05
5 *8863:A 0
6 *8862:A 0
7 *8861:A 3.59794e-05
8 *8860:A 0
9 *8859:X 2.75763e-05
10 *383:191 0.000795275
11 *383:174 0.00168486
12 *383:162 0.00686914
13 *383:155 0.00224501
14 *383:147 0.00348707
15 *383:124 0.00323279
16 *383:112 0.00811423
17 *383:98 0.00242032
18 *383:90 0.00314303
19 *383:76 0.00502064
20 *383:50 0.000724032
21 *383:40 0.00281543
22 *383:26 0.00435863
23 *383:14 0.00726306
24 *383:10 0.00253673
25 *383:14 *479:18 0.000516737
26 *383:26 *532:10 0.0001581
27 *383:40 *462:10 0.000466958
28 *383:50 *450:20 0.000315307
29 *383:76 *387:71 0.000295845
30 *383:76 *398:10 0
31 *383:76 *401:10 0.000250703
32 *383:90 *529:8 0.000179893
33 *383:98 *449:20 0
34 *383:98 *509:28 0.000307985
35 *383:112 *479:18 0.00044925
36 *383:124 *472:14 0.000248364
37 *383:147 *388:8 0.000153002
38 *383:147 *472:14 0
39 *383:147 *541:14 0.000578615
40 *383:155 *600:10 0.000365098
41 *383:174 *540:8 2.11157e-05
42 *3:19 *383:14 0.000668975
43 *3:19 *383:112 0.0037628
44 *275:40 *383:155 0
45 *311:64 *383:112 0.00010109
46 *311:110 *383:90 0.000138759
47 *311:149 *383:10 4.73716e-05
48 *321:48 *383:26 0.000329432
49 *321:48 *383:40 0.000338254
50 *333:157 *383:98 0.000212815
51 *355:60 *383:10 4.45839e-05
*RES
1 *8859:X *383:10 46.6732 
2 *383:10 *383:14 10.7608 
3 *383:14 *383:26 40.304 
4 *383:26 *383:40 42.8615 
5 *383:40 *383:50 36.8392 
6 *383:50 *8860:A 23 
7 *383:26 *8861:A 23.6214 
8 *383:14 *383:76 49.9557 
9 *383:76 *383:90 43.4966 
10 *383:90 *383:98 32.1359 
11 *383:98 *8862:A 23 
12 *383:76 *8863:A 23 
13 *383:10 *383:112 15.14 
14 *383:112 *383:124 37.6957 
15 *383:124 *8864:A 23.6214 
16 *383:124 *383:147 48.4674 
17 *383:147 *383:155 32.8064 
18 *383:155 *8865:A 23 
19 *383:112 *383:162 13.7648 
20 *383:162 *383:174 41.3567 
21 *383:174 *8867:A 23 
22 *383:162 *383:191 33.8877 
23 *383:191 *8866:A 23 
*END

*D_NET *384 0.0349882
*CONN
*I *8855:CLK I *D sky130_fd_sc_hd__dfrtp_1
*I *8845:CLK I *D sky130_fd_sc_hd__dfrtp_1
*I *8800:CLK I *D sky130_fd_sc_hd__dfrtp_2
*I *8849:CLK I *D sky130_fd_sc_hd__dfrtp_1
*I *8798:CLK I *D sky130_fd_sc_hd__dfrtp_1
*I *8846:CLK I *D sky130_fd_sc_hd__dfrtp_1
*I *8854:CLK I *D sky130_fd_sc_hd__dfrtp_1
*I *8860:X O *D sky130_fd_sc_hd__clkbuf_16
*CAP
1 *8855:CLK 0.000438052
2 *8845:CLK 0.000498984
3 *8800:CLK 0
4 *8849:CLK 0.00051657
5 *8798:CLK 0
6 *8846:CLK 0
7 *8854:CLK 0.000422282
8 *8860:X 0
9 *384:94 0.00185199
10 *384:90 0.00250319
11 *384:52 0.000394449
12 *384:42 0.000911019
13 *384:40 0.00134795
14 *384:33 0.00114558
15 *384:18 0.002031
16 *384:14 0.00331184
17 *384:10 0.00176808
18 *384:6 0.000857598
19 *8845:CLK *8798:RESET_B 0.000171557
20 *8845:CLK *406:8 1.94693e-05
21 *8845:CLK *439:26 0.000616533
22 *8845:CLK *463:10 3.44502e-05
23 *8849:CLK *451:20 0
24 *8849:CLK *477:30 0.000378996
25 *8849:CLK *588:22 0.000145593
26 *8854:CLK *8854:RESET_B 0.000542504
27 *8854:CLK *439:26 0.000850491
28 *8855:CLK *8786:A0 2.32004e-05
29 *8855:CLK *496:10 0.000477861
30 *8855:CLK *496:27 0.000141154
31 *384:10 *462:10 0.000837202
32 *384:14 *445:26 0.00256962
33 *384:33 *8854:RESET_B 0.000650849
34 *384:33 *439:26 0.00153054
35 *384:40 *8846:RESET_B 9.18637e-05
36 *384:40 *8854:RESET_B 0.000256629
37 *384:40 *439:26 0.00127337
38 *384:40 *485:10 3.34247e-05
39 *384:52 *435:28 0.000734988
40 *384:52 *477:30 6.95665e-05
41 *384:52 *537:22 3.46673e-05
42 *384:52 *588:22 0.000222104
43 *384:94 *8786:A0 0.000441978
44 *8625:A *8845:CLK 0.000221084
45 *8670:S *384:52 5.70419e-05
46 *8768:S *384:52 0.000168985
47 *8800:D *8845:CLK 7.15126e-05
48 *320:12 *384:52 2.30292e-05
49 *321:60 *384:18 0
50 *321:60 *384:90 0
51 *321:69 *384:90 0.000441215
52 *321:69 *384:94 0.00385812
*RES
1 *8860:X *384:6 38 
2 *384:6 *384:10 36.6257 
3 *384:10 *384:14 43.2543 
4 *384:14 *384:18 40.1471 
5 *384:18 *8854:CLK 38.08 
6 *384:18 *384:33 17.3171 
7 *384:33 *8846:CLK 23 
8 *384:33 *384:40 25.3957 
9 *384:40 *384:42 15 
10 *384:42 *384:52 27.2007 
11 *384:52 *8798:CLK 23 
12 *384:42 *8849:CLK 49.8279 
13 *384:40 *8800:CLK 23 
14 *384:40 *8845:CLK 36.0086 
15 *384:14 *384:90 31.9546 
16 *384:90 *384:94 43.7589 
17 *384:94 *8855:CLK 35.0557 
*END

*D_NET *385 0.0183866
*CONN
*I *8790:CLK I *D sky130_fd_sc_hd__dfrtp_4
*I *8811:CLK I *D sky130_fd_sc_hd__dfrtp_4
*I *8819:CLK I *D sky130_fd_sc_hd__dfrtp_4
*I *8796:CLK I *D sky130_fd_sc_hd__dfrtp_4
*I *8812:CLK I *D sky130_fd_sc_hd__dfrtp_2
*I *8848:CLK I *D sky130_fd_sc_hd__dfrtp_2
*I *8850:CLK I *D sky130_fd_sc_hd__dfrtp_4
*I *8816:CLK I *D sky130_fd_sc_hd__dfrtp_4
*I *8818:CLK I *D sky130_fd_sc_hd__dfrtp_1
*I *8861:X O *D sky130_fd_sc_hd__clkbuf_16
*CAP
1 *8790:CLK 0
2 *8811:CLK 0
3 *8819:CLK 0
4 *8796:CLK 0.00063077
5 *8812:CLK 0
6 *8848:CLK 1.80182e-05
7 *8850:CLK 0.000217418
8 *8816:CLK 8.68335e-05
9 *8818:CLK 0
10 *8861:X 0.000147448
11 *385:121 9.30762e-05
12 *385:103 0.000746298
13 *385:101 0.000488363
14 *385:93 0.00087029
15 *385:76 0.00082839
16 *385:65 0.000291082
17 *385:54 0.000667745
18 *385:42 0.000485532
19 *385:40 0.00208889
20 *385:20 0.000154814
21 *385:14 0.000616589
22 *385:10 0.00261128
23 *8796:CLK *8799:RESET_B 0.000186175
24 *8796:CLK *404:24 0.00013993
25 *8796:CLK *458:8 0.00012103
26 *8816:CLK *8705:A1 0.000139352
27 *8850:CLK *423:8 2.80512e-05
28 *8850:CLK *487:22 0.0002246
29 *385:10 *477:20 0.000195238
30 *385:14 *8705:A1 5.50049e-05
31 *385:20 *402:12 0.000158214
32 *385:40 *477:18 0
33 *385:40 *477:20 0.00235546
34 *385:54 *430:123 0.000275482
35 *385:54 *585:38 9.4713e-05
36 *385:65 *510:12 0
37 *385:76 *487:22 0.000133316
38 *385:76 *510:12 0
39 *385:93 *8652:A1 8.40688e-05
40 *385:93 *8701:A0 5.50106e-05
41 *385:93 *437:46 0.000165908
42 *385:93 *445:16 1.14977e-05
43 *385:93 *445:20 0
44 *385:101 *8790:RESET_B 0
45 *385:101 *445:10 1.59094e-05
46 *385:101 *445:16 0.000136486
47 *385:101 *477:18 3.54662e-05
48 *385:101 *508:29 0
49 *385:121 *477:18 0.000107651
50 *8618:A *8848:CLK 2.93845e-05
51 *8618:A *385:54 2.81406e-06
52 *8669:A *8796:CLK 5.67058e-05
53 *8772:S *8850:CLK 5.50049e-05
54 *8796:D *8796:CLK 0.000171851
55 *230:10 *8796:CLK 0.000144211
56 *230:10 *385:101 9.62764e-05
57 *230:10 *385:103 0.000166062
58 *235:14 *385:103 7.4416e-05
59 *235:14 *385:121 0.000216721
60 *264:18 *8848:CLK 5.50106e-05
61 *264:18 *385:54 0.000108757
62 *280:10 *385:40 5.48395e-05
63 *281:12 *385:54 0.000118382
64 *281:20 *385:76 6.12055e-05
65 *281:20 *385:93 3.31127e-05
66 *285:48 *385:10 0
67 *285:48 *385:40 0
68 *293:8 *385:54 8.62876e-05
69 *296:118 *385:54 1.59312e-05
70 *311:149 *385:76 8.93663e-05
71 *311:149 *385:93 0.000126346
72 *311:157 *385:54 2.26406e-05
73 *311:157 *385:65 3.75345e-05
74 *311:157 *385:76 0.000184258
75 *312:18 *8796:CLK 6.55012e-05
76 *312:18 *385:103 4.5707e-05
77 *333:54 *385:20 5.33597e-05
78 *333:64 *385:20 0.000412601
79 *355:60 *385:93 0
80 *355:60 *385:101 0
81 *366:32 *8850:CLK 4.08664e-05
*RES
1 *8861:X *385:10 41.2314 
2 *385:10 *385:14 20.3857 
3 *385:14 *385:20 36.1314 
4 *385:20 *8818:CLK 23 
5 *385:14 *8816:CLK 25.0714 
6 *385:10 *385:40 42.5861 
7 *385:40 *385:42 8 
8 *385:42 *385:54 38.9175 
9 *385:54 *8850:CLK 42.4329 
10 *385:42 *385:65 0.673214 
11 *385:65 *8848:CLK 38.6214 
12 *385:65 *385:76 5.42714 
13 *385:76 *8812:CLK 38 
14 *385:76 *385:93 40.2329 
15 *385:93 *385:101 20.6343 
16 *385:101 *385:103 3.48 
17 *385:103 *8796:CLK 37.4379 
18 *385:103 *8819:CLK 23 
19 *385:101 *385:121 32.9621 
20 *385:121 *8811:CLK 23 
21 *385:93 *8790:CLK 38 
*END

*D_NET *386 0.030947
*CONN
*I *8794:CLK I *D sky130_fd_sc_hd__dfrtp_1
*I *8797:CLK I *D sky130_fd_sc_hd__dfrtp_1
*I *8852:CLK I *D sky130_fd_sc_hd__dfrtp_1
*I *8831:CLK I *D sky130_fd_sc_hd__dfrtp_1
*I *8834:CLK I *D sky130_fd_sc_hd__dfrtp_1
*I *8837:CLK I *D sky130_fd_sc_hd__dfrtp_1
*I *8817:CLK I *D sky130_fd_sc_hd__dfrtp_1
*I *8862:X O *D sky130_fd_sc_hd__clkbuf_16
*CAP
1 *8794:CLK 0.000285287
2 *8797:CLK 0
3 *8852:CLK 0
4 *8831:CLK 0
5 *8834:CLK 0
6 *8837:CLK 5.1269e-05
7 *8817:CLK 0.00017745
8 *8862:X 9.07431e-05
9 *386:65 0.00380249
10 *386:53 0.000287662
11 *386:33 0.00144493
12 *386:31 0.00168132
13 *386:29 0.000635516
14 *386:25 0.00316164
15 *386:21 0.00252612
16 *386:19 0.00418265
17 *386:8 0.000933639
18 *8794:CLK *415:8 0
19 *8817:CLK *449:20 0
20 *8817:CLK *470:14 0
21 *8817:CLK *509:28 0
22 *8837:CLK *427:16 0.000227497
23 *8837:CLK *506:20 0.000227497
24 *386:8 *470:14 3.16784e-05
25 *386:19 *470:14 0
26 *386:25 *491:8 7.9199e-05
27 *386:29 *491:8 1.10105e-05
28 *386:33 *427:16 0.00151124
29 *386:33 *427:18 1.60583e-05
30 *386:33 *429:22 0.00291609
31 *386:33 *441:24 0.00379506
32 *386:33 *506:20 0.000186025
33 *386:53 *429:22 0.00107907
34 *386:53 *441:24 0.00106762
35 *386:65 *533:14 0
36 *8852:D *386:29 1.8501e-05
37 *8955:A *386:33 3.84556e-05
38 *14:13 *386:33 0
39 *233:8 *8817:CLK 0.000215782
40 *233:8 *386:19 8.62876e-05
41 *311:133 *8794:CLK 0
42 *311:133 *386:65 0
43 *314:10 *8794:CLK 6.68793e-05
44 *317:10 *386:65 8.16356e-05
45 *340:10 *386:19 3.07161e-05
*RES
1 *8862:X *386:8 39.0979 
2 *386:8 *8817:CLK 41.6664 
3 *386:8 *386:19 13.1743 
4 *386:19 *386:21 15 
5 *386:21 *386:25 45.7786 
6 *386:25 *386:29 7.66429 
7 *386:29 *386:31 15 
8 *386:31 *386:33 58.9529 
9 *386:33 *8837:CLK 40.9621 
10 *386:33 *8834:CLK 38 
11 *386:31 *386:53 29.2307 
12 *386:53 *8831:CLK 23 
13 *386:29 *8852:CLK 23 
14 *386:19 *386:65 68.1086 
15 *386:65 *8797:CLK 38 
16 *386:65 *8794:CLK 43.4271 
*END

*D_NET *387 0.0308746
*CONN
*I *8799:CLK I *D sky130_fd_sc_hd__dfrtp_2
*I *8844:CLK I *D sky130_fd_sc_hd__dfrtp_1
*I *8820:CLK I *D sky130_fd_sc_hd__dfrtp_4
*I *8840:CLK I *D sky130_fd_sc_hd__dfrtp_4
*I *8795:CLK I *D sky130_fd_sc_hd__dfrtp_2
*I *8863:X O *D sky130_fd_sc_hd__clkbuf_16
*CAP
1 *8799:CLK 0
2 *8844:CLK 0
3 *8820:CLK 0
4 *8840:CLK 0
5 *8795:CLK 0.000976466
6 *8863:X 0
7 *387:71 0.0043504
8 *387:69 0.0043504
9 *387:67 0.000415717
10 *387:50 0.000823831
11 *387:39 0.00205418
12 *387:27 0.00232019
13 *387:10 0.00343716
14 *387:6 0.00178657
15 *8795:CLK *8795:RESET_B 0.000241807
16 *8795:CLK *455:8 0.000376225
17 *8795:CLK *479:18 0.000137177
18 *387:10 *398:10 0
19 *387:27 *8795:RESET_B 0.00191921
20 *387:27 *479:18 0.00019952
21 *387:39 *8795:RESET_B 9.05149e-05
22 *387:39 *401:8 5.96327e-05
23 *387:39 *462:8 3.54409e-05
24 *387:39 *487:26 0.000673314
25 *387:50 *8838:RESET_B 0
26 *387:50 *487:26 0.00085475
27 *387:50 *508:118 0
28 *387:67 *452:12 9.68428e-05
29 *387:67 *483:12 9.32948e-05
30 *387:67 *587:20 3.56433e-05
31 *387:71 *401:10 0.0043004
32 *8662:S *387:39 4.2573e-05
33 *8795:D *8795:CLK 1.73399e-05
34 *235:14 *387:39 0
35 *236:10 *387:50 3.56537e-05
36 *285:26 *387:67 0.000267178
37 *311:86 *387:39 0.00044298
38 *312:18 *387:39 0
39 *333:29 *387:39 0
40 *333:91 *387:67 4.96264e-05
41 *337:14 *387:39 9.4713e-05
42 *342:10 *387:39 0
43 *342:10 *387:50 0
44 *383:76 *387:71 0.000295845
*RES
1 *8863:X *387:6 38 
2 *387:6 *387:10 47.8943 
3 *387:10 *8795:CLK 41.2079 
4 *387:10 *387:27 21.1079 
5 *387:27 *387:39 44.87 
6 *387:39 *8840:CLK 38 
7 *387:39 *387:50 26.4136 
8 *387:50 *8820:CLK 23 
9 *387:50 *387:67 38.0579 
10 *387:67 *387:69 15 
11 *387:69 *387:71 110.718 
12 *387:71 *8844:CLK 38 
13 *387:27 *8799:CLK 23 
*END

*D_NET *388 0.0346219
*CONN
*I *8805:CLK I *D sky130_fd_sc_hd__dfrtp_4
*I *8821:CLK I *D sky130_fd_sc_hd__dfrtp_4
*I *8826:CLK I *D sky130_fd_sc_hd__dfrtp_4
*I *8842:CLK I *D sky130_fd_sc_hd__dfrtp_4
*I *8815:CLK I *D sky130_fd_sc_hd__dfrtp_1
*I *8839:CLK I *D sky130_fd_sc_hd__dfrtp_2
*I *8814:CLK I *D sky130_fd_sc_hd__dfrtp_4
*I *8825:CLK I *D sky130_fd_sc_hd__dfrtp_4
*I *8828:CLK I *D sky130_fd_sc_hd__dfrtp_2
*I *8835:CLK I *D sky130_fd_sc_hd__dfrtp_4
*I *8847:CLK I *D sky130_fd_sc_hd__dfrtp_1
*I *8809:CLK I *D sky130_fd_sc_hd__dfrtp_4
*I *8824:CLK I *D sky130_fd_sc_hd__dfrtp_1
*I *8827:CLK I *D sky130_fd_sc_hd__dfrtp_1
*I *8864:X O *D sky130_fd_sc_hd__clkbuf_16
*CAP
1 *8805:CLK 0.000308819
2 *8821:CLK 4.01155e-05
3 *8826:CLK 0
4 *8842:CLK 0
5 *8815:CLK 0.000155355
6 *8839:CLK 0.000107159
7 *8814:CLK 7.24575e-05
8 *8825:CLK 0.00031469
9 *8828:CLK 0
10 *8835:CLK 0
11 *8847:CLK 0.000148988
12 *8809:CLK 2.79004e-05
13 *8824:CLK 0
14 *8827:CLK 0.000249323
15 *8864:X 0
16 *388:130 0.000349862
17 *388:117 0.000347458
18 *388:113 0.00132612
19 *388:90 0.000213364
20 *388:80 0.000648844
21 *388:74 0.000887994
22 *388:70 0.00173184
23 *388:60 0.00106135
24 *388:54 0.000902883
25 *388:39 0.000385344
26 *388:28 0.00169462
27 *388:10 0.000249323
28 *388:8 0.00529072
29 *388:6 0.00529072
30 *388:4 0.00145874
31 *8805:CLK *8821:RESET_B 0
32 *8805:CLK *471:14 0.000367985
33 *8805:CLK *483:8 0
34 *8805:CLK *553:24 6.84893e-05
35 *8809:CLK *585:36 5.50106e-05
36 *8814:CLK *445:10 9.41704e-05
37 *8815:CLK *430:125 0.000165593
38 *8825:CLK *8745:A1 5.33597e-05
39 *8825:CLK *8835:RESET_B 5.97178e-05
40 *8825:CLK *472:8 0.000119404
41 *8825:CLK *472:12 0.000110922
42 *8825:CLK *513:46 0
43 *8825:CLK *568:36 7.73389e-05
44 *8827:CLK *8827:RESET_B 0.000223988
45 *8827:CLK *8845:RESET_B 0.000208526
46 *8827:CLK *435:20 0.000353431
47 *8827:CLK *439:24 4.96207e-05
48 *8827:CLK *495:8 0.000228909
49 *8839:CLK *8711:A0 0.000219362
50 *8839:CLK *508:25 1.59094e-05
51 *8847:CLK *453:8 5.50106e-05
52 *8847:CLK *489:37 3.7877e-05
53 *8847:CLK *489:49 4.02798e-05
54 *388:8 *8728:A1 0
55 *388:8 *8824:RESET_B 0
56 *388:8 *389:26 0
57 *388:8 *541:14 0
58 *388:8 *553:14 0
59 *388:28 *453:12 0
60 *388:28 *453:14 0
61 *388:28 *553:14 0.000658113
62 *388:28 *553:24 0.000684204
63 *388:28 *597:12 0.000158654
64 *388:39 *471:14 0.000190227
65 *388:39 *553:24 0.000416325
66 *388:39 *597:12 4.77096e-05
67 *388:54 *471:14 6.38845e-05
68 *388:54 *553:24 5.15096e-05
69 *388:60 *489:37 0.000275146
70 *388:70 *8826:RESET_B 1.01436e-05
71 *388:70 *472:12 0
72 *388:70 *489:23 8.12253e-05
73 *388:70 *489:37 3.95004e-05
74 *388:74 *472:12 0.000268585
75 *388:74 *498:12 8.30065e-05
76 *388:80 *8828:RESET_B 0.000226606
77 *388:80 *437:46 1.18874e-05
78 *388:80 *498:10 3.3577e-05
79 *388:90 *437:46 0.00012768
80 *388:113 *479:12 2.4754e-05
81 *388:113 *489:23 0.000574264
82 *388:117 *430:123 0.000163643
83 *388:117 *508:25 1.01436e-05
84 *388:130 *430:123 1.5037e-05
85 *388:130 *430:125 2.5343e-05
86 *388:130 *508:25 0.000192087
87 *8696:A *8815:CLK 2.53471e-05
88 *8731:A *388:70 4.21281e-05
89 *8731:A *388:113 3.22879e-05
90 *8746:A *388:90 0.000158237
91 *8761:A *388:113 0.000261956
92 *8821:D *388:60 0.000141954
93 *3:19 *388:113 0.000216872
94 *220:10 *388:28 7.28526e-05
95 *225:8 *388:39 4.334e-05
96 *230:10 *8814:CLK 4.67488e-05
97 *240:10 *388:8 1.97329e-05
98 *241:10 *388:70 3.08344e-05
99 *244:10 *388:113 0.000131009
100 *258:8 *388:113 0.000253943
101 *296:120 *8815:CLK 0.000156388
102 *296:120 *388:117 0.000365001
103 *296:120 *388:130 0.000234382
104 *311:48 *388:70 8.62876e-05
105 *311:52 *388:70 5.50049e-05
106 *311:62 *388:113 0.000901045
107 *311:64 *388:113 0.000339196
108 *332:8 *388:28 8.85189e-05
109 *344:29 *8805:CLK 0
110 *344:155 *388:8 0
111 *355:141 *388:74 0
112 *355:141 *388:90 0
113 *360:10 *388:90 0.00014411
114 *364:14 *388:113 5.50106e-05
115 *366:24 *8847:CLK 0.000264564
116 *383:147 *388:8 0.000153002
*RES
1 *8864:X *388:4 23 
2 *388:4 *388:6 15 
3 *388:6 *388:8 100.506 
4 *388:8 *388:10 15 
5 *388:10 *8827:CLK 32.6736 
6 *388:10 *8824:CLK 23 
7 *388:4 *388:28 47.0657 
8 *388:28 *8809:CLK 38.6214 
9 *388:28 *388:39 5.77929 
10 *388:39 *8847:CLK 42.35 
11 *388:39 *388:54 0.849286 
12 *388:54 *388:60 23.7414 
13 *388:60 *388:70 38.265 
14 *388:70 *388:74 18.6664 
15 *388:74 *388:80 21.5871 
16 *388:80 *388:90 35.6343 
17 *388:90 *8835:CLK 23 
18 *388:80 *8828:CLK 23 
19 *388:74 *8825:CLK 44.6907 
20 *388:70 *388:113 33.495 
21 *388:113 *388:117 20.075 
22 *388:117 *8814:CLK 39.595 
23 *388:117 *388:130 3.31429 
24 *388:130 *8839:CLK 40.5479 
25 *388:130 *8815:CLK 41.8736 
26 *388:113 *8842:CLK 23 
27 *388:70 *8826:CLK 23 
28 *388:60 *8821:CLK 23.8493 
29 *388:54 *8805:CLK 43.6964 
*END

*D_NET *389 0.0438714
*CONN
*I *8801:CLK I *D sky130_fd_sc_hd__dfrtp_1
*I *8851:CLK I *D sky130_fd_sc_hd__dfrtp_1
*I *8807:CLK I *D sky130_fd_sc_hd__dfrtp_1
*I *8802:CLK I *D sky130_fd_sc_hd__dfrtp_2
*I *8792:CLK I *D sky130_fd_sc_hd__dfrtp_1
*I *8810:CLK I *D sky130_fd_sc_hd__dfrtp_2
*I *8804:CLK I *D sky130_fd_sc_hd__dfrtp_4
*I *8833:CLK I *D sky130_fd_sc_hd__dfrtp_1
*I *8808:CLK I *D sky130_fd_sc_hd__dfrtp_1
*I *8806:CLK I *D sky130_fd_sc_hd__dfrtp_2
*I *8865:X O *D sky130_fd_sc_hd__clkbuf_16
*CAP
1 *8801:CLK 0
2 *8851:CLK 0.000500839
3 *8807:CLK 0
4 *8802:CLK 0
5 *8792:CLK 0
6 *8810:CLK 0
7 *8804:CLK 0.000289312
8 *8833:CLK 0
9 *8808:CLK 2.18824e-05
10 *8806:CLK 0
11 *8865:X 0.00144027
12 *389:123 0.00130807
13 *389:117 0.00297087
14 *389:106 0.00320545
15 *389:99 0.000342691
16 *389:93 0.00340929
17 *389:76 0.00137264
18 *389:61 0.00130391
19 *389:55 0.000862054
20 *389:26 0.000641765
21 *389:18 0.00114067
22 *389:12 0.00161138
23 *389:10 0.00171832
24 *389:8 0.00078095
25 *389:6 0.00144027
26 *8851:CLK *612:12 0.000698804
27 *389:10 *556:12 0.000925626
28 *389:12 *556:12 0.000762674
29 *389:18 *512:45 6.69072e-05
30 *389:26 *580:14 0.000567897
31 *389:55 *556:12 0.000105061
32 *389:55 *589:16 9.91701e-05
33 *389:61 *453:14 0.00198504
34 *389:61 *589:16 0.000123934
35 *389:76 *453:12 0.000128733
36 *389:76 *453:14 0.000937428
37 *389:93 *453:12 9.30364e-05
38 *389:99 *8791:RESET_B 0.00018745
39 *389:99 *512:14 0.000212085
40 *389:106 *412:14 0.000630284
41 *389:117 *8802:RESET_B 0.000986559
42 *389:117 *412:14 0.000312304
43 *389:123 *569:10 0
44 *389:123 *612:12 0.00120487
45 *8583:A *389:93 5.41385e-05
46 *8692:S *389:93 0.000438462
47 *8801:D *389:55 2.93845e-05
48 *8802:D *389:117 6.05398e-05
49 *8808:D *389:18 4.58484e-05
50 *8808:D *389:26 7.79323e-05
51 *217:10 *389:55 4.27794e-05
52 *275:30 *389:99 0.000128965
53 *321:12 *389:99 0
54 *321:14 *389:93 4.75206e-05
55 *321:14 *389:106 0.000105934
56 *321:20 *389:93 0.00111515
57 *321:28 *389:93 0.000223698
58 *322:14 *389:10 0.000929226
59 *322:14 *389:12 0.0002832
60 *322:14 *389:55 4.85126e-05
61 *322:16 *389:12 0.00237953
62 *329:12 *389:123 0
63 *344:8 *389:93 3.88863e-05
64 *344:18 *389:93 2.64616e-05
65 *344:130 *389:61 0.00198598
66 *344:130 *389:76 0.00120858
67 *344:130 *389:93 0.000212217
68 *344:134 *389:12 0
69 *388:8 *389:26 0
*RES
1 *8865:X *389:6 40.7729 
2 *389:6 *389:8 15 
3 *389:8 *389:10 23.7386 
4 *389:10 *389:12 38.5286 
5 *389:12 *389:18 21.8357 
6 *389:18 *389:26 44.2929 
7 *389:26 *8806:CLK 23 
8 *389:18 *8808:CLK 23.4971 
9 *389:10 *8833:CLK 38 
10 *389:8 *389:55 20.075 
11 *389:55 *389:61 43.7307 
12 *389:61 *8804:CLK 42.4743 
13 *389:61 *389:76 15.9914 
14 *389:76 *8810:CLK 38 
15 *389:76 *389:93 42.5707 
16 *389:93 *389:99 38.2443 
17 *389:99 *8792:CLK 23 
18 *389:93 *389:106 38.2593 
19 *389:106 *8802:CLK 23 
20 *389:106 *389:117 42.3221 
21 *389:117 *389:123 44.0621 
22 *389:123 *8807:CLK 23 
23 *389:117 *8851:CLK 49.4136 
24 *389:55 *8801:CLK 23 
*END

*D_NET *390 0.0323805
*CONN
*I *8830:CLK I *D sky130_fd_sc_hd__dfrtp_1
*I *8829:CLK I *D sky130_fd_sc_hd__dfrtp_1
*I *8813:CLK I *D sky130_fd_sc_hd__dfrtp_1
*I *8843:CLK I *D sky130_fd_sc_hd__dfrtp_2
*I *8832:CLK I *D sky130_fd_sc_hd__dfrtp_1
*I *8856:CLK I *D sky130_fd_sc_hd__dfrtp_1
*I *8838:CLK I *D sky130_fd_sc_hd__dfrtp_2
*I *8866:X O *D sky130_fd_sc_hd__clkbuf_16
*CAP
1 *8830:CLK 0.000271671
2 *8829:CLK 0.000273617
3 *8813:CLK 0
4 *8843:CLK 0
5 *8832:CLK 0.000307003
6 *8856:CLK 0
7 *8838:CLK 0.00166053
8 *8866:X 0
9 *390:79 0.000812537
10 *390:54 0.000307003
11 *390:52 0.00172329
12 *390:44 0.00285792
13 *390:38 0.00307728
14 *390:22 0.00250232
15 *390:14 0.00261005
16 *390:10 0.0029503
17 *390:6 0.00285745
18 *8829:CLK *8829:RESET_B 1.94335e-05
19 *8829:CLK *514:141 0.000316218
20 *8829:CLK *551:26 0.000292755
21 *8830:CLK *8829:RESET_B 1.24376e-05
22 *8830:CLK *499:6 5.67058e-05
23 *8830:CLK *499:25 0.0015164
24 *8830:CLK *514:127 0.00139302
25 *8830:CLK *551:26 2.25927e-05
26 *8832:CLK *570:22 0.000269366
27 *8832:CLK *570:30 0.000136738
28 *8838:CLK *8751:A1 8.95945e-05
29 *8838:CLK *8838:RESET_B 0.000178818
30 *8838:CLK *509:16 4.56077e-05
31 *8838:CLK *545:20 0.00108968
32 *390:10 *526:34 0
33 *390:14 *497:12 8.18192e-05
34 *390:38 *526:32 0
35 *390:38 *526:34 0
36 *390:44 *8813:RESET_B 0.000181214
37 *390:44 *444:27 8.65442e-05
38 *390:52 *430:135 0.000345295
39 *390:52 *578:10 0.000345295
40 *390:79 *526:32 0
41 *8764:S *8832:CLK 0.000465579
42 *8813:D *390:44 1.46205e-05
43 *8829:D *8829:CLK 1.10317e-05
44 *8856:D *390:14 5.50106e-05
45 *344:101 *390:10 0.00170173
46 *344:103 *390:10 0.000225743
47 *344:103 *390:38 0.0011249
48 *344:103 *390:79 8.8524e-05
49 *344:109 *390:79 2.80935e-06
50 *366:99 *390:22 0
*RES
1 *8866:X *390:6 38 
2 *390:6 *390:10 46.1336 
3 *390:10 *390:14 23.7386 
4 *390:14 *390:22 45.7429 
5 *390:22 *8838:CLK 47.8157 
6 *390:14 *8856:CLK 23 
7 *390:6 *390:38 42.4021 
8 *390:38 *390:44 30.2871 
9 *390:44 *390:52 47.3971 
10 *390:52 *390:54 15 
11 *390:54 *8832:CLK 32.6736 
12 *390:54 *8843:CLK 23 
13 *390:44 *8813:CLK 23 
14 *390:38 *390:79 18.1486 
15 *390:79 *8829:CLK 31.7414 
16 *390:79 *8830:CLK 41.2493 
*END

*D_NET *391 0.0536759
*CONN
*I *8857:A I *D sky130_fd_sc_hd__buf_2
*I *8836:CLK I *D sky130_fd_sc_hd__dfrtp_1
*I *8853:CLK I *D sky130_fd_sc_hd__dfrtp_1
*I *8823:CLK I *D sky130_fd_sc_hd__dfrtp_1
*I *8822:CLK I *D sky130_fd_sc_hd__dfrtp_1
*I *8791:CLK I *D sky130_fd_sc_hd__dfrtp_1
*I *8841:CLK I *D sky130_fd_sc_hd__dfrtp_1
*I *8803:CLK I *D sky130_fd_sc_hd__dfrtp_1
*I *8793:CLK I *D sky130_fd_sc_hd__dfrtp_1
*I *8867:X O *D sky130_fd_sc_hd__clkbuf_16
*CAP
1 *8857:A 0
2 *8836:CLK 0
3 *8853:CLK 0
4 *8823:CLK 0
5 *8822:CLK 0
6 *8791:CLK 3.41136e-05
7 *8841:CLK 0.000440432
8 *8803:CLK 0
9 *8793:CLK 0
10 *8867:X 0.000232445
11 *391:142 0.000126229
12 *391:136 0.0025666
13 *391:127 0.00263927
14 *391:119 0.00292362
15 *391:117 0.00319014
16 *391:103 0.00149852
17 *391:101 0.00149852
18 *391:94 0.00193598
19 *391:68 0.000914014
20 *391:66 0.00349138
21 *391:49 9.6449e-05
22 *391:43 0.00183473
23 *391:39 0.00319155
24 *391:37 0.00162327
25 *391:28 0.00112096
26 *391:22 0.00341821
27 *391:20 0.00251619
28 *391:12 0.00174287
29 *391:8 0.00127587
30 *8841:CLK *8758:A1 0
31 *8841:CLK *8847:RESET_B 0
32 *8841:CLK *423:14 0.000263534
33 *8841:CLK *511:26 0.000133901
34 *8841:CLK *600:14 0.000191166
35 *391:12 *516:37 0
36 *391:12 *563:10 0
37 *391:20 *8853:RESET_B 5.18019e-05
38 *391:20 *408:18 0
39 *391:20 *563:10 0.000218943
40 *391:22 *408:18 0
41 *391:28 *408:18 0
42 *391:28 *514:55 0.000317553
43 *391:37 *431:14 2.93747e-05
44 *391:37 *514:55 0.000172403
45 *391:39 *392:16 0.0012328
46 *391:39 *431:14 0.000138727
47 *391:39 *539:12 0
48 *391:43 *514:93 5.25858e-05
49 *391:43 *545:16 1.91803e-05
50 *391:49 *8823:RESET_B 7.90464e-05
51 *391:66 *394:27 0.00130365
52 *391:66 *549:12 0.000221099
53 *391:68 *549:12 0.000144141
54 *391:94 *492:16 0.000728318
55 *391:94 *492:34 0.000119461
56 *391:103 *545:16 0.00194545
57 *391:117 *563:10 0
58 *391:119 *563:10 0
59 *391:127 *514:113 0.000514931
60 *391:127 *551:20 0.000601931
61 *391:136 *8836:RESET_B 1.53169e-05
62 *391:136 *473:23 0.00238791
63 *391:136 *514:99 0.000119645
64 *391:136 *514:113 8.1576e-05
65 *391:142 *473:23 0
66 *8791:D *8791:CLK 5.12254e-05
67 *8823:D *391:43 1.73399e-05
68 *8841:D *8841:CLK 7.59794e-05
69 *8853:D *391:20 4.39278e-05
70 *275:78 *391:68 0
71 *285:18 *391:66 0
72 *285:159 *391:28 0.00126956
73 *285:159 *391:37 0.000218483
74 *285:165 *391:39 2.60152e-05
75 *311:36 *8791:CLK 9.67842e-05
76 *321:130 *391:20 0.000512633
77 *321:130 *391:22 0.00132199
78 *321:130 *391:28 6.68587e-05
79 *322:96 *391:39 0
80 *325:10 *391:49 1.14452e-05
81 *366:151 *8841:CLK 0.000111134
82 *366:151 *391:68 0.000102085
83 *367:8 *8841:CLK 0.000161877
84 *367:8 *391:68 0.00015351
85 *379:10 *391:12 3.92407e-05
*RES
1 *8867:X *391:8 41.0036 
2 *391:8 *391:12 25.7093 
3 *391:12 *391:20 37.5786 
4 *391:20 *391:22 34.655 
5 *391:22 *391:28 41.825 
6 *391:28 *8793:CLK 23 
7 *391:28 *391:37 20.3857 
8 *391:37 *391:39 35.7114 
9 *391:39 *391:43 43.2543 
10 *391:43 *391:49 32.2579 
11 *391:49 *8803:CLK 23 
12 *391:22 *391:66 49.6993 
13 *391:66 *391:68 9.65286 
14 *391:68 *8841:CLK 48.8129 
15 *391:68 *8791:CLK 39.0979 
16 *391:66 *391:94 43.1507 
17 *391:94 *8822:CLK 23 
18 *391:20 *391:101 15 
19 *391:101 *391:103 53.505 
20 *391:103 *8823:CLK 23 
21 *391:12 *8853:CLK 23 
22 *391:8 *391:117 9.31107 
23 *391:117 *391:119 52.8939 
24 *391:119 *391:127 24.3629 
25 *391:127 *8836:CLK 23 
26 *391:127 *391:136 39.585 
27 *391:136 *391:142 32.2579 
28 *391:142 *8857:A 23 
*END

*D_NET *392 0.0180536
*CONN
*I *8656:A0 I *D sky130_fd_sc_hd__mux2_1
*I *8887:X O *D sky130_fd_sc_hd__buf_1
*CAP
1 *8656:A0 0
2 *8887:X 0.000102294
3 *392:16 0.00614786
4 *392:14 0.00614786
5 *392:12 0.00122181
6 *392:8 0.0013241
7 *392:8 *545:8 4.23817e-05
8 *392:12 *548:6 0.000866555
9 *392:12 *571:14 0.000967975
10 *392:16 *539:8 0
11 *392:16 *539:12 0
12 *391:39 *392:16 0.0012328
*RES
1 *8887:X *392:8 39.9057 
2 *392:8 *392:12 47.5421 
3 *392:12 *392:14 15 
4 *392:14 *392:16 126.212 
5 *392:16 *8656:A0 38 
*END

*D_NET *393 0.0366495
*CONN
*I *8695:A0 I *D sky130_fd_sc_hd__mux2_1
*I *8888:X O *D sky130_fd_sc_hd__clkbuf_2
*CAP
1 *8695:A0 0.00101837
2 *8888:X 2.34823e-05
3 *393:16 0.00330586
4 *393:14 0.00228749
5 *393:12 0.00768489
6 *393:10 0.00885179
7 *393:6 0.00119038
8 *8695:A0 *8695:A1 3.22879e-05
9 *8695:A0 *394:27 0.00109438
10 *393:10 *604:6 0.00148616
11 *393:10 *610:14 0.000109901
12 *393:12 *489:65 0
13 *393:12 *514:55 0
14 *393:12 *536:10 0.00263536
15 *393:16 *394:27 0.00616117
16 *8978:A *393:10 7.88926e-05
17 *118:10 *393:10 9.71035e-05
18 *311:207 *393:16 0.000311554
19 *333:118 *8695:A0 0.00010018
20 *333:135 *8695:A0 0.000180218
*RES
1 *8888:X *393:6 23.4971 
2 *393:6 *393:10 43.2543 
3 *393:10 *393:12 154.384 
4 *393:12 *393:14 15 
5 *393:14 *393:16 68.0361 
6 *393:16 *8695:A0 48.1782 
*END

*D_NET *394 0.0277836
*CONN
*I *8870:A I *D sky130_fd_sc_hd__buf_4
*I *8875:A I *D sky130_fd_sc_hd__clkbuf_4
*I *8889:X O *D sky130_fd_sc_hd__clkbuf_2
*CAP
1 *8870:A 3.76283e-05
2 *8875:A 0.000117102
3 *8889:X 0.000250274
4 *394:27 0.00694823
5 *394:25 0.00720096
6 *394:8 0.000657737
7 *8870:A *441:18 1.14154e-05
8 *8875:A *547:16 0.000223692
9 *8875:A *568:24 7.53384e-06
10 *394:8 *8778:A1 9.78179e-05
11 *394:8 *418:20 0.000219882
12 *394:8 *423:22 0.000188039
13 *394:8 *467:12 5.56203e-05
14 *394:8 *490:10 6.11183e-05
15 *394:25 *8778:A1 6.2869e-05
16 *394:25 *8851:RESET_B 6.7177e-06
17 *394:25 *418:20 5.4216e-05
18 *394:25 *418:24 0.000742036
19 *394:25 *514:24 0.00045386
20 *394:25 *514:70 0.00019747
21 *394:27 *8695:A1 7.57176e-05
22 *394:27 *8869:A 4.34973e-05
23 *394:27 *441:18 0.00039238
24 *394:27 *509:6 3.34247e-05
25 *394:27 *509:10 0.00014255
26 *394:27 *510:6 2.64616e-05
27 *8695:A0 *394:27 0.00109438
28 *311:207 *394:27 0.00060547
29 *333:118 *394:27 0.000143655
30 *333:135 *394:27 0.000166987
31 *391:66 *394:27 0.00130365
32 *393:16 *394:27 0.00616117
*RES
1 *8889:X *394:8 45.8921 
2 *394:8 *8875:A 40.5271 
3 *394:8 *394:25 26.4757 
4 *394:25 *394:27 151.173 
5 *394:27 *8870:A 23.8493 
*END

*D_NET *395 0.0167158
*CONN
*I *8987:A I *D sky130_fd_sc_hd__clkbuf_4
*I *8585:X O *D sky130_fd_sc_hd__buf_1
*CAP
1 *8987:A 4.72525e-05
2 *8585:X 0
3 *395:8 0.00600554
4 *395:6 0.00595829
5 *8987:A *502:31 0.000272383
6 *8987:A *526:26 9.61128e-05
7 *395:8 *8668:A1 0.00033609
8 *395:8 *8799:RESET_B 3.98859e-05
9 *395:8 *405:10 0.000194318
10 *395:8 *462:10 0.000219965
11 *395:8 *508:86 0
12 *395:8 *535:10 0.00335729
13 *36:8 *8987:A 0.00010018
14 *319:8 *395:8 8.85189e-05
*RES
1 *8585:X *395:6 38 
2 *395:6 *395:8 143.115 
3 *395:8 *8987:A 41.0036 
*END

*D_NET *396 0.018752
*CONN
*I *8988:A I *D sky130_fd_sc_hd__clkbuf_4
*I *8606:X O *D sky130_fd_sc_hd__buf_1
*CAP
1 *8988:A 0
2 *8606:X 0
3 *396:10 0.00518507
4 *396:8 0.00520695
5 *396:6 0.00381749
6 *396:4 0.0037956
7 *396:6 *515:10 0.000746902
*RES
1 *8606:X *396:4 23 
2 *396:4 *396:6 52.7904 
3 *396:6 *396:8 0.497143 
4 *396:8 *396:10 87.0932 
5 *396:10 *8988:A 23 
*END

*D_NET *397 0.0156352
*CONN
*I *8989:A I *D sky130_fd_sc_hd__clkbuf_4
*I *8608:X O *D sky130_fd_sc_hd__buf_1
*CAP
1 *8989:A 0.000510131
2 *8608:X 0
3 *397:8 0.00568572
4 *397:6 0.00517559
5 *397:8 *8831:RESET_B 0.000539541
6 *397:8 *458:33 0
7 *397:8 *509:52 0.00157549
8 *397:8 *509:66 0.000563091
9 *397:8 *575:8 0.00156263
10 *38:10 *8989:A 2.30292e-05
*RES
1 *8608:X *397:6 38 
2 *397:6 *397:8 129.029 
3 *397:8 *8989:A 46.7207 
*END

*D_NET *398 0.0162228
*CONN
*I *8990:A I *D sky130_fd_sc_hd__clkbuf_4
*I *8610:X O *D sky130_fd_sc_hd__buf_1
*CAP
1 *8990:A 0
2 *8610:X 0.000745124
3 *398:10 0.00679837
4 *398:8 0.00679837
5 *398:6 0.000745124
6 *398:6 *441:20 0.00113576
7 *398:10 *430:151 0
8 *383:76 *398:10 0
9 *387:10 *398:10 0
*RES
1 *8610:X *398:6 35.5321 
2 *398:6 *398:8 15 
3 *398:8 *398:10 129.029 
4 *398:10 *8990:A 38 
*END

*D_NET *399 0.00461605
*CONN
*I *8991:A I *D sky130_fd_sc_hd__clkbuf_4
*I *8612:X O *D sky130_fd_sc_hd__clkbuf_1
*CAP
1 *8991:A 0
2 *8612:X 8.83236e-05
3 *399:12 0.00126127
4 *399:8 0.0013496
5 *399:8 *605:8 0.000169674
6 *399:12 *538:12 0.00172772
7 *40:12 *399:12 1.94693e-05
*RES
1 *8612:X *399:8 40.2579 
2 *399:8 *399:12 49.4479 
3 *399:12 *8991:A 23 
*END

*D_NET *400 0.0183207
*CONN
*I *8992:A I *D sky130_fd_sc_hd__clkbuf_4
*I *8614:X O *D sky130_fd_sc_hd__buf_1
*CAP
1 *8992:A 0.000323605
2 *8614:X 0
3 *400:14 0.00193776
4 *400:8 0.00733564
5 *400:6 0.00572149
6 *8992:A *9058:A 0.000340546
7 *8992:A *548:20 0.000441972
8 *8992:A *608:8 0.00143838
9 *400:14 *473:23 0.000590072
10 *400:14 *571:8 8.85189e-05
11 *400:14 *608:14 1.22803e-05
12 m_rdata[14] *8992:A 4.06849e-05
13 *165:17 *8992:A 0
14 *174:8 *8992:A 1.76557e-05
15 *291:10 *400:8 3.20914e-05
*RES
1 *8614:X *400:6 38 
2 *400:6 *400:8 108.74 
3 *400:8 *400:14 48.3811 
4 *400:14 *8992:A 39.3643 
*END

*D_NET *401 0.0414507
*CONN
*I *8993:A I *D sky130_fd_sc_hd__clkbuf_4
*I *8616:X O *D sky130_fd_sc_hd__clkbuf_2
*CAP
1 *8993:A 0
2 *8616:X 0.000134886
3 *401:22 0.00200103
4 *401:14 0.00523399
5 *401:12 0.00323296
6 *401:10 0.00379477
7 *401:8 0.00392966
8 *401:10 *8662:A1 3.21223e-05
9 *401:10 *404:24 0.000111852
10 *401:10 *458:21 7.06228e-05
11 *401:10 *587:16 0.0022428
12 *401:10 *587:20 0.00457639
13 *401:14 *430:143 0.000120217
14 *401:14 *430:145 0.00181743
15 *401:14 *552:12 0.0069832
16 *401:14 *594:6 0.00033884
17 *401:22 *501:29 0
18 *401:22 *526:6 0.00113666
19 *401:22 *594:6 0.000138869
20 *25:11 *401:22 0.000171906
21 *152:15 *401:22 2.4754e-05
22 *260:10 *401:10 8.62783e-05
23 *285:32 *401:10 0.000408328
24 *285:42 *401:10 0.00025236
25 *321:78 *401:10 0
26 *383:76 *401:10 0.000250703
27 *387:39 *401:8 5.96327e-05
28 *387:71 *401:10 0.0043004
*RES
1 *8616:X *401:8 40.0507 
2 *401:8 *401:10 137.833 
3 *401:10 *401:12 15 
4 *401:12 *401:14 101.386 
5 *401:14 *401:22 46.1232 
6 *401:22 *8993:A 38 
*END

*D_NET *402 0.0162569
*CONN
*I *8994:A I *D sky130_fd_sc_hd__clkbuf_4
*I *8618:X O *D sky130_fd_sc_hd__buf_1
*CAP
1 *8994:A 0.000134957
2 *8618:X 0.000526392
3 *402:12 0.00612936
4 *402:10 0.00652079
5 *8994:A *534:8 0.000313255
6 *402:10 *445:20 0.00076335
7 *402:12 *8800:RESET_B 0
8 *402:12 *445:22 0
9 *402:12 *459:12 8.62783e-05
10 *402:12 *463:10 7.45175e-05
11 *402:12 *463:14 0.000107641
12 *402:12 *510:48 0
13 *402:12 *576:22 0
14 *402:12 *576:24 0
15 *402:12 *606:12 0
16 *402:12 *606:14 0
17 *8958:A *402:12 0
18 *296:76 *402:12 0.000641809
19 *320:12 *402:12 0.000204655
20 *333:54 *402:10 0
21 *333:54 *402:12 0.000567808
22 *333:64 *402:12 0
23 *339:8 *402:12 2.79004e-05
24 *366:57 *402:12 0
25 *385:20 *402:12 0.000158214
*RES
1 *8618:X *402:10 49.4239 
2 *402:10 *402:12 123.426 
3 *402:12 *8994:A 41.48 
*END

*D_NET *403 0.0200617
*CONN
*I *8995:A I *D sky130_fd_sc_hd__clkbuf_4
*I *8620:X O *D sky130_fd_sc_hd__buf_1
*CAP
1 *8995:A 0
2 *8620:X 0
3 *403:10 0.00285438
4 *403:8 0.00285438
5 *403:6 0.00527361
6 *403:4 0.00527361
7 *403:10 *438:8 0.000223805
8 *403:10 *439:8 0.00273037
9 *403:10 *464:8 0
10 *403:10 *558:20 0.000138718
11 *8684:S *403:10 0
12 *249:10 *403:10 7.03766e-05
13 *322:14 *403:10 0.000642401
14 *322:16 *403:10 0
*RES
1 *8620:X *403:4 23 
2 *403:4 *403:6 65.8921 
3 *403:6 *403:8 15 
4 *403:8 *403:10 78.3207 
5 *403:10 *8995:A 38 
*END

*D_NET *404 0.0236166
*CONN
*I *8697:A0 I *D sky130_fd_sc_hd__mux2_1
*I *8890:X O *D sky130_fd_sc_hd__buf_1
*CAP
1 *8697:A0 0.000208156
2 *8890:X 0.000577878
3 *404:24 0.00143716
4 *404:16 0.00907789
5 *404:14 0.00795359
6 *404:8 0.000682584
7 *8697:A0 *424:10 0.000140736
8 *404:8 *8743:A0 3.28496e-05
9 *404:8 *458:31 1.24376e-05
10 *404:8 *506:20 0.000477634
11 *404:16 *8660:A0 0.000125404
12 *404:16 *8660:A1 3.98818e-05
13 *404:24 *8799:RESET_B 0.000388378
14 *404:24 *458:8 0.000181125
15 *8608:A *404:8 5.12254e-05
16 *8661:A *404:16 2.30292e-05
17 *8669:A *404:24 0.000104926
18 *8697:S *8697:A0 6.17437e-06
19 *8796:CLK *404:24 0.00013993
20 *285:42 *8697:A0 0.0002246
21 *285:42 *404:24 0.000106217
22 *292:10 *8697:A0 0.00035322
23 *292:10 *404:24 0.000369786
24 *311:78 *404:24 0
25 *321:78 *404:24 0
26 *335:6 *8697:A0 0.00018282
27 *359:10 *404:8 0.000607156
28 *359:10 *404:14 0
29 *401:10 *404:24 0.000111852
*RES
1 *8890:X *404:8 36.5057 
2 *404:8 *404:14 31.5536 
3 *404:14 *404:16 104.006 
4 *404:16 *404:24 36.2736 
5 *404:24 *8697:A0 45.3121 
*END

*D_NET *405 0.0163242
*CONN
*I *8996:A I *D sky130_fd_sc_hd__clkbuf_4
*I *8622:X O *D sky130_fd_sc_hd__buf_1
*CAP
1 *8996:A 0
2 *8622:X 0.000632853
3 *405:14 0.00720051
4 *405:12 0.00720051
5 *405:10 0.000632853
6 *405:10 *535:10 9.39056e-05
7 *405:14 *546:14 0.000282664
8 *8622:A *405:10 3.32942e-05
9 *45:12 *405:14 5.3304e-05
10 *395:8 *405:10 0.000194318
*RES
1 *8622:X *405:10 47.9014 
2 *405:10 *405:12 15 
3 *405:12 *405:14 121.158 
4 *405:14 *8996:A 23 
*END

*D_NET *406 0.0183404
*CONN
*I *8997:A I *D sky130_fd_sc_hd__clkbuf_4
*I *8625:X O *D sky130_fd_sc_hd__buf_1
*CAP
1 *8997:A 0
2 *8625:X 0.00068669
3 *406:20 0.000123596
4 *406:14 0.00508332
5 *406:12 0.00512814
6 *406:8 0.000855108
7 *406:8 *8845:RESET_B 8.92557e-05
8 *406:8 *439:26 1.3109e-05
9 *406:12 *461:14 2.72055e-05
10 *406:12 *484:8 0.000133316
11 *406:12 *560:8 3.96053e-05
12 *406:14 *9086:A 8.2832e-05
13 *406:14 *414:16 0.000657701
14 *406:14 *461:29 1.21972e-05
15 *406:14 *476:14 7.45491e-05
16 *406:14 *574:6 0.00109059
17 *406:14 *576:22 0.000863696
18 *406:14 *580:8 0.00296623
19 m_rdata[17] *406:14 1.55671e-05
20 *8845:CLK *406:8 1.94693e-05
21 *8845:D *406:8 0.000199508
22 *113:12 *406:14 1.8501e-05
23 *366:81 *406:12 0.000160182
*RES
1 *8625:X *406:8 47.1971 
2 *406:8 *406:12 19.0186 
3 *406:12 *406:14 78.2793 
4 *406:14 *406:20 31.5536 
5 *406:20 *8997:A 23 
*END

*D_NET *407 0.0277008
*CONN
*I *8998:A I *D sky130_fd_sc_hd__clkbuf_4
*I *8587:X O *D sky130_fd_sc_hd__clkbuf_2
*CAP
1 *8998:A 0
2 *8587:X 2.34823e-05
3 *407:12 0.00427126
4 *407:10 0.00427126
5 *407:8 0.00590319
6 *407:6 0.00592667
7 *8587:A *407:8 1.73399e-05
8 *8962:A *407:12 0
9 *271:10 *407:12 0
10 *285:54 *407:8 0.00501562
11 *285:58 *407:8 0.00204221
12 *290:10 *407:8 8.7843e-05
13 *294:10 *407:8 0.000141954
*RES
1 *8587:X *407:6 23.4971 
2 *407:6 *407:8 126.875 
3 *407:8 *407:10 15 
4 *407:10 *407:12 81.49 
5 *407:12 *8998:A 38 
*END

*D_NET *408 0.0298321
*CONN
*I *8999:A I *D sky130_fd_sc_hd__clkbuf_4
*I *8627:X O *D sky130_fd_sc_hd__clkbuf_2
*CAP
1 *8999:A 0
2 *8627:X 0.000994174
3 *408:18 0.00696192
4 *408:16 0.00826175
5 *408:10 0.00479491
6 *408:8 0.00448925
7 *408:8 *412:14 0.000122369
8 *408:8 *585:38 0.00208019
9 *408:10 *512:24 0.00018155
10 *408:10 *585:22 0.000159801
11 *408:10 *585:36 0.000685134
12 *408:10 *585:38 0.000752656
13 *408:16 *8792:RESET_B 0
14 *408:16 *469:10 0
15 *408:16 *489:61 7.57281e-06
16 *408:16 *612:32 0.000106872
17 *408:16 *613:12 4.13458e-05
18 *408:16 *613:29 1.62015e-05
19 *408:18 *469:10 0
20 *408:18 *493:14 7.66085e-05
21 *408:18 *551:16 0
22 *408:18 *563:10 0
23 *8579:A *408:16 9.20311e-06
24 *273:8 *408:16 4.26048e-06
25 *311:12 *408:16 8.62876e-05
26 *321:126 *408:16 0
27 *321:130 *408:16 0
28 *321:130 *408:18 0
29 *391:20 *408:18 0
30 *391:22 *408:18 0
31 *391:28 *408:18 0
*RES
1 *8627:X *408:8 46.2725 
2 *408:8 *408:10 51.3611 
3 *408:10 *408:16 36.4082 
4 *408:16 *408:18 133.162 
5 *408:18 *8999:A 38 
*END

*D_NET *409 0.00265794
*CONN
*I *9000:A I *D sky130_fd_sc_hd__clkbuf_4
*I *8629:X O *D sky130_fd_sc_hd__clkbuf_1
*CAP
1 *9000:A 0
2 *8629:X 0.000233351
3 *409:14 0.000728682
4 *409:8 0.000962033
5 *409:8 *559:16 0.000174898
6 *409:14 *451:40 0.000140259
7 *409:14 *455:10 0
8 *409:14 *462:24 0.000141954
9 *409:14 *494:10 0.000113414
10 *409:14 *510:108 0.000163352
11 *321:60 *409:14 0
*RES
1 *8629:X *409:8 41.48 
2 *409:8 *409:14 30.1007 
3 *409:14 *9000:A 23 
*END

*D_NET *410 0.0196662
*CONN
*I *9001:A I *D sky130_fd_sc_hd__clkbuf_4
*I *8631:X O *D sky130_fd_sc_hd__dlymetal6s2s_1
*CAP
1 *9001:A 0.000129175
2 *8631:X 0
3 *410:8 0.00686396
4 *410:6 0.00673478
5 *9001:A *502:31 0.000704525
6 *9001:A *526:26 0.000396238
7 *410:8 *8584:B 0
8 *410:8 *430:71 0
9 *410:8 *546:8 0.00483753
10 *410:8 *552:18 0
11 *410:8 *577:10 0
12 m_rdata[22] *410:8 0
*RES
1 *8631:X *410:6 38 
2 *410:6 *410:8 157.905 
3 *410:8 *9001:A 45.7679 
*END

*D_NET *411 0.000788248
*CONN
*I *9002:A I *D sky130_fd_sc_hd__clkbuf_4
*I *8633:X O *D sky130_fd_sc_hd__clkbuf_1
*CAP
1 *9002:A 0
2 *8633:X 0.000369152
3 *411:10 0.000369152
4 *411:10 *570:20 1.76557e-05
5 *411:10 *594:14 0
6 *8633:A *411:10 3.22879e-05
*RES
1 *8633:X *411:10 44.1729 
2 *411:10 *9002:A 38 
*END

*D_NET *412 0.0427124
*CONN
*I *9003:A I *D sky130_fd_sc_hd__buf_2
*I *616:DIODE I *D sky130_fd_sc_hd__diode_2
*I *8635:X O *D sky130_fd_sc_hd__clkbuf_2
*CAP
1 *9003:A 0
2 *616:DIODE 0.00013034
3 *8635:X 5.98317e-06
4 *412:40 0.00066288
5 *412:30 0.00126859
6 *412:26 0.00108975
7 *412:18 0.00157634
8 *412:14 0.0118299
9 *412:10 0.0106133
10 *412:10 *560:8 2.33476e-05
11 *412:14 *8802:RESET_B 0.000500761
12 *412:14 *465:23 0.000433743
13 *412:14 *602:16 0.000196655
14 *412:18 *423:22 0.000201106
15 *412:18 *467:12 0
16 *412:18 *490:10 0
17 *412:18 *492:12 0.00081399
18 *412:18 *585:18 0.00315816
19 *412:26 *492:12 0.000659411
20 *412:26 *523:6 3.7122e-06
21 *412:26 *585:16 0.00044799
22 *412:26 *585:18 8.64896e-05
23 *412:30 *418:28 0.000817092
24 *412:30 *418:30 1.01065e-05
25 *412:30 *423:22 0.00240059
26 *412:30 *503:14 0.000155225
27 *412:30 *514:78 0.000222104
28 *412:40 *418:30 0.000477312
29 *412:40 *423:22 0.000253175
30 *412:40 *503:14 0.00104686
31 *412:40 *530:20 0.00104489
32 m_rdata[24] *412:40 0.000130212
33 paddr[10] *412:30 7.20154e-05
34 paddr[29] *412:14 0
35 paddr[30] *412:30 2.33476e-05
36 penable *412:14 7.82869e-05
37 psel *412:30 2.26497e-05
38 pwdata[28] *412:30 0.00012758
39 *8935:A *412:26 2.29099e-05
40 *7:13 *412:18 0.000150012
41 *11:13 *412:40 2.31209e-05
42 *23:15 *412:18 4.9808e-05
43 *77:15 *412:18 0.000183171
44 *205:13 *412:18 0.000319213
45 *298:12 *412:10 2.5343e-05
46 *321:28 *412:14 0.000116687
47 *321:30 *412:14 0.000173213
48 *389:106 *412:14 0.000630284
49 *389:117 *412:14 0.000312304
50 *408:8 *412:14 0.000122369
*RES
1 *8635:X *412:10 46.3211 
2 *412:10 *412:14 33.9877 
3 *412:14 *412:18 45.1364 
4 *412:18 *412:26 40.3468 
5 *412:26 *412:30 32.2832 
6 *412:30 *412:40 39.2461 
7 *412:40 *616:DIODE 24.5743 
8 *412:40 *9003:A 23 
*END

*D_NET *413 0.0167795
*CONN
*I *9004:A I *D sky130_fd_sc_hd__clkbuf_4
*I *8637:X O *D sky130_fd_sc_hd__buf_1
*CAP
1 *9004:A 0
2 *8637:X 7.86745e-05
3 *413:16 0.00181033
4 *413:12 0.00823317
5 *413:10 0.00642284
6 *413:8 7.86745e-05
7 *413:8 *507:25 0
8 *413:8 *509:84 0.000141888
9 *53:10 *413:16 1.39431e-05
*RES
1 *8637:X *413:8 39.9057 
2 *413:8 *413:10 15 
3 *413:10 *413:12 115.202 
4 *413:12 *413:16 28.5132 
5 *413:16 *9004:A 23 
*END

*D_NET *414 0.0236303
*CONN
*I *9005:A I *D sky130_fd_sc_hd__clkbuf_4
*I *8639:X O *D sky130_fd_sc_hd__dlymetal6s2s_1
*CAP
1 *9005:A 0
2 *8639:X 0
3 *414:16 0.000759146
4 *414:8 0.00445281
5 *414:6 0.00369367
6 *414:8 *421:10 0.000224634
7 *414:8 *464:8 6.69637e-06
8 *414:8 *505:8 0.000106527
9 *414:8 *505:10 0.00211323
10 *414:8 *512:28 0.0038668
11 *414:8 *512:32 0.000537407
12 *414:8 *512:34 0.000151817
13 *414:8 *574:10 0.00418102
14 *414:8 *600:10 0
15 *414:8 *600:14 0
16 *414:16 *9063:A 0.000359326
17 *414:16 *9086:A 9.84794e-05
18 *414:16 *464:12 0.000656368
19 *414:16 *574:6 0.00104972
20 *414:16 *610:14 0.000446364
21 m_rdata[19] *414:16 7.11496e-05
22 m_rdata[26] *414:16 0.000177909
23 *133:16 *414:16 1.94812e-05
24 *406:14 *414:16 0.000657701
*RES
1 *8639:X *414:6 38 
2 *414:6 *414:8 123.747 
3 *414:8 *414:16 45.8021 
4 *414:16 *9005:A 23 
*END

*D_NET *415 0.00141701
*CONN
*I *8658:A0 I *D sky130_fd_sc_hd__mux2_1
*I *8891:X O *D sky130_fd_sc_hd__clkbuf_1
*CAP
1 *8658:A0 0.00022176
2 *8891:X 0.000447678
3 *415:8 0.000669438
4 *8794:CLK *415:8 0
5 *314:10 *8658:A0 2.30292e-05
6 *314:10 *415:8 5.51058e-05
*RES
1 *8891:X *415:8 45.8921 
2 *415:8 *8658:A0 41.9564 
*END

*D_NET *416 0.0250991
*CONN
*I *9006:A I *D sky130_fd_sc_hd__clkbuf_4
*I *8641:X O *D sky130_fd_sc_hd__dlymetal6s2s_1
*CAP
1 *9006:A 0
2 *8641:X 4.87849e-05
3 *416:36 9.53785e-05
4 *416:30 0.00474579
5 *416:28 0.00652475
6 *416:20 0.00193954
7 *416:14 0.000588409
8 *416:12 0.00111297
9 *416:8 0.000638543
10 *416:8 *527:8 0.000183733
11 *416:12 *488:14 0
12 *416:12 *537:22 0.000297959
13 *416:12 *557:16 0.000155856
14 *416:14 *442:57 0.00010722
15 *416:14 *448:20 0.00217224
16 *416:14 *495:16 0.0032556
17 *416:14 *531:14 0.000607034
18 *416:20 *495:12 8.04817e-05
19 *416:20 *557:8 9.28078e-06
20 *416:28 *442:57 0.000163719
21 *416:28 *448:14 0.00129704
22 *416:28 *531:14 0.000268074
23 *416:28 *537:12 0.000481943
24 *416:30 *448:14 0.000165799
25 *416:30 *554:16 0
26 pwdata[24] *416:12 0
27 *8641:A *416:8 0.00014196
28 *8931:A *416:20 1.6966e-05
29 *8932:A *416:36 0
30 *8934:A *416:12 0
31 *55:10 *416:36 0
32 *56:10 *416:36 0
*RES
1 *8641:X *416:8 40.0507 
2 *416:8 *416:12 26.7657 
3 *416:12 *416:14 35.8771 
4 *416:14 *416:20 31.2014 
5 *416:20 *416:28 45.2296 
6 *416:28 *416:30 61.3661 
7 *416:30 *416:36 31.5536 
8 *416:36 *9006:A 23 
*END

*D_NET *417 0.00915666
*CONN
*I *9007:A I *D sky130_fd_sc_hd__buf_2
*I *8643:X O *D sky130_fd_sc_hd__buf_1
*CAP
1 *9007:A 0
2 *8643:X 0.000105388
3 *417:10 0.00431728
4 *417:8 0.00442266
5 *417:8 *589:12 5.47808e-05
6 *417:10 *419:14 8.26569e-05
7 *417:10 *558:8 0.000169674
8 *8932:A *417:10 4.21594e-06
*RES
1 *8643:X *417:8 39.5743 
2 *417:8 *417:10 83.955 
3 *417:10 *9007:A 38 
*END

*D_NET *418 0.0335324
*CONN
*I *9008:A I *D sky130_fd_sc_hd__buf_2
*I *8645:X O *D sky130_fd_sc_hd__clkbuf_2
*CAP
1 *9008:A 0
2 *8645:X 0.000387729
3 *418:30 0.00122702
4 *418:28 0.00201632
5 *418:24 0.0016462
6 *418:20 0.00123953
7 *418:10 0.00452435
8 *418:8 0.00452945
9 *418:8 *8580:A 0.00010018
10 *418:8 *8580:B_N 0.000196488
11 *418:8 *8883:A 0.000388071
12 *418:8 *547:30 0.000734064
13 *418:8 *612:32 8.29052e-05
14 *418:20 *8851:RESET_B 2.33744e-05
15 *418:20 *423:22 0.0002878
16 *418:20 *490:8 1.94812e-05
17 *418:20 *547:12 6.17437e-06
18 *418:24 *423:22 0.0010542
19 *418:24 *514:70 0.000834161
20 *418:28 *8884:A 0.000300108
21 *418:28 *9021:A 0.000783729
22 *418:28 *423:22 8.79667e-05
23 *418:28 *471:35 0.00047104
24 *418:28 *493:27 0.000141879
25 *418:28 *514:70 0.000319819
26 *418:28 *514:78 0.000352222
27 *418:30 *471:35 0.0046984
28 *418:30 *503:14 0.00137629
29 *418:30 *530:14 0.00201857
30 *418:30 *530:20 9.94571e-05
31 m_rdata[29] *418:30 1.27424e-05
32 paddr[0] *418:24 0.000185803
33 paddr[10] *418:28 7.46212e-05
34 paddr[30] *418:28 2.5343e-05
35 pwdata[28] *418:28 0.000130212
36 *8651:A *418:8 0.000143655
37 *8655:B1 *418:8 5.50106e-05
38 *8655:B1 *418:10 7.42621e-05
39 *3:19 *418:10 0.00032744
40 *7:13 *418:20 9.75779e-05
41 *17:13 *418:24 0.000127761
42 *275:22 *418:8 1.03836e-05
43 *394:8 *418:20 0.000219882
44 *394:25 *418:20 5.4216e-05
45 *394:25 *418:24 0.000742036
46 *412:30 *418:28 0.000817092
47 *412:30 *418:30 1.01065e-05
48 *412:40 *418:30 0.000477312
*RES
1 *8645:X *418:8 36.5057 
2 *418:8 *418:10 54.4579 
3 *418:10 *418:20 24.2696 
4 *418:20 *418:24 32.4593 
5 *418:24 *418:28 33.1636 
6 *418:28 *418:30 61.5939 
7 *418:30 *9008:A 38 
*END

*D_NET *419 0.00399419
*CONN
*I *9009:A I *D sky130_fd_sc_hd__clkbuf_4
*I *8589:X O *D sky130_fd_sc_hd__clkbuf_1
*CAP
1 *9009:A 0
2 *8589:X 0.0012032
3 *419:14 0.000554465
4 *419:6 0.00175766
5 *419:6 *601:16 0.000355528
6 *8589:A *419:6 4.06849e-05
7 *417:10 *419:14 8.26569e-05
*RES
1 *8589:X *419:6 41.2493 
2 *419:6 *419:14 40.0257 
3 *419:14 *9009:A 23 
*END

*D_NET *420 0.0141533
*CONN
*I *9010:A I *D sky130_fd_sc_hd__clkbuf_4
*I *8647:X O *D sky130_fd_sc_hd__buf_1
*CAP
1 *9010:A 0
2 *8647:X 0
3 *420:18 0.000596758
4 *420:10 0.00430985
5 *420:8 0.00567526
6 *420:4 0.00196217
7 *420:8 *469:14 0.000715128
8 *420:10 *489:65 0
9 *420:10 *571:24 0
10 *420:18 *548:22 0.000690486
11 *420:18 *551:10 0.00014196
12 *8913:A *420:18 3.22879e-05
13 *8925:A *420:18 2.93845e-05
*RES
1 *8647:X *420:4 23 
2 *420:4 *420:8 43.2543 
3 *420:8 *420:10 70.9257 
4 *420:10 *420:18 30.4321 
5 *420:18 *9010:A 23 
*END

*D_NET *421 0.0301017
*CONN
*I *9011:A I *D sky130_fd_sc_hd__clkbuf_4
*I *8649:X O *D sky130_fd_sc_hd__clkbuf_2
*CAP
1 *9011:A 0
2 *8649:X 0
3 *421:12 0.0127358
4 *421:10 0.0133873
5 *421:6 0.000651448
6 *421:10 *505:8 0.000225275
7 *421:10 *505:10 0.00127234
8 *421:10 *600:10 0.00109581
9 *421:12 *556:6 0.000509047
10 *414:8 *421:10 0.000224634
*RES
1 *8649:X *421:6 38 
2 *421:6 *421:10 42.9643 
3 *421:10 *421:12 210.726 
4 *421:12 *9011:A 23 
*END

*D_NET *422 0.00470296
*CONN
*I *9012:A I *D sky130_fd_sc_hd__clkbuf_4
*I *8591:X O *D sky130_fd_sc_hd__clkbuf_1
*CAP
1 *9012:A 0
2 *8591:X 0.00011825
3 *422:12 0.00110905
4 *422:8 0.0012273
5 *422:8 *428:18 9.63815e-05
6 *422:12 *8598:A 0.000103647
7 *422:12 *8598:B 0.00197768
8 *61:10 *422:12 1.39431e-05
9 *283:10 *422:12 5.67058e-05
*RES
1 *8591:X *422:8 40.61 
2 *422:8 *422:12 40.8721 
3 *422:12 *9012:A 23 
*END

*D_NET *423 0.0471119
*CONN
*I *9013:A I *D sky130_fd_sc_hd__clkbuf_4
*I *8593:X O *D sky130_fd_sc_hd__clkbuf_2
*CAP
1 *9013:A 0
2 *8593:X 0
3 *423:30 0.00068048
4 *423:22 0.00306642
5 *423:20 0.00428748
6 *423:14 0.00636955
7 *423:12 0.0055953
8 *423:8 0.00397151
9 *423:4 0.00284422
10 *423:8 *8850:RESET_B 1.53169e-05
11 *423:8 *487:22 0.0001164
12 *423:8 *511:44 0.000463822
13 *423:8 *511:62 3.0817e-05
14 *423:12 *8724:A1 0.000311335
15 *423:12 *8770:A1 5.50106e-05
16 *423:12 *511:44 0.000332814
17 *423:14 *8676:A0 0.000120042
18 *423:14 *8841:RESET_B 0.000308575
19 *423:14 *465:14 9.24795e-06
20 *423:14 *511:6 2.93845e-05
21 *423:14 *511:26 3.21322e-05
22 *423:20 *465:14 0.000146619
23 *423:22 *467:12 0
24 *423:22 *492:12 0.00699582
25 *423:22 *514:78 4.93677e-05
26 *423:22 *530:14 1.06693e-05
27 *423:22 *530:20 0.00152295
28 *423:30 *492:10 0.000105687
29 *423:30 *492:12 0.000273571
30 *423:30 *530:14 0.00137187
31 *423:30 *585:12 0
32 m_rdata[10] *423:22 2.05503e-05
33 paddr[0] *423:22 0.000183171
34 *8690:S *423:14 0.000198206
35 *8724:S *423:12 0.000141954
36 *8772:S *423:8 2.93747e-05
37 *8841:CLK *423:14 0.000263534
38 *8850:CLK *423:8 2.80512e-05
39 *7:13 *423:22 7.42574e-05
40 *11:13 *423:22 2.11157e-05
41 *17:13 *423:22 0.000125378
42 *205:13 *423:20 8.1796e-05
43 *205:13 *423:22 0.000136068
44 *324:8 *423:14 0.000486246
45 *324:8 *423:20 1.14154e-05
46 *331:14 *423:12 0.00042085
47 *331:14 *423:14 2.80394e-05
48 *349:10 *423:12 5.67058e-05
49 *366:32 *423:8 0.0002314
50 *374:8 *423:8 0.000984484
51 *394:8 *423:22 0.000188039
52 *412:18 *423:22 0.000201106
53 *412:30 *423:22 0.00240059
54 *412:40 *423:22 0.000253175
55 *418:20 *423:22 0.0002878
56 *418:24 *423:22 0.0010542
57 *418:28 *423:22 8.79667e-05
*RES
1 *8593:X *423:4 23 
2 *423:4 *423:8 41.8532 
3 *423:8 *423:12 23.7489 
4 *423:12 *423:14 62.5571 
5 *423:14 *423:20 48.0393 
6 *423:20 *423:22 105.612 
7 *423:22 *423:30 35.2482 
8 *423:30 *9013:A 23 
*END

*D_NET *424 0.0204718
*CONN
*I *9014:A I *D sky130_fd_sc_hd__clkbuf_4
*I *8595:X O *D sky130_fd_sc_hd__dlymetal6s2s_1
*CAP
1 *9014:A 0
2 *8595:X 2.0995e-05
3 *424:12 0.00780841
4 *424:10 0.00962151
5 *424:6 0.0018341
6 *424:6 *8697:A1 1.14154e-05
7 *424:10 *8697:A1 0.000204372
8 *424:10 *487:22 0.000612366
9 *424:12 *509:100 0
10 *424:12 *546:8 0
11 *8697:A0 *424:10 0.000140736
12 *8697:S *424:10 9.84794e-05
13 *285:42 *424:10 0.000119457
*RES
1 *8595:X *424:6 23.4971 
2 *424:6 *424:10 49.4479 
3 *424:10 *424:12 147.341 
4 *424:12 *9014:A 38 
*END

*D_NET *425 0.013989
*CONN
*I *9015:A I *D sky130_fd_sc_hd__clkbuf_4
*I *8597:X O *D sky130_fd_sc_hd__buf_1
*CAP
1 *9015:A 7.11501e-05
2 *8597:X 0.000358873
3 *425:16 0.00182017
4 *425:14 0.0027564
5 *425:8 0.00136625
6 *9015:A *502:41 2.36977e-05
7 *9015:A *502:47 0.00010655
8 *9015:A *526:24 0.000230604
9 *425:8 *8832:RESET_B 6.85412e-05
10 *425:8 *502:29 0
11 *425:8 *548:30 0
12 *425:14 *502:31 0.000585396
13 *425:14 *548:26 0.000227208
14 *425:16 *502:31 0.00457988
15 *425:16 *502:41 0.000185428
16 *425:16 *526:24 6.33508e-05
17 *425:16 *535:8 0.000489755
18 *50:8 *425:16 0.000359332
19 *68:8 *425:16 0.00035673
20 *187:8 *425:14 0.000184527
21 *282:10 *425:8 0.000155121
*RES
1 *8597:X *425:8 45.1879 
2 *425:8 *425:14 31.6025 
3 *425:14 *425:16 52.3139 
4 *425:16 *9015:A 26.3764 
*END

*D_NET *426 0.00235462
*CONN
*I *8699:A0 I *D sky130_fd_sc_hd__mux2_1
*I *8892:X O *D sky130_fd_sc_hd__clkbuf_1
*CAP
1 *8699:A0 0
2 *8892:X 0.00019635
3 *426:14 0.000846153
4 *426:8 0.0010425
5 *426:8 *548:22 6.30728e-05
6 *426:14 *444:12 0
7 *426:14 *444:27 0
8 *426:14 *521:6 8.17547e-05
9 *426:14 *551:26 0
10 *8892:A *426:8 2.30292e-05
11 *229:10 *426:14 0
12 *245:10 *426:14 0
13 *333:146 *426:14 0.000101762
*RES
1 *8892:X *426:8 41.0036 
2 *426:8 *426:14 30.5771 
3 *426:14 *8699:A0 23 
*END

*D_NET *427 0.0189866
*CONN
*I *9016:A I *D sky130_fd_sc_hd__clkbuf_4
*I *8599:X O *D sky130_fd_sc_hd__buf_1
*CAP
1 *9016:A 0.000105176
2 *8599:X 0.00025626
3 *427:18 0.00147062
4 *427:16 0.00220132
5 *427:12 0.00109213
6 *427:12 *579:10 0.000279813
7 *427:12 *611:14 0.000128401
8 *427:16 *8749:A1 0
9 *427:16 *429:18 0.000506582
10 *427:16 *452:20 0.000143014
11 *427:16 *474:29 0
12 *427:16 *506:20 0.000203827
13 *427:16 *544:12 0
14 *427:18 *429:22 0.00525711
15 *427:18 *452:20 0.00529723
16 pwdata[1] *427:16 2.33476e-05
17 *8837:CLK *427:16 0.000227497
18 *65:10 *9016:A 5.50106e-05
19 *285:124 *427:12 7.0902e-05
20 *286:12 *427:12 0.000141052
21 *386:33 *427:16 0.00151124
22 *386:33 *427:18 1.60583e-05
*RES
1 *8599:X *427:12 45.2086 
2 *427:12 *427:16 28.7618 
3 *427:16 *427:18 69.6932 
4 *427:18 *9016:A 39.5743 
*END

*D_NET *428 0.0350821
*CONN
*I *9017:A I *D sky130_fd_sc_hd__clkbuf_4
*I *8601:X O *D sky130_fd_sc_hd__clkbuf_2
*CAP
1 *9017:A 0
2 *8601:X 0.000893263
3 *428:18 0.00824916
4 *428:16 0.00824916
5 *428:14 0.00705819
6 *428:12 0.00795145
7 *428:12 *8592:A 0.000310647
8 *428:12 *430:56 0.000199764
9 *428:12 *430:67 0.000449738
10 *428:14 *430:67 0.000492016
11 *428:14 *602:16 0.000905034
12 *428:18 *430:83 0
13 *428:18 *570:8 0
14 *8591:A *428:14 0.000170538
15 *8601:A *428:12 5.67058e-05
16 *8944:A *428:18 0
17 *422:8 *428:18 9.63815e-05
*RES
1 *8601:X *428:12 40.2446 
2 *428:12 *428:14 101.386 
3 *428:14 *428:16 15 
4 *428:16 *428:18 156.144 
5 *428:18 *9017:A 38 
*END

*D_NET *429 0.0211255
*CONN
*I *9018:A I *D sky130_fd_sc_hd__clkbuf_4
*I *8604:X O *D sky130_fd_sc_hd__buf_1
*CAP
1 *9018:A 6.38418e-05
2 *8604:X 0.000470738
3 *429:22 0.00199556
4 *429:20 0.00193172
5 *429:18 0.00076913
6 *429:12 0.00123987
7 *429:12 *474:10 0.000182832
8 *429:18 *452:20 0.000358869
9 *429:18 *474:29 0
10 *429:18 *479:20 0.00180652
11 *429:18 *483:12 7.15126e-05
12 *429:22 *441:24 0.00127675
13 *429:22 *452:20 0.000352146
14 *429:22 *603:8 0.000200646
15 *8837:D *429:12 0.000591545
16 *67:10 *9018:A 5.50106e-05
17 *386:33 *429:22 0.00291609
18 *386:53 *429:22 0.00107907
19 *427:16 *429:18 0.000506582
20 *427:18 *429:22 0.00525711
*RES
1 *8604:X *429:12 47.3629 
2 *429:12 *429:18 41.0171 
3 *429:18 *429:20 15 
4 *429:20 *429:22 86.0679 
5 *429:22 *9018:A 39.0979 
*END

*D_NET *430 0.085962
*CONN
*I *8600:B I *D sky130_fd_sc_hd__and2_1
*I *8596:B I *D sky130_fd_sc_hd__and2_1
*I *9019:A I *D sky130_fd_sc_hd__clkbuf_4
*I *8594:B I *D sky130_fd_sc_hd__and2_1
*I *8584:B I *D sky130_fd_sc_hd__and2_1
*I *8590:B I *D sky130_fd_sc_hd__and2_1
*I *8598:B I *D sky130_fd_sc_hd__and2_1
*I *8592:B I *D sky130_fd_sc_hd__and2_1
*I *8586:B I *D sky130_fd_sc_hd__and2_1
*I *8588:B I *D sky130_fd_sc_hd__and2_1
*I *8583:X O *D sky130_fd_sc_hd__clkbuf_8
*CAP
1 *8600:B 5.4077e-06
2 *8596:B 1.93844e-05
3 *9019:A 0
4 *8594:B 0
5 *8584:B 0.000497999
6 *8590:B 0
7 *8598:B 0.000929725
8 *8592:B 0
9 *8586:B 0
10 *8588:B 0
11 *8583:X 0.000274669
12 *430:151 0.000156558
13 *430:145 0.00234622
14 *430:143 0.00285483
15 *430:135 0.00102974
16 *430:125 0.00377017
17 *430:123 0.00451638
18 *430:83 0.00138315
19 *430:77 0.00300649
20 *430:75 0.00426826
21 *430:71 0.00203309
22 *430:67 0.00140751
23 *430:56 0.000750875
24 *430:54 0.000340665
25 *430:44 0.0013114
26 *430:42 0.000249398
27 *430:33 0.0013582
28 *430:27 0.00156358
29 *430:25 0.00487944
30 *430:23 0.00487944
31 *430:16 0.00229496
32 *430:12 0.00229496
33 *430:10 0.00190597
34 *430:8 0.00218064
35 *8584:B *577:10 0
36 *8596:B *608:26 6.26126e-05
37 *430:16 *601:16 4.37033e-05
38 *430:25 *607:20 0.0010057
39 *430:33 *8818:RESET_B 0.000380333
40 *430:33 *450:10 0.000105165
41 *430:33 *510:36 0.000155428
42 *430:33 *557:20 0.00301625
43 *430:33 *607:28 0
44 *430:42 *557:20 0.000158437
45 *430:42 *607:28 0
46 *430:54 *602:16 1.21972e-05
47 *430:54 *607:28 4.14029e-05
48 *430:56 *602:16 0.000227985
49 *430:56 *607:28 9.41704e-05
50 *430:67 *8592:A 0.000310647
51 *430:67 *602:16 0.00241767
52 *430:71 *577:10 0
53 *430:77 *8590:A 0.00044458
54 *430:123 *8842:RESET_B 0
55 *430:123 *487:10 0
56 *430:123 *508:10 0
57 *430:123 *508:25 0.000192087
58 *430:123 *509:149 0
59 *430:123 *511:72 0
60 *430:123 *557:20 0.000114173
61 *430:123 *607:28 7.30392e-06
62 *430:125 *8695:A1 6.57551e-05
63 *430:125 *8713:A0 0
64 *430:125 *441:8 0.000182158
65 *430:125 *509:149 0
66 *430:125 *578:10 1.14452e-05
67 *430:125 *578:12 0.00362805
68 *430:135 *8739:A1 0.000242596
69 *430:135 *8832:RESET_B 0
70 *430:135 *480:22 2.60152e-05
71 *430:135 *502:10 3.23508e-05
72 *430:135 *502:29 3.93703e-05
73 *430:135 *578:10 0.000195331
74 *430:143 *8880:A 9.84794e-05
75 *430:143 *482:25 0.000270682
76 *430:143 *587:12 0.00139974
77 *430:143 *608:26 6.09892e-05
78 m_ready *430:151 0
79 *8601:A *430:56 0.000226295
80 *8815:CLK *430:125 0.000165593
81 *231:10 *430:123 0
82 *275:34 *430:8 0
83 *275:34 *430:10 0
84 *279:8 *430:83 0.000177914
85 *281:12 *430:54 0
86 *281:12 *430:123 5.87192e-05
87 *282:10 *430:143 0.000149249
88 *284:14 *8600:B 2.33476e-05
89 *284:14 *430:42 1.05441e-05
90 *296:14 *430:10 0.00163094
91 *296:29 *430:10 0.000303726
92 *296:29 *430:25 0.000392915
93 *296:40 *430:25 0.00218397
94 *296:42 *430:25 0.000314364
95 *296:44 *430:75 0.000839247
96 *296:55 *430:33 0
97 *296:57 *430:33 9.52414e-06
98 *296:96 *430:33 0
99 *296:118 *430:123 0
100 *296:120 *430:123 8.34165e-05
101 *296:120 *430:125 0.00282352
102 *296:131 *430:125 0.0017599
103 *296:131 *430:135 0.000164548
104 *300:10 *430:71 0
105 *300:10 *430:75 0.00023032
106 *303:8 *430:125 8.85189e-05
107 *304:6 *430:25 0.000176484
108 *321:12 *430:8 1.05441e-05
109 *355:81 *430:125 0.000535169
110 *363:8 *430:125 0.000169683
111 *385:54 *430:123 0.000275482
112 *388:117 *430:123 0.000163643
113 *388:130 *430:123 1.5037e-05
114 *388:130 *430:125 2.5343e-05
115 *390:52 *430:135 0.000345295
116 *398:10 *430:151 0
117 *401:14 *430:143 0.000120217
118 *401:14 *430:145 0.00181743
119 *410:8 *8584:B 0
120 *410:8 *430:71 0
121 *422:12 *8598:B 0.00197768
122 *428:12 *430:56 0.000199764
123 *428:12 *430:67 0.000449738
124 *428:14 *430:67 0.000492016
125 *428:18 *430:83 0
*RES
1 *8583:X *430:8 42.3707 
2 *430:8 *430:10 45.9236 
3 *430:10 *430:12 15 
4 *430:12 *430:16 42.0914 
5 *430:16 *8588:B 23 
6 *430:8 *430:23 15 
7 *430:23 *430:25 74.9443 
8 *430:25 *430:27 15 
9 *430:27 *430:33 41.4079 
10 *430:33 *8586:B 38 
11 *430:27 *430:42 4.54679 
12 *430:42 *430:44 0.621429 
13 *430:44 *430:54 18.0139 
14 *430:54 *430:56 5.86214 
15 *430:56 *8592:B 23 
16 *430:56 *430:67 42.3221 
17 *430:67 *430:71 20.7793 
18 *430:71 *430:75 36.6125 
19 *430:75 *430:77 48.9789 
20 *430:77 *430:83 38.9486 
21 *430:83 *8598:B 47.9193 
22 *430:77 *8590:B 23 
23 *430:67 *8584:B 46.7207 
24 *430:54 *8594:B 23 
25 *430:44 *430:123 21.7293 
26 *430:123 *430:125 124.369 
27 *430:125 *430:135 24.5389 
28 *430:135 *430:143 20.8075 
29 *430:143 *430:145 35.6389 
30 *430:145 *430:151 32.2579 
31 *430:151 *9019:A 23 
32 *430:135 *8596:B 24.1186 
33 *430:42 *8600:B 38.3211 
*END

*D_NET *431 0.00609584
*CONN
*I *9020:A I *D sky130_fd_sc_hd__clkbuf_4
*I *8656:A1 I *D sky130_fd_sc_hd__mux2_1
*I *8793:Q O *D sky130_fd_sc_hd__dfrtp_1
*CAP
1 *9020:A 0
2 *8656:A1 0
3 *8793:Q 0
4 *431:23 0.00119715
5 *431:14 0.000438122
6 *431:4 0.00163527
7 *431:14 *8793:RESET_B 6.24895e-05
8 *431:14 *514:55 1.98065e-05
9 *431:14 *539:12 0
10 *431:23 *8793:RESET_B 0.00209932
11 *431:23 *514:32 0.000465438
12 *285:165 *431:14 1.01436e-05
13 *313:8 *431:14 0
14 *391:37 *431:14 2.93747e-05
15 *391:39 *431:14 0.000138727
*RES
1 *8793:Q *431:4 23 
2 *431:4 *431:14 37.1879 
3 *431:14 *8656:A1 23 
4 *431:4 *431:23 32.5629 
5 *431:23 *9020:A 23 
*END

*D_NET *432 0.00327721
*CONN
*I *9021:A I *D sky130_fd_sc_hd__buf_2
*I *8884:A I *D sky130_fd_sc_hd__dlygate4sd3_1
*I *8803:Q O *D sky130_fd_sc_hd__dfrtp_1
*CAP
1 *9021:A 0.000210673
2 *8884:A 0.000170957
3 *8803:Q 0.000104427
4 *432:8 0.000486058
5 *8884:A *471:35 0.000302339
6 *8884:A *523:6 0.000137651
7 *9021:A *471:35 0.000774515
8 *432:8 *514:78 6.74969e-06
9 *418:28 *8884:A 0.000300108
10 *418:28 *9021:A 0.000783729
*RES
1 *8803:Q *432:8 39.0979 
2 *432:8 *8884:A 43.5929 
3 *432:8 *9021:A 48.3571 
*END

*D_NET *433 0.0250362
*CONN
*I *9022:A I *D sky130_fd_sc_hd__clkbuf_4
*I *8680:A1 I *D sky130_fd_sc_hd__mux2_1
*I *8804:Q O *D sky130_fd_sc_hd__dfrtp_4
*CAP
1 *9022:A 0
2 *8680:A1 0.000244919
3 *8804:Q 0
4 *433:23 0.0116489
5 *433:21 0.0117877
6 *433:6 0.000383739
7 *8680:A1 *8801:RESET_B 0.000138185
8 *8680:A1 *439:8 0.000155417
9 *8680:A1 *511:110 1.83667e-05
10 *8680:A1 *536:14 0.000223692
11 *433:21 *439:8 0.000210934
12 *433:21 *511:110 0.000204858
13 *105:12 *433:23 1.94693e-05
*RES
1 *8804:Q *433:6 38 
2 *433:6 *8680:A1 44.5457 
3 *433:6 *433:21 20.4271 
4 *433:21 *433:23 203.58 
5 *433:23 *9022:A 23 
*END

*D_NET *434 0.0355694
*CONN
*I *9023:A I *D sky130_fd_sc_hd__clkbuf_4
*I *8682:A1 I *D sky130_fd_sc_hd__mux2_1
*I *8805:Q O *D sky130_fd_sc_hd__dfrtp_4
*CAP
1 *9023:A 0
2 *8682:A1 0.000267929
3 *8805:Q 0.000299188
4 *434:29 0.00717023
5 *434:27 0.00719372
6 *434:25 0.00348705
7 *434:23 0.00346357
8 *434:21 0.00352246
9 *434:8 0.00408957
10 *8682:A1 *453:35 6.07611e-06
11 *8682:A1 *454:25 0
12 *8682:A1 *547:30 5.50106e-05
13 *8682:A1 *597:12 5.76076e-05
14 *434:8 *437:34 0.000386978
15 *434:21 *454:25 0
16 *434:21 *471:29 0
17 *434:21 *486:21 0
18 *434:21 *597:12 0.00211478
19 *434:25 *596:12 0.00258695
20 *8636:B *434:25 5.50049e-05
21 *106:12 *434:29 1.94812e-05
22 *221:8 *434:21 0.000114092
23 *311:48 *8682:A1 0.000216776
24 *327:10 *8682:A1 0.000240811
25 *327:10 *434:21 0.000222123
*RES
1 *8805:Q *434:8 45.2914 
2 *434:8 *8682:A1 45.5193 
3 *434:8 *434:21 85.3636 
4 *434:21 *434:23 15 
5 *434:23 *434:25 68.5125 
6 *434:25 *434:27 0.497143 
7 *434:27 *434:29 128.066 
8 *434:29 *9023:A 23 
*END

*D_NET *435 0.0339103
*CONN
*I *8684:A1 I *D sky130_fd_sc_hd__mux2_1
*I *9024:A I *D sky130_fd_sc_hd__clkbuf_4
*I *8806:Q O *D sky130_fd_sc_hd__dfrtp_2
*CAP
1 *8684:A1 0
2 *9024:A 0
3 *8806:Q 0.000150202
4 *435:36 0.000708471
5 *435:28 0.0112731
6 *435:26 0.0106675
7 *435:20 0.00265859
8 *435:12 0.00255569
9 *435:10 0.000150202
10 *435:10 *565:14 3.82058e-06
11 *435:20 *8827:RESET_B 0.000179603
12 *435:20 *439:24 0.000632108
13 *435:20 *457:12 0.000180621
14 *435:20 *457:23 0.00023032
15 *435:20 *495:8 0.000228909
16 *435:26 *448:22 0
17 *435:26 *476:8 0.000135557
18 *435:28 *484:22 0.0002498
19 *435:28 *485:14 1.94693e-05
20 *435:28 *485:24 5.93567e-05
21 *435:28 *537:22 1.60381e-05
22 *435:28 *554:28 0.000387169
23 *435:36 *8858:A 0.000838502
24 *435:36 *439:26 0.000102955
25 *8670:S *435:28 6.16164e-05
26 *8684:S *435:10 0.000139647
27 *8768:S *435:28 0.000585247
28 *8769:A *435:28 5.41385e-05
29 *8785:A *435:28 0.000266457
30 *8824:D *435:20 9.04105e-06
31 *8827:CLK *435:20 0.000353431
32 *107:10 *435:36 5.67058e-05
33 *262:12 *435:28 5.72217e-05
34 *270:12 *435:28 5.72217e-05
35 *328:10 *435:20 0.00010655
36 *384:52 *435:28 0.000734988
*RES
1 *8806:Q *435:10 40.5271 
2 *435:10 *435:12 15 
3 *435:12 *435:20 45.6957 
4 *435:20 *435:26 31.9057 
5 *435:26 *435:28 144.026 
6 *435:28 *435:36 45.515 
7 *435:36 *9024:A 23 
8 *435:12 *8684:A1 23 
*END

*D_NET *436 0.0120637
*CONN
*I *8686:A1 I *D sky130_fd_sc_hd__mux2_1
*I *9025:A I *D sky130_fd_sc_hd__buf_2
*I *8807:Q O *D sky130_fd_sc_hd__dfrtp_1
*CAP
1 *8686:A1 0.000554433
2 *9025:A 0.000135185
3 *8807:Q 9.01449e-05
4 *436:10 0.00182061
5 *436:8 0.00233001
6 *8686:A1 *440:23 0
7 *8686:A1 *465:25 0.000334225
8 *436:10 *440:23 0
9 *436:10 *440:27 0.000632568
10 *436:10 *465:25 0.00485269
11 *436:10 *589:8 0.000141888
12 *436:10 *607:10 0.000965661
13 paddr[14] *436:10 8.22421e-06
14 pwdata[26] *436:10 1.05658e-05
15 *81:15 *436:10 7.7588e-05
16 *84:15 *436:10 7.7588e-05
17 *322:107 *8686:A1 3.22879e-05
*RES
1 *8807:Q *436:8 39.0979 
2 *436:8 *436:10 63.8829 
3 *436:10 *9025:A 40.0507 
4 *436:8 *8686:A1 48.7093 
*END

*D_NET *437 0.0314009
*CONN
*I *8701:A0 I *D sky130_fd_sc_hd__mux2_1
*I *8893:X O *D sky130_fd_sc_hd__dlymetal6s2s_1
*CAP
1 *8701:A0 0.00014735
2 *8893:X 0
3 *437:46 0.00322205
4 *437:34 0.00546519
5 *437:22 0.00463389
6 *437:18 0.00324545
7 *437:14 0.00198489
8 *437:6 0.000982838
9 *437:14 *8851:RESET_B 5.20202e-05
10 *437:14 *516:18 0.000213551
11 *437:14 *561:12 0
12 *437:14 *568:22 0.001832
13 *437:18 *547:16 0.00222804
14 *437:22 *469:8 5.67058e-05
15 *437:22 *547:16 0.000561495
16 *437:22 *547:22 0.00219359
17 *437:34 *8578:A 9.84851e-05
18 *437:34 *8578:B_N 2.32101e-05
19 *437:34 *8582:B 5.50106e-05
20 *437:34 *8758:A1 7.1349e-05
21 *437:34 *568:24 0.000382164
22 *437:34 *612:32 6.16164e-05
23 *437:34 *613:29 0.000310647
24 *437:34 *614:35 0.000398503
25 *437:46 *8790:RESET_B 8.50385e-05
26 *437:46 *8828:RESET_B 5.40024e-05
27 *437:46 *498:6 2.4754e-05
28 *437:46 *498:10 0.000209496
29 *437:46 *507:12 0.000208955
30 *8581:A *437:34 1.41077e-05
31 *8581:B *437:22 3.28867e-05
32 *8581:B *437:34 1.32314e-05
33 *8701:S *8701:A0 6.5896e-05
34 *8704:A *437:46 0.000274236
35 *8790:D *8701:A0 0.000205616
36 *8790:D *437:46 5.70419e-05
37 *8805:D *437:34 3.87132e-05
38 *3:19 *437:18 0.000138119
39 *3:19 *437:46 0.000111283
40 *228:10 *437:46 9.41704e-05
41 *231:10 *437:46 2.93845e-05
42 *237:10 *437:34 0.000139352
43 *321:126 *437:34 4.94192e-05
44 *345:8 *437:34 0.000136799
45 *345:8 *437:46 7.73854e-05
46 *346:16 *437:34 3.98818e-05
47 *366:151 *437:34 0.00014196
48 *368:10 *437:46 0.000191633
49 *385:93 *8701:A0 5.50106e-05
50 *385:93 *437:46 0.000165908
51 *388:80 *437:46 1.18874e-05
52 *388:90 *437:46 0.00012768
53 *434:8 *437:34 0.000386978
*RES
1 *8893:X *437:6 38 
2 *437:6 *437:14 41.6179 
3 *437:14 *437:18 24.94 
4 *437:18 *437:22 37.3271 
5 *437:22 *437:34 45.2814 
6 *437:34 *437:46 49.5693 
7 *437:46 *8701:A0 26.9979 
*END

*D_NET *438 0.0148643
*CONN
*I *9026:A I *D sky130_fd_sc_hd__clkbuf_4
*I *8688:A1 I *D sky130_fd_sc_hd__mux2_1
*I *8808:Q O *D sky130_fd_sc_hd__dfrtp_1
*CAP
1 *9026:A 0.00123393
2 *8688:A1 0.000254474
3 *8808:Q 6.04623e-05
4 *438:25 0.00171704
5 *438:19 0.00563208
6 *438:10 0.00540344
7 *438:8 6.04623e-05
8 *438:8 *439:8 0.000223805
9 *109:12 *9026:A 5.47927e-05
10 *403:10 *438:8 0.000223805
*RES
1 *8808:Q *438:8 40.9621 
2 *438:8 *438:10 15 
3 *438:10 *8688:A1 26.0036 
4 *438:10 *438:19 67.3214 
5 *438:19 *438:25 39.6529 
6 *438:25 *9026:A 45.5371 
*END

*D_NET *439 0.0518729
*CONN
*I *8690:A1 I *D sky130_fd_sc_hd__mux2_1
*I *9027:A I *D sky130_fd_sc_hd__clkbuf_4
*I *8809:Q O *D sky130_fd_sc_hd__dfrtp_4
*CAP
1 *8690:A1 0.000202283
2 *9027:A 0
3 *8809:Q 0
4 *439:34 0.000196833
5 *439:26 0.0107648
6 *439:24 0.011073
7 *439:20 0.000600601
8 *439:14 0.00173527
9 *439:8 0.00743965
10 *439:6 0.00600221
11 *8690:A1 *8847:RESET_B 0
12 *8690:A1 *511:26 2.29192e-05
13 *8690:A1 *512:28 0
14 *439:8 *8801:RESET_B 0
15 *439:8 *440:12 0.000111138
16 *439:8 *464:8 0
17 *439:8 *464:23 0
18 *439:8 *511:110 0
19 *439:8 *512:28 0
20 *439:8 *558:20 0.000136486
21 *439:14 *472:28 0.000148524
22 *439:14 *472:30 0.000304579
23 *439:14 *558:12 2.30292e-05
24 *439:14 *576:22 0.000125621
25 *439:20 *472:14 3.07161e-05
26 *439:20 *498:12 0.000246391
27 *439:24 *8845:RESET_B 0.00201781
28 *439:26 *8845:RESET_B 5.73151e-05
29 *439:26 *8858:A 0.000840522
30 *439:26 *510:118 0.000239999
31 *439:34 *468:8 0
32 *8680:A1 *439:8 0.000155417
33 *8690:S *8690:A1 3.71369e-05
34 *8827:CLK *439:24 4.96207e-05
35 *8845:CLK *439:26 0.000616533
36 *8845:D *439:24 0
37 *8845:D *439:26 0.000302574
38 *8854:CLK *439:26 0.000850491
39 *107:10 *439:34 0
40 *240:10 *439:14 0.00052972
41 *243:10 *439:14 1.02949e-05
42 *243:10 *439:20 0.000110913
43 *322:14 *439:8 0
44 *322:52 *439:8 0
45 *322:63 *8690:A1 0
46 *322:63 *439:8 0
47 *344:155 *439:14 0.000173278
48 *384:33 *439:26 0.00153054
49 *384:40 *439:26 0.00127337
50 *403:10 *439:8 0.00273037
51 *406:8 *439:26 1.3109e-05
52 *433:21 *439:8 0.000210934
53 *435:20 *439:24 0.000632108
54 *435:36 *439:26 0.000102955
55 *438:8 *439:8 0.000223805
*RES
1 *8809:Q *439:6 38 
2 *439:6 *439:8 129.734 
3 *439:8 *439:14 41.245 
4 *439:14 *439:20 33.3143 
5 *439:20 *439:24 23.6143 
6 *439:24 *439:26 156.414 
7 *439:26 *439:34 33.4593 
8 *439:34 *9027:A 23 
9 *439:6 *8690:A1 41.3557 
*END

*D_NET *440 0.032845
*CONN
*I *9028:A I *D sky130_fd_sc_hd__buf_2
*I *8692:A1 I *D sky130_fd_sc_hd__mux2_1
*I *8810:Q O *D sky130_fd_sc_hd__dfrtp_2
*CAP
1 *9028:A 0
2 *8692:A1 0
3 *8810:Q 0
4 *440:33 0.000632745
5 *440:27 0.00238008
6 *440:25 0.00177709
7 *440:23 0.00168708
8 *440:21 0.00165732
9 *440:19 0.005611
10 *440:12 0.000744223
11 *440:4 0.00635522
12 *440:12 *512:28 0
13 *440:19 *454:31 6.65155e-05
14 *440:19 *454:33 0.00316543
15 *440:23 *465:25 0
16 *440:23 *490:10 0.00402816
17 *440:23 *607:10 0.000689377
18 *440:27 *465:25 0
19 *440:27 *490:10 0.000468425
20 *440:27 *490:16 0.000991257
21 *440:27 *607:10 0.000784444
22 *440:33 *465:25 0
23 paddr[14] *440:27 0.000105578
24 paddr[28] *440:27 2.74987e-05
25 paddr[29] *440:23 3.34756e-05
26 pwdata[26] *440:27 2.5343e-05
27 *8686:A1 *440:23 0
28 *78:17 *440:23 8.62073e-06
29 *84:15 *440:27 4.22446e-05
30 *109:12 *440:27 0
31 *321:20 *440:12 0.000596527
32 *321:28 *440:12 0.000223698
33 *436:10 *440:23 0
34 *436:10 *440:27 0.000632568
35 *439:8 *440:12 0.000111138
*RES
1 *8810:Q *440:4 23 
2 *440:4 *440:12 42.1593 
3 *440:12 *8692:A1 23 
4 *440:4 *440:19 88.7607 
5 *440:19 *440:21 15 
6 *440:21 *440:23 52.9561 
7 *440:23 *440:25 0.621429 
8 *440:25 *440:27 50.17 
9 *440:27 *440:33 27.7289 
10 *440:33 *9028:A 23 
*END

*D_NET *441 0.0372451
*CONN
*I *8695:A1 I *D sky130_fd_sc_hd__mux2_1
*I *9029:A I *D sky130_fd_sc_hd__clkbuf_4
*I *8811:Q O *D sky130_fd_sc_hd__dfrtp_4
*CAP
1 *8695:A1 0.000475886
2 *9029:A 0
3 *8811:Q 0.000188866
4 *441:24 0.00481074
5 *441:22 0.00481074
6 *441:20 0.00739461
7 *441:18 0.00881413
8 *441:8 0.00208428
9 *8695:A1 *509:6 9.84851e-05
10 *8695:A1 *509:10 0.000140259
11 *8695:A1 *509:149 3.66893e-05
12 *441:8 *509:149 0.000120446
13 *441:18 *509:10 1.46214e-05
14 *441:24 *603:8 0
15 *8695:A0 *8695:A1 3.22879e-05
16 *8756:A *441:18 5.41385e-05
17 *8870:A *441:18 1.14154e-05
18 *8907:A *441:24 0.000152241
19 *20:13 *441:24 0
20 *24:13 *441:24 0
21 *53:10 *441:24 0
22 *65:10 *441:24 0
23 *67:10 *441:24 0
24 *98:13 *441:24 0
25 *112:10 *441:24 0
26 *119:10 *441:24 0
27 *176:10 *441:24 0
28 *333:118 *8695:A1 1.41077e-05
29 *386:33 *441:24 0.00379506
30 *386:53 *441:24 0.00106762
31 *394:27 *8695:A1 7.57176e-05
32 *394:27 *441:18 0.00039238
33 *398:6 *441:20 0.00113576
34 *429:22 *441:24 0.00127675
35 *430:125 *8695:A1 6.57551e-05
36 *430:125 *441:8 0.000182158
*RES
1 *8811:Q *441:8 43.075 
2 *441:8 *441:18 36.7604 
3 *441:18 *441:20 128.066 
4 *441:20 *441:22 15 
5 *441:22 *441:24 118.113 
6 *441:24 *9029:A 38 
7 *441:8 *8695:A1 46.2443 
*END

*D_NET *442 0.032833
*CONN
*I *9030:A I *D sky130_fd_sc_hd__clkbuf_4
*I *8697:A1 I *D sky130_fd_sc_hd__mux2_1
*I *8812:Q O *D sky130_fd_sc_hd__dfrtp_2
*CAP
1 *9030:A 0
2 *8697:A1 0.000572817
3 *8812:Q 0
4 *442:57 0.00304371
5 *442:47 0.00690581
6 *442:45 0.00448841
7 *442:41 0.00120253
8 *442:4 0.00114903
9 *8697:A1 *8812:RESET_B 7.51159e-05
10 *8697:A1 *487:22 0.000180092
11 *442:41 *511:72 0.000339893
12 *442:41 *560:8 7.35344e-05
13 *442:45 *560:8 0.000563592
14 *442:47 *476:8 0
15 *442:47 *560:8 0.00767441
16 *442:47 *610:16 0
17 *442:57 *448:20 0.000234204
18 *442:57 *531:14 0.000398836
19 *442:57 *537:12 0.000216853
20 *442:57 *557:12 0.000390562
21 *442:57 *610:14 0.00158971
22 m_rdata[17] *442:57 0
23 *8595:A *8697:A1 0.000430442
24 *8697:S *8697:A1 5.50049e-05
25 *8934:A *442:47 8.18453e-05
26 *113:12 *442:57 3.40395e-05
27 *228:18 *8697:A1 0.000485162
28 *266:10 *442:41 5.56203e-05
29 *298:12 *442:41 0.000234939
30 *302:10 *442:41 0.000114083
31 *335:6 *8697:A1 0.000292653
32 *366:43 *442:41 0.00062449
33 *366:43 *442:45 0.00083886
34 *366:43 *442:47 0
35 *366:47 *442:47 0
36 *371:8 *442:47 0
37 *416:14 *442:57 0.00010722
38 *416:28 *442:57 0.000163719
39 *424:6 *8697:A1 1.14154e-05
40 *424:10 *8697:A1 0.000204372
*RES
1 *8812:Q *442:4 23 
2 *442:4 *8697:A1 42.43 
3 *442:4 *442:41 30.9396 
4 *442:41 *442:45 22.6821 
5 *442:45 *442:47 104.276 
6 *442:47 *442:57 41.381 
7 *442:57 *9030:A 23 
*END

*D_NET *443 0.00155372
*CONN
*I *8881:A I *D sky130_fd_sc_hd__dlygate4sd3_1
*I *9031:A I *D sky130_fd_sc_hd__clkbuf_4
*I *8794:Q O *D sky130_fd_sc_hd__dfrtp_1
*CAP
1 *8881:A 6.53388e-05
2 *9031:A 0
3 *8794:Q 0
4 *443:12 0.000596731
5 *443:4 0.000662069
6 *8881:A *570:20 5.50106e-05
7 *443:12 *8794:RESET_B 7.51159e-05
8 *443:12 *460:12 0
9 *443:12 *570:20 9.94504e-05
*RES
1 *8794:Q *443:4 23 
2 *443:4 *443:12 39.5079 
3 *443:12 *9031:A 23 
4 *443:4 *8881:A 24.4707 
*END

*D_NET *444 0.00310759
*CONN
*I *9032:A I *D sky130_fd_sc_hd__clkbuf_4
*I *8882:A I *D sky130_fd_sc_hd__dlygate4sd3_1
*I *8813:Q O *D sky130_fd_sc_hd__dfrtp_1
*CAP
1 *9032:A 0
2 *8882:A 0
3 *8813:Q 0
4 *444:27 0.000752688
5 *444:12 0.000203739
6 *444:4 0.000956427
7 *444:12 *521:6 5.83407e-05
8 *444:12 *526:34 0
9 *444:27 *526:32 0.00086405
10 *444:27 *526:34 2.97759e-06
11 *444:27 *548:22 0.000182826
12 *444:27 *551:26 0
13 *390:44 *444:27 8.65442e-05
14 *426:14 *444:12 0
15 *426:14 *444:27 0
*RES
1 *8813:Q *444:4 23 
2 *444:4 *444:12 34.1843 
3 *444:12 *8882:A 23 
4 *444:4 *444:27 46.3436 
5 *444:27 *9032:A 23 
*END

*D_NET *445 0.0357654
*CONN
*I *8701:A1 I *D sky130_fd_sc_hd__mux2_1
*I *9033:A I *D sky130_fd_sc_hd__clkbuf_4
*I *8814:Q O *D sky130_fd_sc_hd__dfrtp_4
*CAP
1 *8701:A1 0
2 *9033:A 2.34823e-05
3 *8814:Q 0.00121467
4 *445:30 0.00417258
5 *445:28 0.00418921
6 *445:26 0.00312669
7 *445:24 0.00308657
8 *445:22 0.00358315
9 *445:20 0.00445987
10 *445:16 0.00104971
11 *445:10 0.00138766
12 *445:10 *508:10 0.000276396
13 *445:10 *508:25 0.000221386
14 *445:10 *509:149 0
15 *445:16 *477:18 6.24182e-05
16 *445:20 *477:18 0.000975631
17 *445:20 *477:20 0
18 *445:20 *606:14 0.000159813
19 *445:22 *606:14 0.00357186
20 *8787:A *445:30 0.000284634
21 *8814:CLK *445:10 9.41704e-05
22 *230:10 *445:10 0.000181811
23 *271:10 *445:30 5.83407e-05
24 *333:54 *445:20 0
25 *339:8 *445:22 8.85189e-05
26 *355:8 *445:20 0
27 *355:60 *445:20 0
28 *384:14 *445:26 0.00256962
29 *385:93 *445:16 1.14977e-05
30 *385:93 *445:20 0
31 *385:101 *445:10 1.59094e-05
32 *385:101 *445:16 0.000136486
33 *402:10 *445:20 0.00076335
34 *402:12 *445:22 0
*RES
1 *8814:Q *445:10 41.2907 
2 *445:10 *445:16 18.3557 
3 *445:16 *445:20 21.1596 
4 *445:20 *445:22 91.7332 
5 *445:22 *445:24 15 
6 *445:24 *445:26 59.4604 
7 *445:26 *445:28 0.849286 
8 *445:28 *445:30 78.0411 
9 *445:30 *9033:A 23.4971 
10 *445:16 *8701:A1 38 
*END

*D_NET *446 0.0179701
*CONN
*I *9034:A I *D sky130_fd_sc_hd__clkbuf_4
*I *8703:A1 I *D sky130_fd_sc_hd__mux2_1
*I *8815:Q O *D sky130_fd_sc_hd__dfrtp_1
*CAP
1 *9034:A 3.08984e-05
2 *8703:A1 0.000348907
3 *8815:Q 0.000102222
4 *446:23 0.00528116
5 *446:8 0.00570139
6 *8703:A1 *8839:RESET_B 0.000166513
7 *8703:A1 *492:34 0.00028441
8 *9034:A *548:26 7.88828e-05
9 *446:8 *8815:RESET_B 1.05235e-05
10 *446:8 *513:52 1.05235e-05
11 *446:23 *480:8 5.21127e-05
12 *446:23 *514:163 3.97502e-05
13 *446:23 *573:8 0.000139644
14 *8839:D *8703:A1 6.9805e-05
15 *117:8 *9034:A 0.000141954
16 *231:10 *8703:A1 0
17 *333:118 *446:23 0
18 *333:135 *8703:A1 0.000438474
19 *333:142 *446:23 0
20 *334:8 *446:23 0
21 *366:99 *8703:A1 5.55278e-05
22 *366:99 *446:23 0.00464783
23 *366:107 *446:23 0.000236229
24 *366:113 *446:23 0.000133316
25 *369:10 *446:23 0
*RES
1 *8815:Q *446:8 39.0979 
2 *446:8 *8703:A1 48.5021 
3 *446:8 *446:23 131.846 
4 *446:23 *9034:A 39.5743 
*END

*D_NET *447 0.0259903
*CONN
*I *9035:A I *D sky130_fd_sc_hd__clkbuf_4
*I *8705:A1 I *D sky130_fd_sc_hd__mux2_1
*I *8816:Q O *D sky130_fd_sc_hd__dfrtp_4
*CAP
1 *9035:A 0
2 *8705:A1 0.00103362
3 *8816:Q 0
4 *447:23 0.00520943
5 *447:21 0.00520943
6 *447:19 0.0062898
7 *447:17 0.00659331
8 *447:4 0.00133713
9 *8705:A1 *8816:RESET_B 2.33744e-05
10 *8705:A1 *510:20 9.50411e-05
11 *447:23 *583:12 0
12 *8816:CLK *8705:A1 0.000139352
13 *8978:A *447:23 4.77164e-06
14 *385:14 *8705:A1 5.50049e-05
*RES
1 *8816:Q *447:4 23 
2 *447:4 *8705:A1 36.0293 
3 *447:4 *447:17 5.04393 
4 *447:17 *447:19 109.485 
5 *447:19 *447:21 15 
6 *447:21 *447:23 98.745 
7 *447:23 *9035:A 38 
*END

*D_NET *448 0.0310829
*CONN
*I *8703:A0 I *D sky130_fd_sc_hd__mux2_1
*I *8894:X O *D sky130_fd_sc_hd__clkbuf_2
*CAP
1 *8703:A0 0
2 *8894:X 9.21426e-05
3 *448:22 0.00807735
4 *448:20 0.00848007
5 *448:14 0.00169273
6 *448:12 0.00136339
7 *448:8 0.000165525
8 *448:14 *531:14 7.06229e-05
9 *448:14 *554:16 0.00341036
10 *448:14 *554:18 0.00108373
11 *448:20 *495:16 2.18409e-05
12 *448:20 *531:14 0.00225399
13 *448:20 *554:18 9.24795e-06
14 *448:22 *461:29 0.000158357
15 *448:22 *476:8 0
16 *448:22 *489:8 0
17 *448:22 *489:23 0
18 *448:22 *554:28 0
19 *8894:A *448:8 3.46181e-05
20 *8954:A *448:22 8.72486e-05
21 *311:62 *448:22 0
22 *335:12 *448:22 0
23 *364:14 *448:22 0.00021234
24 *416:14 *448:20 0.00217224
25 *416:28 *448:14 0.00129704
26 *416:30 *448:14 0.000165799
27 *435:26 *448:22 0
28 *442:57 *448:20 0.000234204
*RES
1 *8894:X *448:8 39.5536 
2 *448:8 *448:12 16.5536 
3 *448:12 *448:14 58.7457 
4 *448:14 *448:20 40.7686 
5 *448:20 *448:22 152.623 
6 *448:22 *8703:A0 38 
*END

*D_NET *449 0.00878484
*CONN
*I *8707:A1 I *D sky130_fd_sc_hd__mux2_1
*I *9036:A I *D sky130_fd_sc_hd__clkbuf_4
*I *8817:Q O *D sky130_fd_sc_hd__dfrtp_1
*CAP
1 *8707:A1 0
2 *9036:A 0
3 *8817:Q 0.000273107
4 *449:22 0.00303322
5 *449:20 0.00372175
6 *449:12 0.000688527
7 *449:10 0.000273107
8 *449:10 *509:28 0.000111308
9 *449:10 *509:46 0
10 *449:20 *470:14 0.00014698
11 *449:20 *509:46 0.000526319
12 *8817:CLK *449:20 0
13 *119:10 *449:22 1.05235e-05
14 *383:98 *449:20 0
*RES
1 *8817:Q *449:10 42.205 
2 *449:10 *449:12 15 
3 *449:12 *449:20 40.7507 
4 *449:20 *449:22 49.2171 
5 *449:22 *9036:A 23 
6 *449:12 *8707:A1 23 
*END

*D_NET *450 0.0167062
*CONN
*I *8709:A1 I *D sky130_fd_sc_hd__mux2_1
*I *9037:A I *D sky130_fd_sc_hd__clkbuf_4
*I *8818:Q O *D sky130_fd_sc_hd__dfrtp_1
*CAP
1 *8709:A1 0
2 *9037:A 4.50977e-05
3 *8818:Q 0.000237922
4 *450:20 0.00476495
5 *450:18 0.00740936
6 *450:14 0.0027272
7 *450:10 0.000275619
8 *450:10 *8818:RESET_B 5.27215e-06
9 *450:10 *510:36 0.000218962
10 *450:14 *481:12 5.3304e-05
11 *450:18 *481:12 5.3304e-05
12 *450:20 *8846:RESET_B 0
13 *450:20 *485:10 0
14 *450:20 *555:10 0
15 paddr[25] *450:20 1.14452e-05
16 *262:12 *450:20 0
17 *333:64 *450:18 0.00048325
18 *383:50 *450:20 0.000315307
19 *430:33 *450:10 0.000105165
*RES
1 *8818:Q *450:10 42.5364 
2 *450:10 *450:14 15.6214 
3 *450:14 *450:18 49.9243 
4 *450:18 *450:20 89.5893 
5 *450:20 *9037:A 38.6214 
6 *450:14 *8709:A1 23 
*END

*D_NET *451 0.0485806
*CONN
*I *8711:A1 I *D sky130_fd_sc_hd__mux2_1
*I *9038:A I *D sky130_fd_sc_hd__clkbuf_4
*I *8819:Q O *D sky130_fd_sc_hd__dfrtp_4
*CAP
1 *8711:A1 0.000223312
2 *9038:A 0
3 *8819:Q 0.000787591
4 *451:44 0.00133978
5 *451:40 0.00219206
6 *451:32 0.00093189
7 *451:24 0.00260586
8 *451:22 0.00252624
9 *451:20 0.00447979
10 *451:18 0.00463304
11 *451:14 0.000376559
12 *451:12 0.000787591
13 *8711:A1 *8711:A0 5.67058e-05
14 *8711:A1 *487:26 0.000223922
15 *451:12 *479:18 0.000302325
16 *451:12 *507:25 2.33476e-05
17 *451:18 *487:26 0.000161596
18 *451:20 *477:20 0
19 *451:20 *477:30 0
20 *451:20 *487:26 0.000189785
21 *451:20 *584:10 0.010422
22 *451:20 *588:22 0.000323473
23 *451:24 *462:14 0.0027296
24 *451:24 *531:14 0.000580726
25 *451:32 *462:22 0.000127658
26 *451:32 *588:14 9.45849e-05
27 *451:40 *462:24 0.00137577
28 *451:40 *588:6 0.00351332
29 *451:44 *582:10 0.000292802
30 *451:44 *588:6 0.0022713
31 *8849:CLK *451:20 0
32 *8906:A *451:20 0
33 *8938:A *451:32 2.5415e-05
34 *8940:A *451:44 0.00014196
35 *206:8 *451:18 8.62876e-05
36 *285:42 *8711:A1 0
37 *285:42 *451:18 0
38 *285:42 *451:20 0
39 *285:46 *451:20 0.000238464
40 *285:48 *451:20 0.00406021
41 *294:10 *451:20 0
42 *333:16 *8711:A1 0.000229769
43 *337:14 *8711:A1 7.37814e-06
44 *337:14 *451:18 2.21344e-05
45 *342:10 *8711:A1 5.61579e-05
46 *409:14 *451:40 0.000140259
*RES
1 *8819:Q *451:12 48.4379 
2 *451:12 *451:14 8 
3 *451:14 *451:18 2.87929 
4 *451:18 *451:20 146.108 
5 *451:20 *451:22 15 
6 *451:22 *451:24 41.5943 
7 *451:24 *451:32 32.4029 
8 *451:32 *451:40 41.0557 
9 *451:40 *451:44 36.8507 
10 *451:44 *9038:A 23 
11 *451:14 *8711:A1 43.6654 
*END

*D_NET *452 0.0338049
*CONN
*I *8713:A1 I *D sky130_fd_sc_hd__mux2_1
*I *9039:A I *D sky130_fd_sc_hd__clkbuf_4
*I *8820:Q O *D sky130_fd_sc_hd__dfrtp_4
*CAP
1 *8713:A1 0.000189708
2 *9039:A 0.000109397
3 *8820:Q 0
4 *452:20 0.00197001
5 *452:18 0.00396214
6 *452:12 0.00846248
7 *452:10 0.00713261
8 *452:4 0.000961362
9 *8713:A1 *8713:A0 5.67058e-05
10 *452:20 *479:20 0.00167598
11 *452:20 *603:8 0.00261071
12 pwdata[1] *452:20 2.33476e-05
13 *122:10 *9039:A 0.000139357
14 *285:26 *8713:A1 8.14599e-05
15 *285:26 *452:10 9.25285e-05
16 *285:26 *452:12 3.40295e-05
17 *285:32 *452:12 5.50106e-05
18 *387:67 *452:12 9.68428e-05
19 *427:16 *452:20 0.000143014
20 *427:18 *452:20 0.00529723
21 *429:18 *452:20 0.000358869
22 *429:22 *452:20 0.000352146
*RES
1 *8820:Q *452:4 23 
2 *452:4 *452:10 10.6679 
3 *452:10 *452:12 107.103 
4 *452:12 *452:18 41.6075 
5 *452:18 *452:20 82.8986 
6 *452:20 *9039:A 40.0507 
7 *452:4 *8713:A1 26.48 
*END

*D_NET *453 0.0287749
*CONN
*I *8716:A1 I *D sky130_fd_sc_hd__mux2_1
*I *9040:A I *D sky130_fd_sc_hd__clkbuf_4
*I *8821:Q O *D sky130_fd_sc_hd__dfrtp_4
*CAP
1 *8716:A1 0
2 *9040:A 0
3 *8821:Q 1.97605e-05
4 *453:35 0.000617024
5 *453:18 0.00550391
6 *453:16 0.00550391
7 *453:14 0.00339876
8 *453:12 0.00407469
9 *453:8 0.00131272
10 *453:8 *489:49 1.94812e-05
11 *453:12 *454:25 0
12 *453:12 *511:42 0
13 *453:12 *597:12 0.00101329
14 *453:14 *553:14 0
15 *453:35 *8726:A1 0.000272383
16 *453:35 *8821:RESET_B 4.34876e-05
17 *453:35 *454:25 0
18 *453:35 *597:12 0.000233181
19 *8682:A1 *453:35 6.07611e-06
20 *8726:S *453:35 0.000137546
21 *8847:CLK *453:8 5.50106e-05
22 *220:10 *453:14 4.58924e-05
23 *237:10 *453:35 0.000108681
24 *241:10 *453:35 0
25 *263:12 *453:12 0
26 *311:48 *453:35 5.42593e-05
27 *344:46 *453:35 2.49836e-05
28 *344:130 *453:12 1.62473e-05
29 *344:130 *453:14 0.00128428
30 *344:134 *453:14 0.00157811
31 *350:8 *453:35 0.000264564
32 *350:20 *453:35 4.23714e-05
33 *388:28 *453:12 0
34 *388:28 *453:14 0
35 *389:61 *453:14 0.00198504
36 *389:76 *453:12 0.000128733
37 *389:76 *453:14 0.000937428
38 *389:93 *453:12 9.30364e-05
*RES
1 *8821:Q *453:8 38.6214 
2 *453:8 *453:12 15.5254 
3 *453:12 *453:14 92.0854 
4 *453:14 *453:16 15 
5 *453:16 *453:18 97.8129 
6 *453:18 *9040:A 23 
7 *453:8 *453:35 43.8371 
8 *453:35 *8716:A1 38 
*END

*D_NET *454 0.0169573
*CONN
*I *9041:A I *D sky130_fd_sc_hd__buf_2
*I *8718:A1 I *D sky130_fd_sc_hd__mux2_1
*I *8822:Q O *D sky130_fd_sc_hd__dfrtp_1
*CAP
1 *9041:A 0
2 *8718:A1 0
3 *8822:Q 0
4 *454:33 0.00357176
5 *454:31 0.00405263
6 *454:25 0.00197053
7 *454:14 0.000621976
8 *454:4 0.00211165
9 *454:14 *483:8 0
10 *454:14 *597:12 0.000218962
11 *454:25 *8770:A1 0
12 *454:25 *8805:RESET_B 4.58924e-05
13 *454:25 *8810:RESET_B 0
14 *454:25 *471:29 0.000136486
15 *454:25 *486:21 0
16 *454:25 *492:16 0.000190826
17 *454:25 *511:42 4.49946e-05
18 *454:25 *556:14 0
19 *454:31 *511:110 0.000105021
20 *8682:A1 *454:25 0
21 *263:12 *454:25 0.000242657
22 *322:63 *454:25 0
23 *327:10 *454:25 0.000110228
24 *344:59 *454:14 0.000166987
25 *344:75 *454:14 5.67058e-05
26 *344:130 *454:25 7.80883e-05
27 *434:21 *454:25 0
28 *440:19 *454:31 6.65155e-05
29 *440:19 *454:33 0.00316543
30 *453:12 *454:25 0
31 *453:35 *454:25 0
*RES
1 *8822:Q *454:4 23 
2 *454:4 *454:14 42.0557 
3 *454:14 *8718:A1 23 
4 *454:4 *454:25 40.9343 
5 *454:25 *454:31 23.9796 
6 *454:31 *454:33 87.5696 
7 *454:33 *9041:A 23 
*END

*D_NET *455 0.0167254
*CONN
*I *8660:A1 I *D sky130_fd_sc_hd__mux2_1
*I *9042:A I *D sky130_fd_sc_hd__clkbuf_4
*I *8795:Q O *D sky130_fd_sc_hd__dfrtp_2
*CAP
1 *8660:A1 0.000217131
2 *9042:A 0
3 *8795:Q 0.000157612
4 *455:10 0.00749502
5 *455:8 0.00786976
6 *8660:A1 *8660:A0 5.67058e-05
7 *8660:A1 *602:12 5.33691e-05
8 *455:8 *8795:RESET_B 7.80291e-05
9 *455:10 *510:108 0
10 *455:10 *602:12 0.000342579
11 *8661:A *8660:A1 3.91386e-05
12 *8795:CLK *455:8 0.000376225
13 *270:12 *455:10 0
14 *404:16 *8660:A1 3.98818e-05
15 *409:14 *455:10 0
*RES
1 *8795:Q *455:8 43.3857 
2 *455:8 *455:10 143.819 
3 *455:10 *9042:A 38 
4 *455:8 *8660:A1 42.8057 
*END

*D_NET *456 0.00124277
*CONN
*I *8879:A I *D sky130_fd_sc_hd__dlygate4sd3_1
*I *9043:A I *D sky130_fd_sc_hd__buf_2
*I *8823:Q O *D sky130_fd_sc_hd__dfrtp_1
*CAP
1 *8879:A 0
2 *9043:A 0.000303489
3 *8823:Q 0
4 *456:21 0.000181564
5 *456:4 0.000485052
6 *456:21 *530:30 0.000139346
7 *456:21 *545:14 0.000133316
8 *456:21 *568:14 0
*RES
1 *8823:Q *456:4 23 
2 *456:4 *9043:A 27.8057 
3 *456:4 *456:21 33.48 
4 *456:21 *8879:A 23 
*END

*D_NET *457 0.0132518
*CONN
*I *9044:A I *D sky130_fd_sc_hd__buf_2
*I *8722:A1 I *D sky130_fd_sc_hd__mux2_1
*I *8824:Q O *D sky130_fd_sc_hd__dfrtp_1
*CAP
1 *9044:A 0
2 *8722:A1 0
3 *8824:Q 0
4 *457:25 0.00362459
5 *457:23 0.00541705
6 *457:12 0.000658999
7 *457:4 0.00245146
8 *457:12 *8827:RESET_B 0.000350114
9 *457:12 *495:12 0
10 *457:23 *558:20 0.000313244
11 *240:10 *457:12 2.54046e-05
12 *435:20 *457:12 0.000180621
13 *435:20 *457:23 0.00023032
*RES
1 *8824:Q *457:4 23 
2 *457:4 *457:12 40.3986 
3 *457:12 *8722:A1 23 
4 *457:4 *457:23 32.3454 
5 *457:23 *457:25 66.1304 
6 *457:25 *9044:A 23 
*END

*D_NET *458 0.0299642
*CONN
*I *9045:A I *D sky130_fd_sc_hd__clkbuf_4
*I *8662:A1 I *D sky130_fd_sc_hd__mux2_1
*I *8796:Q O *D sky130_fd_sc_hd__dfrtp_4
*CAP
1 *9045:A 0
2 *8662:A1 7.26001e-05
3 *8796:Q 8.80874e-05
4 *458:33 0.00710475
5 *458:31 0.00795291
6 *458:23 0.00624328
7 *458:21 0.00550174
8 *458:8 0.000267312
9 *458:23 *8668:A1 0.00014196
10 *458:33 *526:12 0.000194309
11 *8796:CLK *458:8 0.00012103
12 *311:97 *458:23 0.0018764
13 *321:78 *8662:A1 3.46181e-05
14 *321:78 *458:21 6.88819e-05
15 *397:8 *458:33 0
16 *401:10 *8662:A1 3.21223e-05
17 *401:10 *458:21 7.06228e-05
18 *404:8 *458:31 1.24376e-05
19 *404:24 *458:8 0.000181125
*RES
1 *8796:Q *458:8 40.5271 
2 *458:8 *8662:A1 39.5536 
3 *458:8 *458:21 17.9621 
4 *458:21 *458:23 99.9568 
5 *458:23 *458:31 30.6704 
6 *458:31 *458:33 135.368 
7 *458:33 *9045:A 38 
*END

*D_NET *459 0.0214834
*CONN
*I *8705:A0 I *D sky130_fd_sc_hd__mux2_1
*I *8895:X O *D sky130_fd_sc_hd__buf_1
*CAP
1 *8705:A0 0
2 *8895:X 0
3 *459:12 4.83154e-05
4 *459:6 0.0106858
5 *459:4 0.0106375
6 *333:54 *459:12 2.54046e-05
7 *402:12 *459:12 8.62783e-05
*RES
1 *8895:X *459:4 23 
2 *459:4 *459:6 139.262 
3 *459:6 *459:12 31.2014 
4 *459:12 *8705:A0 23 
*END

*D_NET *460 0.00200474
*CONN
*I *8886:A I *D sky130_fd_sc_hd__dlygate4sd3_1
*I *9046:A I *D sky130_fd_sc_hd__clkbuf_4
*I *8797:Q O *D sky130_fd_sc_hd__dfrtp_1
*CAP
1 *8886:A 2.5164e-05
2 *9046:A 0
3 *8797:Q 0
4 *460:12 0.000707423
5 *460:4 0.000732587
6 *8886:A *525:10 5.50106e-05
7 *460:12 *8794:RESET_B 0.000401807
8 *460:12 *520:8 0
9 *460:12 *525:10 1.83564e-05
10 *460:12 *594:14 6.4393e-05
11 *311:133 *460:12 0
12 *443:12 *460:12 0
*RES
1 *8797:Q *460:4 23 
2 *460:4 *460:12 42.8636 
3 *460:12 *9046:A 23 
4 *460:4 *8886:A 23.6214 
*END

*D_NET *461 0.00548714
*CONN
*I *9047:A I *D sky130_fd_sc_hd__clkbuf_4
*I *8877:A I *D sky130_fd_sc_hd__dlygate4sd3_1
*I *8798:Q O *D sky130_fd_sc_hd__dfrtp_1
*CAP
1 *9047:A 0
2 *8877:A 0
3 *8798:Q 0.000410143
4 *461:29 0.000483765
5 *461:14 0.00054512
6 *461:6 0.00143903
7 *461:6 *484:14 6.32895e-05
8 *461:6 *484:22 0.000145775
9 *461:6 *554:28 2.31797e-05
10 *461:14 *476:8 0.00047888
11 *461:14 *484:8 6.33614e-05
12 *461:14 *527:8 0.000267167
13 *461:29 *476:8 0
14 *461:29 *476:14 0.000616669
15 *461:29 *554:28 8.50726e-05
16 *461:29 *580:8 0.000321976
17 *8767:A *461:14 0.000308946
18 *8954:A *461:29 1.05441e-05
19 *261:10 *461:14 2.64616e-05
20 *366:81 *461:14 0
21 *406:12 *461:14 2.72055e-05
22 *406:14 *461:29 1.21972e-05
23 *448:22 *461:29 0.000158357
*RES
1 *8798:Q *461:6 28.8621 
2 *461:6 *461:14 42.8221 
3 *461:14 *8877:A 23 
4 *461:6 *461:29 42.5529 
5 *461:29 *9047:A 23 
*END

*D_NET *462 0.0298202
*CONN
*I *8668:A1 I *D sky130_fd_sc_hd__mux2_1
*I *9048:A I *D sky130_fd_sc_hd__clkbuf_4
*I *8799:Q O *D sky130_fd_sc_hd__dfrtp_2
*CAP
1 *8668:A1 0.000244504
2 *9048:A 0
3 *8799:Q 0.000241886
4 *462:24 0.00103708
5 *462:22 0.00113714
6 *462:14 0.000555579
7 *462:10 0.00767136
8 *462:8 0.00770222
9 *462:10 *8846:RESET_B 0
10 *462:10 *485:10 0
11 *462:10 *532:10 0
12 *462:10 *598:34 0.00100547
13 *462:14 *531:14 0.00277478
14 *462:22 *494:10 0
15 *462:22 *598:22 1.01436e-05
16 *462:24 *598:14 0.000574096
17 m_rdata[21] *462:24 0.000139357
18 *8938:A *462:22 0
19 *276:10 *462:10 0.00011726
20 *311:86 *8668:A1 0
21 *311:86 *462:8 5.47927e-05
22 *311:86 *462:10 0
23 *311:97 *8668:A1 0.00014196
24 *321:48 *462:10 0
25 *383:40 *462:10 0.000466958
26 *384:10 *462:10 0.000837202
27 *387:39 *462:8 3.54409e-05
28 *395:8 *8668:A1 0.00033609
29 *395:8 *462:10 0.000219965
30 *409:14 *462:24 0.000141954
31 *451:24 *462:14 0.0027296
32 *451:32 *462:22 0.000127658
33 *451:40 *462:24 0.00137577
34 *458:23 *8668:A1 0.00014196
*RES
1 *8799:Q *462:8 41.48 
2 *462:8 *462:10 146.989 
3 *462:10 *462:14 45.6364 
4 *462:14 *462:22 32.0507 
5 *462:22 *462:24 28.2543 
6 *462:24 *9048:A 23 
7 *462:8 *8668:A1 44.2971 
*END

*D_NET *463 0.026729
*CONN
*I *8670:A1 I *D sky130_fd_sc_hd__mux2_1
*I *9049:A I *D sky130_fd_sc_hd__clkbuf_4
*I *8800:Q O *D sky130_fd_sc_hd__dfrtp_2
*CAP
1 *8670:A1 0
2 *9049:A 0
3 *8800:Q 0.000321839
4 *463:26 0.000795673
5 *463:16 0.00297122
6 *463:14 0.00254534
7 *463:10 0.000691632
8 *463:10 *8798:RESET_B 0.000123952
9 *463:10 *576:22 0
10 *463:14 *576:22 0
11 *463:16 *477:34 0.00157781
12 *463:16 *485:26 0.00835786
13 *463:16 *495:22 0.000185207
14 *463:16 *593:14 0.00805615
15 *463:16 *598:28 0.000733707
16 m_rdata[16] *463:14 0
17 paddr[26] *463:26 0.000119729
18 paddr[7] *463:26 3.22879e-05
19 *8845:CLK *463:10 3.44502e-05
20 *8958:A *463:14 0
21 *402:12 *463:10 7.45175e-05
22 *402:12 *463:14 0.000107641
*RES
1 *8800:Q *463:10 43.2614 
2 *463:10 *463:14 21.8357 
3 *463:14 *463:16 124.969 
4 *463:16 *463:26 45.1421 
5 *463:26 *9049:A 23 
6 *463:10 *8670:A1 38 
*END

*D_NET *464 0.0164713
*CONN
*I *8674:A1 I *D sky130_fd_sc_hd__mux2_1
*I *9050:A I *D sky130_fd_sc_hd__clkbuf_4
*I *8801:Q O *D sky130_fd_sc_hd__dfrtp_1
*CAP
1 *8674:A1 0
2 *9050:A 0
3 *8801:Q 0
4 *464:23 0.000745056
5 *464:12 0.000816281
6 *464:8 0.00403604
7 *464:6 0.00396482
8 *464:8 *512:28 0.000410727
9 *464:8 *512:32 0.00105013
10 *464:8 *512:34 0.00299234
11 *464:8 *574:10 0.000733329
12 *464:12 *9063:A 0.000361027
13 *464:12 *9086:A 0.000228909
14 *464:12 *610:14 0.000146757
15 *464:23 *512:28 0.000178592
16 *323:8 *464:23 0.000144231
17 *403:10 *464:8 0
18 *414:8 *464:8 6.69637e-06
19 *414:16 *464:12 0.000656368
20 *439:8 *464:8 0
21 *439:8 *464:23 0
*RES
1 *8801:Q *464:6 38 
2 *464:6 *464:8 84.3071 
3 *464:8 *464:12 34.2021 
4 *464:12 *9050:A 23 
5 *464:6 *464:23 27.0143 
6 *464:23 *8674:A1 23 
*END

*D_NET *465 0.025815
*CONN
*I *9051:A I *D sky130_fd_sc_hd__clkbuf_4
*I *8676:A1 I *D sky130_fd_sc_hd__mux2_1
*I *8802:Q O *D sky130_fd_sc_hd__dfrtp_2
*CAP
1 *9051:A 0.000236341
2 *8676:A1 0
3 *8802:Q 0
4 *465:25 0.00580734
5 *465:23 0.00734919
6 *465:14 0.000691776
7 *465:4 0.00246997
8 *465:23 *8802:RESET_B 0.00230877
9 *465:25 *490:10 0
10 paddr[14] *465:25 2.89538e-05
11 paddr[17] *465:25 3.89972e-05
12 paddr[28] *465:25 2.12234e-05
13 paddr[29] *465:25 1.95789e-05
14 *8686:A1 *465:25 0.000334225
15 *8981:A *465:25 2.31209e-05
16 *6:15 *465:25 5.2497e-05
17 *9:15 *465:25 6.54744e-05
18 *56:10 *9051:A 3.71251e-05
19 *58:12 *465:25 3.4045e-05
20 *78:17 *465:25 9.86551e-06
21 *92:9 *465:25 0.000247678
22 *127:12 *465:25 4.29668e-05
23 *142:15 *465:25 7.46212e-05
24 *148:13 *465:25 0.000105857
25 *157:15 *465:25 3.59619e-05
26 *159:15 *465:25 2.44846e-05
27 *169:15 *465:25 7.46212e-05
28 *218:10 *465:14 0.000137651
29 *324:8 *465:14 0.000100415
30 *412:14 *465:23 0.000433743
31 *423:14 *465:14 9.24795e-06
32 *423:20 *465:14 0.000146619
33 *436:10 *465:25 0.00485269
34 *440:23 *465:25 0
35 *440:27 *465:25 0
36 *440:33 *465:25 0
*RES
1 *8802:Q *465:4 23 
2 *465:4 *465:14 43.5679 
3 *465:14 *8676:A1 23 
4 *465:4 *465:23 44.2071 
5 *465:23 *465:25 129.029 
6 *465:25 *9051:A 41.9564 
*END

*D_NET *466 0.000800762
*CONN
*I *9052:A I *D sky130_fd_sc_hd__buf_1
*I *8857:X O *D sky130_fd_sc_hd__buf_2
*CAP
1 *9052:A 0
2 *8857:X 0.000319821
3 *466:10 0.000319821
4 *466:10 *473:23 0
5 *466:10 *548:20 0.000161121
*RES
1 *8857:X *466:10 43.6964 
2 *466:10 *9052:A 38 
*END

*D_NET *467 0.00945964
*CONN
*I *9053:A I *D sky130_fd_sc_hd__buf_2
*I *8579:Y O *D sky130_fd_sc_hd__inv_2
*CAP
1 *9053:A 0
2 *8579:Y 0
3 *467:12 0.000185198
4 *467:6 0.00290903
5 *467:4 0.00272383
6 *467:6 *489:61 0.00101054
7 *467:6 *612:14 0.00129889
8 *467:12 *490:10 0.000379413
9 *8613:B *467:6 0.000320422
10 *205:13 *467:12 0
11 *208:20 *467:6 0.000576699
12 *394:8 *467:12 5.56203e-05
13 *412:18 *467:12 0
14 *423:22 *467:12 0
*RES
1 *8579:Y *467:4 23 
2 *467:4 *467:6 61.6043 
3 *467:6 *467:12 35.075 
4 *467:12 *9053:A 23 
*END

*D_NET *468 0.000243812
*CONN
*I *9054:A I *D sky130_fd_sc_hd__clkbuf_4
*I *8858:X O *D sky130_fd_sc_hd__clkbuf_1
*CAP
1 *9054:A 4.01155e-05
2 *8858:X 8.17907e-05
3 *468:8 0.000121906
4 *439:34 *468:8 0
*RES
1 *8858:X *468:8 39.2014 
2 *468:8 *9054:A 38.8493 
*END

*D_NET *469 0.0150412
*CONN
*I *9055:A I *D sky130_fd_sc_hd__buf_2
*I *8581:Y O *D sky130_fd_sc_hd__nand2_1
*CAP
1 *9055:A 0
2 *8581:Y 1.08768e-05
3 *469:14 0.0032008
4 *469:12 0.0032008
5 *469:10 0.00377294
6 *469:8 0.00378382
7 *469:10 *493:14 0.000223034
8 *469:10 *547:22 1.01436e-05
9 *8581:B *469:8 5.50049e-05
10 *273:8 *469:10 1.19796e-05
11 *408:16 *469:10 0
12 *408:18 *469:10 0
13 *420:8 *469:14 0.000715128
14 *437:22 *469:8 5.67058e-05
*RES
1 *8581:Y *469:8 38.6214 
2 *469:8 *469:10 70.9257 
3 *469:10 *469:12 15 
4 *469:12 *469:14 62.0807 
5 *469:14 *9055:A 23 
*END

*D_NET *470 0.00951516
*CONN
*I *8707:A0 I *D sky130_fd_sc_hd__mux2_1
*I *8896:X O *D sky130_fd_sc_hd__buf_1
*CAP
1 *8707:A0 0
2 *8896:X 0
3 *470:14 0.000530017
4 *470:6 0.00437916
5 *470:4 0.00384914
6 *470:14 *509:46 0.000484539
7 *8817:CLK *470:14 0
8 *340:10 *470:14 9.36522e-05
9 *386:8 *470:14 3.16784e-05
10 *386:19 *470:14 0
11 *449:20 *470:14 0.00014698
*RES
1 *8896:X *470:4 23 
2 *470:4 *470:6 49.2171 
3 *470:6 *470:14 43.3193 
4 *470:14 *8707:A0 23 
*END

*D_NET *471 0.0456417
*CONN
*I *9056:A I *D sky130_fd_sc_hd__clkbuf_4
*I *8724:A1 I *D sky130_fd_sc_hd__mux2_1
*I *8825:Q O *D sky130_fd_sc_hd__dfrtp_4
*CAP
1 *9056:A 0
2 *8724:A1 0.000143615
3 *8825:Q 0
4 *471:35 0.00311844
5 *471:33 0.00311844
6 *471:31 0.0040319
7 *471:29 0.00429983
8 *471:14 0.000650202
9 *471:4 0.00077452
10 *8724:A1 *511:44 0.00070101
11 *471:14 *483:8 0
12 *471:14 *513:12 1.94812e-05
13 *471:14 *568:36 2.93845e-05
14 *471:14 *597:12 0.000410118
15 *471:29 *486:21 0
16 *471:29 *513:12 0.000191922
17 *471:29 *568:36 0.000214026
18 *471:31 *492:16 0.00860851
19 *471:35 *493:27 0.000141879
20 *471:35 *503:20 0.00193567
21 *471:35 *514:24 0.000246757
22 *471:35 *514:70 0.00216131
23 *471:35 *530:14 0
24 *471:35 *545:8 0
25 *471:35 *568:8 0.00441975
26 *471:35 *568:14 0.000803273
27 *471:35 *568:22 0.00209991
28 *8724:S *8724:A1 0.000141954
29 *8805:CLK *471:14 0.000367985
30 *8884:A *471:35 0.000302339
31 *9021:A *471:35 0.000774515
32 *27:13 *471:35 0
33 *95:15 *471:35 0
34 *165:17 *471:35 4.9808e-05
35 *331:14 *471:14 1.37232e-05
36 *388:39 *471:14 0.000190227
37 *388:54 *471:14 6.38845e-05
38 *418:28 *471:35 0.00047104
39 *418:30 *471:35 0.0046984
40 *423:12 *8724:A1 0.000311335
41 *434:21 *471:29 0
42 *454:25 *471:29 0.000136486
*RES
1 *8825:Q *471:4 23 
2 *471:4 *471:14 42.5321 
3 *471:14 *8724:A1 30.7679 
4 *471:4 *471:29 36.6907 
5 *471:29 *471:31 94.9543 
6 *471:31 *471:33 15 
7 *471:33 *471:35 136.072 
8 *471:35 *9056:A 38 
*END

*D_NET *472 0.0376622
*CONN
*I *8745:A1 I *D sky130_fd_sc_hd__mux2_1
*I *9057:A I *D sky130_fd_sc_hd__clkbuf_4
*I *8835:Q O *D sky130_fd_sc_hd__dfrtp_4
*CAP
1 *8745:A1 0.000552107
2 *9057:A 0
3 *8835:Q 7.45122e-05
4 *472:30 0.00391325
5 *472:28 0.00418911
6 *472:14 0.00657656
7 *472:12 0.00737314
8 *472:8 0.00169907
9 *8745:A1 *492:34 5.68111e-05
10 *8745:A1 *513:46 4.51233e-05
11 *472:8 *8835:RESET_B 0.000224649
12 *472:12 *489:37 0
13 *472:12 *498:12 0.000345884
14 *472:14 *8728:A1 0
15 *472:14 *495:12 0
16 *472:30 *558:12 0.00750749
17 *472:30 *565:6 0.00183656
18 *8723:A *472:28 9.75779e-05
19 *8729:A *472:28 0.000143655
20 *8825:CLK *8745:A1 5.33597e-05
21 *8825:CLK *472:8 0.000119404
22 *8825:CLK *472:12 0.000110922
23 *92:9 *472:30 0.000317553
24 *240:10 *472:28 0.000440597
25 *242:10 *8745:A1 9.84794e-05
26 *243:10 *472:14 5.21127e-05
27 *243:10 *472:28 1.94812e-05
28 *321:28 *472:12 0
29 *344:155 *472:28 1.30309e-05
30 *344:155 *472:30 0.000190662
31 *349:10 *472:12 0
32 *351:10 *472:14 0
33 *352:8 *8745:A1 0.000192087
34 *352:8 *472:12 0.000418288
35 *383:124 *472:14 0.000248364
36 *383:147 *472:14 0
37 *388:70 *472:12 0
38 *388:74 *472:12 0.000268585
39 *439:14 *472:28 0.000148524
40 *439:14 *472:30 0.000304579
41 *439:20 *472:14 3.07161e-05
*RES
1 *8835:Q *472:8 40.5271 
2 *472:8 *472:12 23.6246 
3 *472:12 *472:14 120.609 
4 *472:14 *472:28 24.6736 
5 *472:28 *472:30 104.959 
6 *472:30 *9057:A 23 
7 *472:8 *8745:A1 47.3214 
*END

*D_NET *473 0.00905863
*CONN
*I *9058:A I *D sky130_fd_sc_hd__clkbuf_4
*I *8747:A1 I *D sky130_fd_sc_hd__mux2_1
*I *8836:Q O *D sky130_fd_sc_hd__dfrtp_1
*CAP
1 *9058:A 0.00035832
2 *8747:A1 0
3 *8836:Q 0
4 *473:23 0.00121843
5 *473:12 0.000395614
6 *473:4 0.00125573
7 *9058:A *548:20 0.000401106
8 *473:12 *8747:A0 5.67058e-05
9 *473:12 *489:65 6.7081e-05
10 *473:12 *571:24 0.000576699
11 *473:23 *514:99 0.000949206
12 *473:23 *548:20 0
13 pclk *9058:A 0.000143655
14 *8992:A *9058:A 0.000340546
15 *174:8 *9058:A 0.000317553
16 *391:136 *473:23 0.00238791
17 *391:142 *473:23 0
18 *400:14 *473:23 0.000590072
19 *466:10 *473:23 0
*RES
1 *8836:Q *473:4 23 
2 *473:4 *473:12 39.3007 
3 *473:12 *8747:A1 23 
4 *473:4 *473:23 49.945 
5 *473:23 *9058:A 49.6 
*END

*D_NET *474 0.0055546
*CONN
*I *9059:A I *D sky130_fd_sc_hd__clkbuf_4
*I *8749:A1 I *D sky130_fd_sc_hd__mux2_1
*I *8837:Q O *D sky130_fd_sc_hd__dfrtp_1
*CAP
1 *9059:A 0.000343019
2 *8749:A1 3.76232e-05
3 *8837:Q 0.000203024
4 *474:29 0.00168309
5 *474:16 0.00156934
6 *474:10 0.000394675
7 *474:29 *479:20 0
8 *474:29 *506:10 6.33511e-05
9 *175:12 *9059:A 1.59094e-05
10 *288:8 *474:10 3.83778e-05
11 *355:32 *8749:A1 1.86869e-05
12 *355:32 *474:10 2.29192e-05
13 *355:32 *474:29 0.000130692
14 *355:41 *474:29 0.000581274
15 *362:10 *474:16 0.000269781
16 *427:16 *8749:A1 0
17 *427:16 *474:29 0
18 *429:12 *474:10 0.000182832
19 *429:18 *474:29 0
*RES
1 *8837:Q *474:10 41.2521 
2 *474:10 *474:16 33.0036 
3 *474:16 *8749:A1 38.8493 
4 *474:16 *474:29 45.4293 
5 *474:29 *9059:A 27.9093 
*END

*D_NET *475 0.0180162
*CONN
*I *8751:A1 I *D sky130_fd_sc_hd__mux2_1
*I *9060:A I *D sky130_fd_sc_hd__clkbuf_4
*I *8838:Q O *D sky130_fd_sc_hd__dfrtp_2
*CAP
1 *8751:A1 0.000231584
2 *9060:A 0
3 *8838:Q 0
4 *475:12 0.008238
5 *475:10 0.00835282
6 *475:4 0.000346406
7 *8751:A1 *545:20 3.22879e-05
8 *475:10 *507:25 0.000354788
9 *8838:CLK *8751:A1 8.95945e-05
10 *176:10 *475:12 1.59094e-05
11 *296:120 *475:10 0.000354788
*RES
1 *8838:Q *475:4 23 
2 *475:4 *475:10 34.7229 
3 *475:10 *475:12 145.456 
4 *475:12 *9060:A 23 
5 *475:4 *8751:A1 27.3293 
*END

*D_NET *476 0.0239178
*CONN
*I *8753:A1 I *D sky130_fd_sc_hd__mux2_1
*I *9061:A I *D sky130_fd_sc_hd__clkbuf_4
*I *8839:Q O *D sky130_fd_sc_hd__dfrtp_2
*CAP
1 *8753:A1 0
2 *9061:A 0
3 *8839:Q 0
4 *476:25 0.00100414
5 *476:14 0.000851355
6 *476:8 0.00859892
7 *476:6 0.00875171
8 *476:8 *550:16 0
9 *476:8 *560:8 0
10 *476:14 *9081:A 0.0004115
11 *476:14 *580:8 0.000205887
12 *476:14 *610:14 0.000117145
13 *476:25 *504:14 0.000742789
14 paddr[5] *476:14 0.00014196
15 pwdata[14] *476:14 5.7493e-05
16 *255:10 *476:8 0.000497202
17 *333:135 *476:25 0.000220454
18 *335:12 *476:8 0.000358234
19 *338:8 *476:8 9.22257e-05
20 *338:8 *476:25 4.21594e-06
21 *355:73 *476:25 2.30292e-05
22 *355:126 *476:25 1.76557e-05
23 *355:137 *476:25 1.22822e-05
24 *364:14 *476:8 0
25 *364:14 *476:25 0
26 *366:32 *476:8 1.12487e-05
27 *366:81 *476:8 0
28 *366:90 *476:8 0.000116542
29 *366:99 *476:25 5.23561e-05
30 *376:10 *476:8 0.000323812
31 *406:14 *476:14 7.45491e-05
32 *435:26 *476:8 0.000135557
33 *442:47 *476:8 0
34 *448:22 *476:8 0
35 *461:14 *476:8 0.00047888
36 *461:29 *476:8 0
37 *461:29 *476:14 0.000616669
*RES
1 *8839:Q *476:6 38 
2 *476:6 *476:8 148.749 
3 *476:8 *476:14 35.1757 
4 *476:14 *9061:A 23 
5 *476:6 *476:25 33.27 
6 *476:25 *8753:A1 23 
*END

*D_NET *477 0.047924
*CONN
*I *8755:A1 I *D sky130_fd_sc_hd__mux2_1
*I *9062:A I *D sky130_fd_sc_hd__clkbuf_4
*I *8840:Q O *D sky130_fd_sc_hd__dfrtp_4
*CAP
1 *8755:A1 0
2 *9062:A 0
3 *8840:Q 0.000131207
4 *477:57 0.000116197
5 *477:44 0.00205866
6 *477:36 0.00417901
7 *477:34 0.00273818
8 *477:30 0.00170895
9 *477:20 0.00433187
10 *477:18 0.00458726
11 *477:6 0.0015939
12 *477:18 *8811:RESET_B 0
13 *477:18 *8840:RESET_B 6.48142e-05
14 *477:18 *508:29 0
15 *477:18 *508:65 9.98891e-05
16 *477:20 *606:14 0.00812245
17 *477:30 *588:22 3.65271e-05
18 *477:30 *606:12 0.000110354
19 *477:30 *606:14 0.000690135
20 *477:34 *495:22 0.00165575
21 *477:34 *531:14 0.000688048
22 *477:34 *593:14 9.84794e-05
23 *477:36 *494:16 0.00282006
24 *477:36 *531:14 0.00234524
25 *477:36 *593:14 0.00225102
26 *477:44 *593:8 1.43064e-05
27 *477:44 *593:14 0.000265037
28 *477:57 *508:65 0
29 *477:57 *508:118 0
30 paddr[7] *477:44 3.06297e-05
31 *8697:S *477:18 7.56417e-05
32 *8849:CLK *477:30 0.000378996
33 *8958:A *477:30 8.57661e-05
34 *110:14 *477:44 4.9808e-05
35 *227:10 *477:6 0.0002263
36 *227:10 *477:57 3.70187e-05
37 *235:14 *477:18 5.97917e-05
38 *280:10 *477:18 0.000150017
39 *285:48 *477:20 0
40 *294:10 *477:20 0.000167443
41 *312:18 *477:18 6.58018e-05
42 *333:29 *477:18 7.45065e-05
43 *333:31 *477:18 0.000115946
44 *355:60 *477:57 7.80354e-05
45 *375:12 *477:30 0.000241736
46 *384:52 *477:30 6.95665e-05
47 *385:10 *477:20 0.000195238
48 *385:40 *477:18 0
49 *385:40 *477:20 0.00235546
50 *385:101 *477:18 3.54662e-05
51 *385:121 *477:18 0.000107651
52 *445:16 *477:18 6.24182e-05
53 *445:20 *477:18 0.000975631
54 *445:20 *477:20 0
55 *451:20 *477:20 0
56 *451:20 *477:30 0
57 *463:16 *477:34 0.00157781
*RES
1 *8840:Q *477:6 26.0036 
2 *477:6 *477:18 43.8032 
3 *477:18 *477:20 107.031 
4 *477:20 *477:30 42.9332 
5 *477:30 *477:34 32.5629 
6 *477:34 *477:36 75.1825 
7 *477:36 *477:44 43.8654 
8 *477:44 *9062:A 38 
9 *477:6 *477:57 32.61 
10 *477:57 *8755:A1 23 
*END

*D_NET *478 0.0168765
*CONN
*I *8758:A1 I *D sky130_fd_sc_hd__mux2_1
*I *9063:A I *D sky130_fd_sc_hd__clkbuf_4
*I *8841:Q O *D sky130_fd_sc_hd__dfrtp_1
*CAP
1 *8758:A1 0.000588442
2 *9063:A 4.7079e-05
3 *8841:Q 0
4 *478:8 0.0069425
5 *478:6 0.00748386
6 *8758:A1 *489:49 2.24608e-05
7 *8758:A1 *512:24 2.70366e-05
8 *8758:A1 *568:24 0.00010655
9 *8758:A1 *600:14 0
10 *478:8 *512:24 5.21127e-05
11 *478:8 *600:10 0
12 *478:8 *600:14 0
13 *8841:CLK *8758:A1 0
14 *275:30 *8758:A1 0
15 *275:30 *478:8 0
16 *275:34 *478:8 0
17 *275:40 *478:8 0
18 *275:78 *8758:A1 6.1255e-05
19 *311:32 *8758:A1 7.65203e-05
20 *321:109 *478:8 0.00062031
21 *366:151 *8758:A1 5.67058e-05
22 *414:16 *9063:A 0.000359326
23 *437:34 *8758:A1 7.1349e-05
24 *464:12 *9063:A 0.000361027
*RES
1 *8841:Q *478:6 38 
2 *478:6 *478:8 134.664 
3 *478:8 *9063:A 41.9564 
4 *478:6 *8758:A1 49.8486 
*END

*D_NET *479 0.0309145
*CONN
*I *8760:A1 I *D sky130_fd_sc_hd__mux2_1
*I *9064:A I *D sky130_fd_sc_hd__clkbuf_4
*I *8842:Q O *D sky130_fd_sc_hd__dfrtp_4
*CAP
1 *8760:A1 1.23122e-05
2 *9064:A 0.0002429
3 *8842:Q 0.000198036
4 *479:20 0.00298062
5 *479:18 0.0117887
6 *479:12 0.00926133
7 *8760:A1 *550:16 1.12695e-05
8 *479:12 *550:16 0.000191981
9 *479:18 *8795:RESET_B 0.000302526
10 *479:20 *8780:A1 0
11 *479:20 *491:21 0
12 *479:20 *572:10 3.31683e-05
13 *479:20 *603:8 0.000192087
14 *8761:A *479:12 0.000138444
15 *8795:CLK *479:18 0.000137177
16 *180:12 *9064:A 5.3304e-05
17 *258:8 *479:12 0.000181919
18 *268:8 *479:20 4.08641e-05
19 *355:41 *479:20 0
20 *366:90 *8760:A1 2.8314e-06
21 *366:90 *479:12 7.59926e-06
22 *366:99 *8760:A1 4.77164e-06
23 *368:10 *479:12 0.000157547
24 *378:10 *479:20 0
25 *383:14 *479:18 0.000516737
26 *383:112 *479:18 0.00044925
27 *387:27 *479:18 0.00019952
28 *388:113 *479:12 2.4754e-05
29 *429:18 *479:20 0.00180652
30 *451:12 *479:18 0.000302325
31 *452:20 *479:20 0.00167598
32 *474:29 *479:20 0
*RES
1 *8842:Q *479:12 43.3339 
2 *479:12 *479:18 43.4475 
3 *479:18 *479:20 70.3975 
4 *479:20 *9064:A 41.0036 
5 *479:12 *8760:A1 38.3211 
*END

*D_NET *480 0.0254919
*CONN
*I *8762:A1 I *D sky130_fd_sc_hd__mux2_1
*I *9065:A I *D sky130_fd_sc_hd__clkbuf_4
*I *8843:Q O *D sky130_fd_sc_hd__dfrtp_2
*CAP
1 *8762:A1 2.34823e-05
2 *9065:A 0
3 *8843:Q 6.04749e-05
4 *480:30 0.000577223
5 *480:24 0.00936803
6 *480:22 0.00931587
7 *480:12 0.000606461
8 *480:8 0.000118391
9 *480:8 *573:8 0.000110922
10 *480:12 *8739:A0 4.04303e-05
11 *480:12 *514:163 0.000180218
12 *480:22 *8739:A0 0.000198032
13 *480:22 *8739:A1 0.000205649
14 *480:22 *8832:RESET_B 0
15 *480:22 *514:163 1.32314e-05
16 *480:24 *8797:RESET_B 9.18637e-05
17 *480:24 *509:102 0.00386865
18 *8597:A *480:22 6.68617e-05
19 *8739:S *480:22 0.00014196
20 *8740:A *480:22 0
21 *8797:D *480:24 0.00011807
22 *248:10 *480:22 1.32314e-05
23 *296:131 *480:22 8.62876e-05
24 *296:143 *480:22 1.41077e-05
25 *366:107 *480:12 9.41704e-05
26 *369:10 *480:22 0.00010018
27 *430:135 *480:22 2.60152e-05
28 *446:23 *480:8 5.21127e-05
*RES
1 *8843:Q *480:8 39.5536 
2 *480:8 *480:12 17.0507 
3 *480:12 *480:22 41.4757 
4 *480:22 *480:24 125.446 
5 *480:24 *480:30 40.7093 
6 *480:30 *9065:A 23 
7 *480:12 *8762:A1 23.4971 
*END

*D_NET *481 0.0200276
*CONN
*I *8709:A0 I *D sky130_fd_sc_hd__mux2_1
*I *8897:X O *D sky130_fd_sc_hd__dlymetal6s2s_1
*CAP
1 *8709:A0 0
2 *8897:X 0.000197434
3 *481:12 0.00719901
4 *481:10 0.00719901
5 *481:8 0.000197434
6 *481:8 *599:14 0.000461599
7 *481:12 *607:12 0.00443879
8 *21:13 *481:8 0.000180939
9 *333:64 *481:12 4.67488e-05
10 *450:14 *481:12 5.3304e-05
11 *450:18 *481:12 5.3304e-05
*RES
1 *8897:X *481:8 44.1314 
2 *481:8 *481:10 15 
3 *481:10 *481:12 145.456 
4 *481:12 *8709:A0 23 
*END

*D_NET *482 0.00173487
*CONN
*I *9066:A I *D sky130_fd_sc_hd__clkbuf_4
*I *8880:A I *D sky130_fd_sc_hd__dlygate4sd3_1
*I *8844:Q O *D sky130_fd_sc_hd__dfrtp_1
*CAP
1 *9066:A 0
2 *8880:A 4.30875e-05
3 *8844:Q 0.000243772
4 *482:25 0.000245636
5 *482:10 0.000288724
6 *482:8 0.000243772
7 *8880:A *519:10 1.59094e-05
8 *482:8 *487:26 0
9 *482:8 *519:10 0.000108681
10 *482:8 *548:30 0
11 *482:25 *519:10 6.87362e-05
12 *482:25 *548:30 4.55681e-05
13 *248:10 *482:8 6.18235e-05
14 *430:143 *8880:A 9.84794e-05
15 *430:143 *482:25 0.000270682
*RES
1 *8844:Q *482:8 43.075 
2 *482:8 *482:10 15 
3 *482:10 *8880:A 24.0979 
4 *482:10 *482:25 35.9657 
5 *482:25 *9066:A 23 
*END

*D_NET *483 0.0259612
*CONN
*I *8726:A1 I *D sky130_fd_sc_hd__mux2_1
*I *9067:A I *D sky130_fd_sc_hd__clkbuf_4
*I *8826:Q O *D sky130_fd_sc_hd__dfrtp_4
*CAP
1 *8726:A1 3.67217e-05
2 *9067:A 0
3 *8826:Q 0
4 *483:12 0.0105186
5 *483:10 0.0105186
6 *483:8 0.00138361
7 *483:4 0.00142033
8 *483:8 *8822:RESET_B 0.000166666
9 *483:8 *515:14 0
10 *483:8 *597:12 0
11 *8726:S *8726:A1 0.000274078
12 *8805:CLK *483:8 0
13 *333:95 *483:12 0.000877493
14 *333:112 *483:12 0.000174996
15 *344:29 *483:8 2.76611e-06
16 *344:46 *483:8 5.22857e-05
17 *344:59 *483:8 9.79034e-05
18 *387:67 *483:12 9.32948e-05
19 *429:18 *483:12 7.15126e-05
20 *453:35 *8726:A1 0.000272383
21 *454:14 *483:8 0
22 *471:14 *483:8 0
*RES
1 *8826:Q *483:4 23 
2 *483:4 *483:8 40.4993 
3 *483:8 *483:10 15 
4 *483:10 *483:12 190.24 
5 *483:12 *9067:A 23 
6 *483:4 *8726:A1 26.0036 
*END

*D_NET *484 0.0203574
*CONN
*I *8766:A1 I *D sky130_fd_sc_hd__mux2_1
*I *9068:A I *D sky130_fd_sc_hd__clkbuf_4
*I *8845:Q O *D sky130_fd_sc_hd__dfrtp_1
*CAP
1 *8766:A1 0
2 *9068:A 0
3 *8845:Q 7.93288e-05
4 *484:34 8.78361e-05
5 *484:28 0.00489144
6 *484:26 0.00537174
7 *484:22 0.000968869
8 *484:14 0.000486651
9 *484:8 0.000165248
10 *484:14 *554:28 0.000189932
11 *484:22 *488:14 7.70909e-05
12 *484:22 *534:16 5.08836e-05
13 *484:22 *537:22 0.000166072
14 *484:22 *554:28 2.02872e-05
15 *484:26 *534:8 0.00116972
16 *484:26 *584:8 0.000478433
17 *484:28 *532:8 0.000446281
18 *484:28 *534:8 0.0012949
19 *484:28 *555:10 5.50106e-05
20 *484:28 *588:6 0.00356864
21 *484:28 *588:14 7.6241e-05
22 pwdata[24] *484:26 2.45549e-06
23 *8938:A *484:28 5.47927e-05
24 *406:12 *484:8 0.000133316
25 *435:28 *484:22 0.0002498
26 *461:6 *484:14 6.32895e-05
27 *461:6 *484:22 0.000145775
28 *461:14 *484:8 6.33614e-05
*RES
1 *8845:Q *484:8 39.9057 
2 *484:8 *484:14 17.5479 
3 *484:14 *484:22 40.5021 
4 *484:22 *484:26 14.935 
5 *484:26 *484:28 79.2321 
6 *484:28 *484:34 31.2014 
7 *484:34 *9068:A 23 
8 *484:14 *8766:A1 23 
*END

*D_NET *485 0.0195453
*CONN
*I *8768:A1 I *D sky130_fd_sc_hd__mux2_1
*I *9069:A I *D sky130_fd_sc_hd__clkbuf_4
*I *8846:Q O *D sky130_fd_sc_hd__dfrtp_1
*CAP
1 *8768:A1 0
2 *9069:A 0
3 *8846:Q 0.000215288
4 *485:34 0.000177792
5 *485:26 0.00298467
6 *485:24 0.00386248
7 *485:14 0.00108144
8 *485:10 0.000241129
9 *485:10 *8846:RESET_B 6.17437e-06
10 *485:10 *555:10 2.08324e-05
11 *485:24 *593:18 0
12 *485:26 *593:14 0.000317346
13 *485:26 *598:28 0.00156881
14 pwdata[21] *485:34 0.000248979
15 pwdata[2] *485:24 0.000125984
16 *8769:A *485:24 3.71369e-05
17 *262:12 *485:24 0.000187129
18 *384:40 *485:10 3.34247e-05
19 *435:28 *485:14 1.94693e-05
20 *435:28 *485:24 5.93567e-05
21 *450:20 *485:10 0
22 *462:10 *485:10 0
23 *463:16 *485:26 0.00835786
*RES
1 *8846:Q *485:10 41.3557 
2 *485:10 *485:14 15.6214 
3 *485:14 *485:24 46.53 
4 *485:24 *485:26 98.2893 
5 *485:26 *485:34 34.1636 
6 *485:34 *9069:A 23 
7 *485:14 *8768:A1 23 
*END

*D_NET *486 0.0169619
*CONN
*I *9070:A I *D sky130_fd_sc_hd__clkbuf_4
*I *8770:A1 I *D sky130_fd_sc_hd__mux2_1
*I *8847:Q O *D sky130_fd_sc_hd__dfrtp_1
*CAP
1 *9070:A 0
2 *8770:A1 0.000146083
3 *8847:Q 0.000144113
4 *486:27 0.000728476
5 *486:21 0.00780666
6 *486:8 0.00736838
7 *486:8 *8847:RESET_B 7.3572e-05
8 *486:8 *489:49 0.000117282
9 *486:21 *8805:RESET_B 7.03766e-05
10 *486:21 *591:14 0
11 *8682:S *8770:A1 1.69668e-05
12 *8682:S *486:21 6.88852e-05
13 *331:14 *8770:A1 5.67058e-05
14 *366:18 *486:8 0.000193739
15 *366:24 *486:8 5.12254e-05
16 *366:138 *8770:A1 6.4393e-05
17 *423:12 *8770:A1 5.50106e-05
18 *434:21 *486:21 0
19 *454:25 *8770:A1 0
20 *454:25 *486:21 0
21 *471:29 *486:21 0
*RES
1 *8847:Q *486:8 42.9093 
2 *486:8 *8770:A1 41.2314 
3 *486:8 *486:21 135.461 
4 *486:21 *486:27 27.2939 
5 *486:27 *9070:A 23 
*END

*D_NET *487 0.0221242
*CONN
*I *8772:A1 I *D sky130_fd_sc_hd__mux2_1
*I *9071:A I *D sky130_fd_sc_hd__clkbuf_4
*I *8848:Q O *D sky130_fd_sc_hd__dfrtp_2
*CAP
1 *8772:A1 0
2 *9071:A 0
3 *8848:Q 0.000315572
4 *487:26 0.00698944
5 *487:24 0.00698944
6 *487:22 0.000994721
7 *487:12 0.000994721
8 *487:10 0.000315572
9 *487:10 *8848:RESET_B 4.70852e-05
10 *487:10 *511:62 9.5877e-05
11 *487:10 *557:20 8.85189e-05
12 *487:10 *585:38 5.29247e-05
13 *487:22 *8652:A1 9.58714e-05
14 *487:26 *8838:RESET_B 0
15 *487:26 *519:10 0
16 *487:26 *587:16 0
17 *487:26 *587:20 0
18 pwdata[23] *487:26 2.96154e-05
19 *8697:A1 *487:22 0.000180092
20 *8711:A1 *487:26 0.000223922
21 *8850:CLK *487:22 0.0002246
22 *3:19 *487:26 0
23 *254:10 *487:26 0
24 *281:20 *487:22 0.000145513
25 *285:46 *487:26 8.94487e-05
26 *285:84 *487:22 6.24154e-05
27 *312:18 *487:26 0
28 *333:16 *487:26 7.91206e-05
29 *333:91 *487:26 0.000335594
30 *333:155 *487:26 0.000633534
31 *366:43 *487:10 5.01247e-05
32 *374:8 *487:22 0.000348905
33 *385:76 *487:22 0.000133316
34 *387:39 *487:26 0.000673314
35 *387:50 *487:26 0.00085475
36 *423:8 *487:22 0.0001164
37 *424:10 *487:22 0.000612366
38 *430:123 *487:10 0
39 *451:18 *487:26 0.000161596
40 *451:20 *487:26 0.000189785
41 *482:8 *487:26 0
*RES
1 *8848:Q *487:10 43.2614 
2 *487:10 *487:12 15 
3 *487:12 *487:22 48.8707 
4 *487:22 *487:24 15 
5 *487:24 *487:26 147.693 
6 *487:26 *9071:A 38 
7 *487:12 *8772:A1 23 
*END

*D_NET *488 0.00396892
*CONN
*I *8885:A I *D sky130_fd_sc_hd__dlygate4sd3_1
*I *9072:A I *D sky130_fd_sc_hd__clkbuf_4
*I *8849:Q O *D sky130_fd_sc_hd__dfrtp_1
*CAP
1 *8885:A 0.000148176
2 *9072:A 0
3 *8849:Q 0.000337214
4 *488:14 0.000744775
5 *488:10 0.00123016
6 *8885:A *524:6 0.000272918
7 *8885:A *600:6 9.29049e-05
8 *488:10 *8849:RESET_B 0.000174898
9 *488:14 *8798:RESET_B 6.6869e-05
10 *488:14 *534:16 0
11 *296:57 *488:10 0.000163256
12 *296:57 *488:14 0.00020964
13 *296:63 *488:14 0.000141879
14 *305:8 *488:14 1.69668e-05
15 *311:163 *488:14 0
16 *366:51 *8885:A 0.00029217
17 *416:12 *488:14 0
18 *484:22 *488:14 7.70909e-05
*RES
1 *8849:Q *488:10 43.7379 
2 *488:10 *488:14 29.2307 
3 *488:14 *9072:A 23 
4 *488:10 *8885:A 43.8621 
*END

*D_NET *489 0.0324481
*CONN
*I *9073:A I *D sky130_fd_sc_hd__clkbuf_4
*I *8776:A1 I *D sky130_fd_sc_hd__mux2_1
*I *8850:Q O *D sky130_fd_sc_hd__dfrtp_4
*CAP
1 *9073:A 0
2 *8776:A1 0.000309984
3 *8850:Q 0.00019023
4 *489:65 0.00757791
5 *489:63 0.00757791
6 *489:61 0.00127076
7 *489:49 0.00270771
8 *489:37 0.00189751
9 *489:23 0.00190117
10 *489:8 0.00194083
11 *489:49 *8847:RESET_B 0.000437057
12 *489:61 *612:14 0.000324879
13 *8579:A *489:61 8.1796e-05
14 *8644:B *489:49 0.000354116
15 *8731:A *489:23 0.000141052
16 *8758:A1 *489:49 2.24608e-05
17 *8759:A *489:49 9.61805e-05
18 *8821:D *489:37 8.1796e-05
19 *8847:CLK *489:37 3.7877e-05
20 *8847:CLK *489:49 4.02798e-05
21 *8925:A *489:65 0
22 *3:19 *489:23 0.000216872
23 *3:19 *489:61 0.000363483
24 *208:8 *489:65 0
25 *208:20 *489:61 0.00012377
26 *228:18 *8776:A1 6.17437e-06
27 *241:10 *489:37 0.000182826
28 *311:32 *489:49 7.57281e-06
29 *311:48 *489:37 0
30 *311:52 *489:37 9.91895e-05
31 *311:62 *489:8 1.01436e-05
32 *311:62 *489:23 0.000111852
33 *311:201 *489:61 0.000202947
34 *311:201 *489:65 0.000585999
35 *335:6 *8776:A1 0.000180224
36 *349:10 *489:37 1.19796e-05
37 *366:8 *489:49 0.000313255
38 *366:18 *489:49 0.000189322
39 *366:24 *8776:A1 0.00018703
40 *366:24 *489:37 0.000421934
41 *366:24 *489:49 3.9557e-05
42 *376:10 *8776:A1 1.03836e-05
43 *388:60 *489:37 0.000275146
44 *388:70 *489:23 8.12253e-05
45 *388:70 *489:37 3.95004e-05
46 *388:113 *489:23 0.000574264
47 *393:12 *489:65 0
48 *408:16 *489:61 7.57281e-06
49 *420:10 *489:65 0
50 *448:22 *489:8 0
51 *448:22 *489:23 0
52 *453:8 *489:49 1.94812e-05
53 *467:6 *489:61 0.00101054
54 *472:12 *489:37 0
55 *473:12 *489:65 6.7081e-05
56 *486:8 *489:49 0.000117282
*RES
1 *8850:Q *489:8 41.3143 
2 *489:8 *8776:A1 44.815 
3 *489:8 *489:23 37.185 
4 *489:23 *489:37 44.8521 
5 *489:37 *489:49 47.6811 
6 *489:49 *489:61 39.7635 
7 *489:61 *489:63 15 
8 *489:63 *489:65 146.636 
9 *489:65 *9073:A 38 
*END

*D_NET *490 0.0161129
*CONN
*I *8778:A1 I *D sky130_fd_sc_hd__mux2_1
*I *9074:A I *D sky130_fd_sc_hd__buf_2
*I *8851:Q O *D sky130_fd_sc_hd__dfrtp_1
*CAP
1 *8778:A1 0.000538858
2 *9074:A 0
3 *8851:Q 4.72659e-05
4 *490:16 0.000504913
5 *490:10 0.00288688
6 *490:8 0.00296809
7 *8778:A1 *8851:RESET_B 0.000398664
8 *8778:A1 *514:8 5.3304e-05
9 *8778:A1 *516:18 8.52481e-05
10 *8778:A1 *516:20 0.000187129
11 *8778:A1 *516:61 7.64851e-06
12 *490:10 *8807:RESET_B 0.00110089
13 *490:10 *516:61 0.000408015
14 *490:10 *599:14 0.000808075
15 penable *490:10 9.33529e-06
16 *394:8 *8778:A1 9.78179e-05
17 *394:8 *490:10 6.11183e-05
18 *394:25 *8778:A1 6.2869e-05
19 *412:18 *490:10 0
20 *418:20 *490:8 1.94812e-05
21 *440:23 *490:10 0.00402816
22 *440:27 *490:10 0.000468425
23 *440:27 *490:16 0.000991257
24 *465:25 *490:10 0
25 *467:12 *490:10 0.000379413
*RES
1 *8851:Q *490:8 38.6214 
2 *490:8 *490:10 79.2011 
3 *490:10 *490:16 28.6196 
4 *490:16 *9074:A 23 
5 *490:8 *8778:A1 48.6886 
*END

*D_NET *491 0.00780679
*CONN
*I *9075:A I *D sky130_fd_sc_hd__clkbuf_4
*I *8780:A1 I *D sky130_fd_sc_hd__mux2_1
*I *8852:Q O *D sky130_fd_sc_hd__dfrtp_1
*CAP
1 *9075:A 0.000395245
2 *8780:A1 0.000195373
3 *8852:Q 0.000318964
4 *491:21 0.00132084
5 *491:8 0.00143993
6 *491:21 *8737:A1 0.000250839
7 *491:21 *501:21 0.00167351
8 *491:21 *572:10 0.000116554
9 *491:21 *575:8 0.00064962
10 *191:12 *9075:A 5.50106e-05
11 *321:154 *8780:A1 6.17437e-06
12 *355:41 *8780:A1 0.000327912
13 *355:41 *491:21 0.00078465
14 *378:10 *8780:A1 0.000115184
15 *378:10 *491:21 6.67764e-05
16 *386:25 *491:8 7.9199e-05
17 *386:29 *491:8 1.10105e-05
18 *479:20 *8780:A1 0
19 *479:20 *491:21 0
*RES
1 *8852:Q *491:8 41.9564 
2 *491:8 *8780:A1 43.4686 
3 *491:8 *491:21 35.3593 
4 *491:21 *9075:A 43.8621 
*END

*D_NET *492 0.0425856
*CONN
*I *8711:A0 I *D sky130_fd_sc_hd__mux2_1
*I *8898:X O *D sky130_fd_sc_hd__clkbuf_2
*CAP
1 *8711:A0 0.000898571
2 *8898:X 9.09257e-05
3 *492:34 0.0035631
4 *492:16 0.00612664
5 *492:14 0.00346212
6 *492:12 0.00243785
7 *492:10 0.00252877
8 *8711:A0 *508:25 0.00024148
9 *8711:A0 *508:65 0.00010055
10 *492:12 *585:12 0.00071528
11 *492:12 *585:16 0.00153096
12 *492:34 *8745:A0 0.000317492
13 *492:34 *513:46 0.000316338
14 *8703:A1 *492:34 0.00028441
15 *8711:A1 *8711:A0 5.67058e-05
16 *8711:S *8711:A0 5.90675e-06
17 *8745:A1 *492:34 5.68111e-05
18 *8811:D *8711:A0 4.93767e-05
19 *8839:CLK *8711:A0 0.000219362
20 *8839:D *8711:A0 5.38857e-05
21 *8839:D *492:34 3.44656e-05
22 *8899:A *492:12 2.74987e-05
23 *22:15 *492:10 3.0319e-05
24 *22:15 *492:12 7.89624e-06
25 *23:15 *492:12 5.2497e-05
26 *77:15 *492:12 0.000185803
27 *196:14 *492:12 8.0934e-05
28 *242:10 *492:34 2.65879e-05
29 *333:16 *8711:A0 2.4754e-05
30 *333:29 *8711:A0 2.93747e-05
31 *333:135 *492:34 1.76557e-05
32 *342:10 *8711:A0 8.1796e-05
33 *344:75 *492:34 2.02517e-05
34 *350:20 *492:34 0.000402107
35 *360:10 *492:34 1.14762e-05
36 *391:94 *492:16 0.000728318
37 *391:94 *492:34 0.000119461
38 *412:18 *492:12 0.00081399
39 *412:26 *492:12 0.000659411
40 *423:22 *492:12 0.00699582
41 *423:30 *492:10 0.000105687
42 *423:30 *492:12 0.000273571
43 *454:25 *492:16 0.000190826
44 *471:31 *492:16 0.00860851
*RES
1 *8898:X *492:10 40.5168 
2 *492:10 *492:12 102.753 
3 *492:12 *492:14 15 
4 *492:14 *492:16 104.483 
5 *492:16 *492:34 45.3229 
6 *492:34 *8711:A0 41.4564 
*END

*D_NET *493 0.0111914
*CONN
*I *9076:A I *D sky130_fd_sc_hd__buf_2
*I *8782:A1 I *D sky130_fd_sc_hd__mux2_1
*I *8853:Q O *D sky130_fd_sc_hd__dfrtp_1
*CAP
1 *9076:A 0
2 *8782:A1 0
3 *8853:Q 0
4 *493:27 4.66032e-05
5 *493:21 0.0048557
6 *493:14 0.000388945
7 *493:4 0.00519804
8 *493:14 *497:16 8.7843e-05
9 *8782:S *493:14 3.08966e-05
10 *408:18 *493:14 7.66085e-05
11 *418:28 *493:27 0.000141879
12 *469:10 *493:14 0.000223034
13 *471:35 *493:27 0.000141879
*RES
1 *8853:Q *493:4 23 
2 *493:4 *493:14 37.7679 
3 *493:14 *8782:A1 23 
4 *493:4 *493:21 62.5571 
5 *493:21 *493:27 31.9057 
6 *493:27 *9076:A 23 
*END

*D_NET *494 0.00866109
*CONN
*I *8784:A1 I *D sky130_fd_sc_hd__mux2_1
*I *9077:A I *D sky130_fd_sc_hd__clkbuf_4
*I *8854:Q O *D sky130_fd_sc_hd__dfrtp_1
*CAP
1 *8784:A1 0.000196073
2 *9077:A 0
3 *8854:Q 0
4 *494:16 0.000557974
5 *494:10 0.00101275
6 *494:4 0.000650846
7 *8784:A1 *8784:A0 5.67058e-05
8 *8784:A1 *8854:RESET_B 0.000166909
9 *494:16 *593:14 0.00282346
10 m_rdata[21] *494:10 8.68903e-05
11 pwdata[20] *494:16 0
12 pwdata[29] *494:16 6.28591e-05
13 *380:8 *494:10 0.000113153
14 *409:14 *494:10 0.000113414
15 *462:22 *494:10 0
16 *477:36 *494:16 0.00282006
*RES
1 *8854:Q *494:4 23 
2 *494:4 *494:10 38.2443 
3 *494:10 *494:16 49.075 
4 *494:16 *9077:A 38 
5 *494:4 *8784:A1 27.1429 
*END

*D_NET *495 0.0173018
*CONN
*I *8728:A1 I *D sky130_fd_sc_hd__mux2_1
*I *9078:A I *D sky130_fd_sc_hd__clkbuf_4
*I *8827:Q O *D sky130_fd_sc_hd__dfrtp_1
*CAP
1 *8728:A1 0.000287764
2 *9078:A 0.000207709
3 *8827:Q 3.56673e-05
4 *495:22 0.00100196
5 *495:16 0.0016781
6 *495:12 0.00156754
7 *495:8 0.00100712
8 *8728:A1 *8728:A0 2.93747e-05
9 *9078:A *534:8 0.000506464
10 *9078:A *588:14 0.00100194
11 *495:12 *531:20 0
12 *495:12 *557:8 4.66343e-05
13 *495:16 *531:14 1.22822e-05
14 *495:16 *554:18 0.00110073
15 *495:22 *531:14 0.00286003
16 *8827:CLK *495:8 0.000228909
17 *8911:A *495:12 0
18 *8929:A *9078:A 9.67842e-05
19 *8929:A *495:22 8.58484e-05
20 *8931:A *495:12 0
21 *240:10 *495:12 0
22 *351:10 *8728:A1 5.72908e-05
23 *351:10 *495:12 6.18235e-05
24 *388:8 *8728:A1 0
25 *416:14 *495:16 0.0032556
26 *416:20 *495:12 8.04817e-05
27 *435:20 *495:8 0.000228909
28 *448:20 *495:16 2.18409e-05
29 *457:12 *495:12 0
30 *463:16 *495:22 0.000185207
31 *472:14 *8728:A1 0
32 *472:14 *495:12 0
33 *477:34 *495:22 0.00165575
*RES
1 *8827:Q *495:8 40.5271 
2 *495:8 *495:12 25.005 
3 *495:12 *495:16 37.6793 
4 *495:16 *495:22 49.1993 
5 *495:22 *9078:A 49.1029 
6 *495:8 *8728:A1 43.2614 
*END

*D_NET *496 0.0065682
*CONN
*I *8786:A1 I *D sky130_fd_sc_hd__mux2_1
*I *9079:A I *D sky130_fd_sc_hd__clkbuf_4
*I *8855:Q O *D sky130_fd_sc_hd__dfrtp_1
*CAP
1 *8786:A1 0
2 *9079:A 0
3 *8855:Q 0
4 *496:27 0.000332759
5 *496:14 0.000961205
6 *496:10 0.00260489
7 *496:4 0.00197645
8 *496:27 *582:12 0
9 *496:27 *605:8 7.38842e-05
10 *8855:CLK *496:10 0.000477861
11 *8855:CLK *496:27 0.000141154
*RES
1 *8855:Q *496:4 23 
2 *496:4 *496:10 40.8721 
3 *496:10 *496:14 31.3436 
4 *496:14 *9079:A 23 
5 *496:4 *496:27 34.9093 
6 *496:27 *8786:A1 23 
*END

*D_NET *497 0.0168259
*CONN
*I *8788:A1 I *D sky130_fd_sc_hd__mux2_1
*I *9080:A I *D sky130_fd_sc_hd__buf_2
*I *8856:Q O *D sky130_fd_sc_hd__dfrtp_1
*CAP
1 *8788:A1 0.000330063
2 *9080:A 0.000954955
3 *8856:Q 0.000279432
4 *497:16 0.00721035
5 *497:14 0.00625539
6 *497:12 0.000609496
7 *8788:A1 *542:8 8.93593e-05
8 *497:12 *513:69 1.14452e-05
9 *497:12 *542:8 5.50955e-05
10 *8782:S *497:16 0.000124306
11 *321:140 *497:16 0.000530622
12 *321:142 *8788:A1 0.000173442
13 *321:152 *8788:A1 3.22879e-05
14 *390:14 *497:12 8.18192e-05
15 *493:14 *497:16 8.7843e-05
*RES
1 *8856:Q *497:12 43.2821 
2 *497:12 *497:14 15 
3 *497:14 *497:16 106.15 
4 *497:16 *9080:A 39.6025 
5 *497:12 *8788:A1 45.6229 
*END

*D_NET *498 0.0185038
*CONN
*I *8730:A1 I *D sky130_fd_sc_hd__mux2_1
*I *9081:A I *D sky130_fd_sc_hd__clkbuf_4
*I *8828:Q O *D sky130_fd_sc_hd__dfrtp_2
*CAP
1 *8730:A1 0
2 *9081:A 0.000123816
3 *8828:Q 2.42483e-05
4 *498:27 0.000302409
5 *498:12 0.00770337
6 *498:10 0.00779156
7 *498:6 0.000538658
8 *9081:A *580:8 0.000325748
9 *9081:A *610:14 0.000126703
10 *498:27 *8826:RESET_B 0
11 *498:27 *568:36 0.000141879
12 pwdata[14] *9081:A 7.08393e-05
13 *241:10 *498:27 0
14 *242:10 *498:27 0
15 *244:10 *498:12 0
16 *350:20 *498:27 0
17 *355:141 *498:12 0
18 *388:74 *498:12 8.30065e-05
19 *388:80 *498:10 3.3577e-05
20 *437:46 *498:6 2.4754e-05
21 *437:46 *498:10 0.000209496
22 *439:20 *498:12 0.000246391
23 *472:12 *498:12 0.000345884
24 *476:14 *9081:A 0.0004115
*RES
1 *8828:Q *498:6 23.6214 
2 *498:6 *498:10 19.4329 
3 *498:10 *498:12 143.819 
4 *498:12 *9081:A 44.3386 
5 *498:6 *498:27 35.7793 
6 *498:27 *8730:A1 23 
*END

*D_NET *499 0.00645535
*CONN
*I *9082:A I *D sky130_fd_sc_hd__clkbuf_4
*I *8878:A I *D sky130_fd_sc_hd__dlygate4sd3_1
*I *8829:Q O *D sky130_fd_sc_hd__dfrtp_1
*CAP
1 *9082:A 0.000369626
2 *8878:A 0
3 *8829:Q 1.39194e-05
4 *499:25 0.000831065
5 *499:16 0.000239328
6 *499:6 0.000714686
7 *9082:A *9083:A 0.000459648
8 *9082:A *500:10 0.000138727
9 *499:6 *551:26 2.93747e-05
10 *499:16 *526:32 0
11 *499:16 *528:6 5.50049e-05
12 *499:16 *597:10 0
13 *499:25 *8830:RESET_B 2.8521e-05
14 *499:25 *514:113 0.00010655
15 *499:25 *514:127 0.000216018
16 *499:25 *551:20 0.000315852
17 *499:25 *551:26 0.00119222
18 *8734:S *499:16 2.93747e-05
19 *8830:CLK *499:6 5.67058e-05
20 *8830:CLK *499:25 0.0015164
21 *8830:D *499:25 7.88828e-05
22 *344:103 *499:16 1.34542e-05
23 *344:109 *499:16 4.99925e-05
*RES
1 *8829:Q *499:6 23.6214 
2 *499:6 *499:16 34.4329 
3 *499:16 *8878:A 23 
4 *499:6 *499:25 41.825 
5 *499:25 *9082:A 46.5964 
*END

*D_NET *500 0.00187065
*CONN
*I *9083:A I *D sky130_fd_sc_hd__clkbuf_4
*I *8876:A I *D sky130_fd_sc_hd__dlygate4sd3_1
*I *8830:Q O *D sky130_fd_sc_hd__dfrtp_1
*CAP
1 *9083:A 0.000344683
2 *8876:A 0
3 *8830:Q 0.00012691
4 *500:10 0.000471594
5 *9083:A *548:22 0.000272377
6 *500:10 *551:20 5.67058e-05
7 *9082:A *9083:A 0.000459648
8 *9082:A *500:10 0.000138727
*RES
1 *8830:Q *500:10 40.5271 
2 *500:10 *8876:A 38 
3 *500:10 *9083:A 47.135 
*END

*D_NET *501 0.00946028
*CONN
*I *9084:A I *D sky130_fd_sc_hd__clkbuf_4
*I *8737:A1 I *D sky130_fd_sc_hd__mux2_1
*I *8831:Q O *D sky130_fd_sc_hd__dfrtp_1
*CAP
1 *9084:A 0
2 *8737:A1 0.000112914
3 *8831:Q 0.000296056
4 *501:29 0.000768809
5 *501:21 0.00312553
6 *501:8 0.00276569
7 *8737:A1 *572:10 2.08324e-05
8 *8737:A1 *603:8 0
9 *501:21 *575:8 0
10 *501:21 *603:8 0
11 *501:29 *575:8 0
12 *501:29 *603:8 0
13 *200:8 *501:29 5.50049e-05
14 *356:10 *8737:A1 0.000175048
15 *356:10 *501:21 0.000216051
16 *401:22 *501:29 0
17 *491:21 *8737:A1 0.000250839
18 *491:21 *501:21 0.00167351
*RES
1 *8831:Q *501:8 42.4329 
2 *501:8 *8737:A1 41.9357 
3 *501:8 *501:21 53.4118 
4 *501:21 *501:29 29.3446 
5 *501:29 *9084:A 23 
*END

*D_NET *502 0.0188673
*CONN
*I *9085:A I *D sky130_fd_sc_hd__clkbuf_4
*I *8739:A1 I *D sky130_fd_sc_hd__mux2_1
*I *8832:Q O *D sky130_fd_sc_hd__dfrtp_1
*CAP
1 *9085:A 0
2 *8739:A1 0.000360782
3 *8832:Q 3.3131e-05
4 *502:47 0.00142775
5 *502:41 0.00165868
6 *502:31 0.00139663
7 *502:29 0.00146397
8 *502:10 0.000692185
9 *8739:A1 *8739:A0 5.67058e-05
10 *8739:A1 *8832:RESET_B 0
11 *502:29 *578:10 5.65824e-05
12 *502:31 *526:24 1.70074e-05
13 *502:31 *526:26 0.00148132
14 *502:31 *548:26 0.000401106
15 *502:47 *526:24 0.00137127
16 *8739:S *8739:A1 2.18506e-05
17 *8740:A *8739:A1 0.000133309
18 *8891:A *502:47 5.70419e-05
19 *8903:A *502:31 5.67058e-05
20 *8909:A *502:31 5.67058e-05
21 *8920:A *502:31 5.67058e-05
22 *8952:A *502:31 1.24376e-05
23 *8976:A *502:31 5.70419e-05
24 *8987:A *502:31 0.000272383
25 *9001:A *502:31 0.000704525
26 *9015:A *502:41 2.36977e-05
27 *9015:A *502:47 0.00010655
28 *36:8 *502:31 9.90162e-05
29 *39:8 *502:31 0.000151601
30 *63:8 *502:31 0.000275371
31 *182:8 *502:31 0.000151601
32 *187:8 *502:31 0.000182832
33 *282:10 *8739:A1 0.000124513
34 *282:10 *502:29 2.81216e-05
35 *296:143 *8739:A1 7.53384e-06
36 *425:8 *502:29 0
37 *425:14 *502:31 0.000585396
38 *425:16 *502:31 0.00457988
39 *425:16 *502:41 0.000185428
40 *430:135 *8739:A1 0.000242596
41 *430:135 *502:10 3.23508e-05
42 *430:135 *502:29 3.93703e-05
43 *480:22 *8739:A1 0.000205649
*RES
1 *8832:Q *502:10 38.9425 
2 *502:10 *8739:A1 46.7932 
3 *502:10 *502:29 19.5468 
4 *502:29 *502:31 68.2743 
5 *502:31 *502:41 33.8736 
6 *502:41 *502:47 33.06 
7 *502:47 *9085:A 23 
*END

*D_NET *503 0.00923801
*CONN
*I *8678:A0 I *D sky130_fd_sc_hd__mux2_1
*I *8899:X O *D sky130_fd_sc_hd__clkbuf_1
*CAP
1 *8678:A0 0
2 *8899:X 0
3 *503:20 0.000758488
4 *503:14 0.00128368
5 *503:6 0.000525191
6 *503:20 *523:6 0.000176355
7 *503:20 *568:14 0.0019379
8 psel *503:14 2.47015e-05
9 *322:100 *503:20 1.76557e-05
10 *412:30 *503:14 0.000155225
11 *412:40 *503:14 0.00104686
12 *418:30 *503:14 0.00137629
13 *471:35 *503:20 0.00193567
*RES
1 *8899:X *503:6 38 
2 *503:6 *503:14 49.6786 
3 *503:14 *503:20 44.4557 
4 *503:20 *8678:A0 23 
*END

*D_NET *504 0.0238554
*CONN
*I *8713:A0 I *D sky130_fd_sc_hd__mux2_1
*I *8900:X O *D sky130_fd_sc_hd__buf_1
*CAP
1 *8713:A0 0.000390301
2 *8900:X 0
3 *504:14 0.00159803
4 *504:6 0.0103412
5 *504:4 0.00913343
6 *8713:A1 *8713:A0 5.67058e-05
7 *23:15 *504:6 5.25848e-05
8 *285:26 *8713:A0 6.51477e-06
9 *333:103 *8713:A0 1.94693e-05
10 *333:118 *8713:A0 0
11 *355:81 *8713:A0 0.000175438
12 *355:137 *504:14 0.00133903
13 *430:125 *8713:A0 0
14 *476:25 *504:14 0.000742789
*RES
1 *8900:X *504:4 23 
2 *504:4 *504:6 117.585 
3 *504:6 *504:14 44.9632 
4 *504:14 *8713:A0 45.1257 
*END

*D_NET *505 0.00874485
*CONN
*I *8741:A1 I *D sky130_fd_sc_hd__mux2_1
*I *9086:A I *D sky130_fd_sc_hd__clkbuf_4
*I *8833:Q O *D sky130_fd_sc_hd__dfrtp_1
*CAP
1 *8741:A1 9.10085e-05
2 *9086:A 0.000105403
3 *8833:Q 7.0439e-05
4 *505:10 0.00182984
5 *505:8 0.00188588
6 *9086:A *574:6 2.4754e-05
7 *505:10 *600:10 0.000590454
8 *355:145 *8741:A1 1.94812e-05
9 *406:14 *9086:A 8.2832e-05
10 *414:8 *505:8 0.000106527
11 *414:8 *505:10 0.00211323
12 *414:16 *9086:A 9.84794e-05
13 *421:10 *505:8 0.000225275
14 *421:10 *505:10 0.00127234
15 *464:12 *9086:A 0.000228909
*RES
1 *8833:Q *505:8 40.9621 
2 *505:8 *505:10 55.7836 
3 *505:10 *9086:A 41.9564 
4 *505:8 *8741:A1 39.0979 
*END

*D_NET *506 0.012925
*CONN
*I *8743:A1 I *D sky130_fd_sc_hd__mux2_1
*I *9087:A I *D sky130_fd_sc_hd__clkbuf_4
*I *8834:Q O *D sky130_fd_sc_hd__dfrtp_1
*CAP
1 *8743:A1 0
2 *9087:A 0
3 *8834:Q 0.00039186
4 *506:28 0.000480593
5 *506:22 0.00238121
6 *506:20 0.00321638
7 *506:12 0.00131576
8 *506:10 0.00039186
9 *506:20 *8743:A0 1.94693e-05
10 *506:20 *544:12 0
11 *506:20 *611:14 0.000569427
12 *506:22 *538:8 0.000548417
13 *506:22 *609:10 0.00151131
14 *506:22 *611:14 0.000304792
15 *506:28 *609:10 0.000296302
16 *8837:CLK *506:20 0.000227497
17 *8895:A *506:22 0
18 *8912:A *506:22 9.98109e-05
19 *8951:A *506:22 5.32119e-05
20 *14:13 *506:20 0
21 *61:10 *506:20 0
22 *70:13 *506:28 0
23 *73:13 *506:20 0
24 *139:13 *506:20 0
25 *145:13 *506:22 0
26 *250:14 *506:10 5.29231e-05
27 *355:32 *506:10 0.000133316
28 *386:33 *506:20 0.000186025
29 *404:8 *506:20 0.000477634
30 *427:16 *506:20 0.000203827
31 *474:29 *506:10 6.33511e-05
*RES
1 *8834:Q *506:10 43.8621 
2 *506:10 *506:12 15 
3 *506:12 *506:20 47.6561 
4 *506:20 *506:22 50.17 
5 *506:22 *506:28 27.0454 
6 *506:28 *9087:A 23 
7 *506:12 *8743:A1 23 
*END

*D_NET *507 0.0348716
*CONN
*I *9088:A I *D sky130_fd_sc_hd__clkbuf_4
*I *8652:A1 I *D sky130_fd_sc_hd__mux2_1
*I *8790:Q O *D sky130_fd_sc_hd__dfrtp_4
*CAP
1 *9088:A 0
2 *8652:A1 0.0004158
3 *8790:Q 0.000384079
4 *507:29 0.00877549
5 *507:27 0.00877549
6 *507:25 0.00454152
7 *507:12 0.0053414
8 *8652:A1 *510:12 0.000700153
9 *507:25 *509:12 0
10 *507:25 *509:82 0
11 *507:25 *509:84 0
12 *507:25 *510:12 0.000793497
13 *8652:S *8652:A1 5.3304e-05
14 *281:20 *8652:A1 0.00026599
15 *285:84 *8652:A1 0.000180224
16 *296:120 *507:25 0.0025874
17 *296:131 *507:25 0.00118601
18 *343:8 *507:25 8.85189e-05
19 *355:60 *8652:A1 0
20 *355:60 *507:25 0
21 *355:73 *507:25 0
22 *374:8 *8652:A1 1.56762e-05
23 *385:93 *8652:A1 8.40688e-05
24 *413:8 *507:25 0
25 *437:46 *507:12 0.000208955
26 *451:12 *507:25 2.33476e-05
27 *475:10 *507:25 0.000354788
28 *487:22 *8652:A1 9.58714e-05
*RES
1 *8790:Q *507:12 44.0279 
2 *507:12 *8652:A1 49.7036 
3 *507:12 *507:25 114.239 
4 *507:25 *507:27 15 
5 *507:27 *507:29 144.979 
6 *507:29 *9088:A 23 
*END

*D_NET *508 0.0199744
*CONN
*I *8838:RESET_B I *D sky130_fd_sc_hd__dfrtp_2
*I *8820:RESET_B I *D sky130_fd_sc_hd__dfrtp_4
*I *8795:RESET_B I *D sky130_fd_sc_hd__dfrtp_2
*I *8799:RESET_B I *D sky130_fd_sc_hd__dfrtp_2
*I *8796:RESET_B I *D sky130_fd_sc_hd__dfrtp_4
*I *8840:RESET_B I *D sky130_fd_sc_hd__dfrtp_4
*I *8811:RESET_B I *D sky130_fd_sc_hd__dfrtp_4
*I *8819:RESET_B I *D sky130_fd_sc_hd__dfrtp_4
*I *8790:RESET_B I *D sky130_fd_sc_hd__dfrtp_4
*I *8814:RESET_B I *D sky130_fd_sc_hd__dfrtp_4
*I *8868:X O *D sky130_fd_sc_hd__buf_4
*CAP
1 *8838:RESET_B 0.00140931
2 *8820:RESET_B 0
3 *8795:RESET_B 0.00145086
4 *8799:RESET_B 0.00167786
5 *8796:RESET_B 0.000227005
6 *8840:RESET_B 0.00129631
7 *8811:RESET_B 0.000312676
8 *8819:RESET_B 0
9 *8790:RESET_B 0.000279954
10 *8814:RESET_B 0.0006001
11 *8868:X 0.000239438
12 *508:118 0.00193474
13 *508:86 0.00123183
14 *508:65 0.000840263
15 *508:29 0.000389617
16 *508:27 0.00017197
17 *508:25 0.0006001
18 *508:10 0.000239438
19 *8838:RESET_B *509:16 5.18019e-05
20 *8838:RESET_B *548:34 0
21 *508:10 *8868:A 9.58714e-05
22 *508:10 *509:149 0.000455364
23 *508:86 *535:10 3.81391e-05
24 *508:118 *548:34 0
25 *8669:A *8799:RESET_B 1.41077e-05
26 *8711:A0 *508:25 0.00024148
27 *8711:A0 *508:65 0.00010055
28 *8795:CLK *8795:RESET_B 0.000241807
29 *8796:CLK *8799:RESET_B 0.000186175
30 *8811:D *508:65 0.000177514
31 *8838:CLK *8838:RESET_B 0.000178818
32 *8839:CLK *508:25 1.59094e-05
33 *8840:D *508:86 9.76261e-05
34 *212:8 *508:86 4.08641e-05
35 *215:8 *8799:RESET_B 0
36 *227:10 *508:65 0
37 *230:10 *508:25 6.17437e-06
38 *231:10 *508:10 3.0647e-05
39 *235:14 *8840:RESET_B 2.60152e-05
40 *235:14 *508:118 6.88715e-05
41 *236:10 *508:118 0
42 *254:10 *8838:RESET_B 0.000138718
43 *256:8 *8840:RESET_B 7.80612e-05
44 *256:8 *508:118 3.06079e-05
45 *285:98 *508:86 0.000266798
46 *311:86 *508:86 0.000243605
47 *316:8 *508:86 0
48 *321:78 *508:86 0
49 *333:8 *508:86 7.88828e-05
50 *342:10 *508:118 0
51 *355:60 *8790:RESET_B 7.43283e-05
52 *355:60 *8811:RESET_B 5.43968e-05
53 *355:60 *508:29 7.93983e-05
54 *355:73 *508:118 0
55 *385:101 *8790:RESET_B 0
56 *385:101 *508:29 0
57 *387:27 *8795:RESET_B 0.00191921
58 *387:39 *8795:RESET_B 9.05149e-05
59 *387:50 *8838:RESET_B 0
60 *387:50 *508:118 0
61 *388:117 *508:25 1.01436e-05
62 *388:130 *508:25 0.000192087
63 *395:8 *8799:RESET_B 3.98859e-05
64 *395:8 *508:86 0
65 *404:24 *8799:RESET_B 0.000388378
66 *430:123 *508:10 0
67 *430:123 *508:25 0.000192087
68 *437:46 *8790:RESET_B 8.50385e-05
69 *445:10 *508:10 0.000276396
70 *445:10 *508:25 0.000221386
71 *455:8 *8795:RESET_B 7.80291e-05
72 *477:18 *8811:RESET_B 0
73 *477:18 *8840:RESET_B 6.48142e-05
74 *477:18 *508:29 0
75 *477:18 *508:65 9.98891e-05
76 *477:57 *508:65 0
77 *477:57 *508:118 0
78 *479:18 *8795:RESET_B 0.000302526
79 *487:26 *8838:RESET_B 0
*RES
1 *8868:X *508:10 47.0936 
2 *508:10 *8814:RESET_B 15 
3 *8814:RESET_B *508:25 40.9268 
4 *508:25 *508:27 15 
5 *508:27 *508:29 2.25786 
6 *508:29 *8790:RESET_B 20.1475 
7 *508:29 *8819:RESET_B 15 
8 *508:27 *8811:RESET_B 16.5536 
9 *8811:RESET_B *508:65 21.5664 
10 *508:65 *8840:RESET_B 17.3511 
11 *8840:RESET_B *508:86 36.2839 
12 *508:86 *8796:RESET_B 15 
13 *8796:RESET_B *8799:RESET_B 36.2661 
14 *8799:RESET_B *8795:RESET_B 34.1579 
15 *508:65 *508:118 9.82893 
16 *508:118 *8820:RESET_B 15 
17 *508:118 *8838:RESET_B 43.5339 
*END

*D_NET *509 0.0642723
*CONN
*I *8868:A I *D sky130_fd_sc_hd__buf_4
*I *8832:RESET_B I *D sky130_fd_sc_hd__dfrtp_1
*I *8844:RESET_B I *D sky130_fd_sc_hd__dfrtp_1
*I *8794:RESET_B I *D sky130_fd_sc_hd__dfrtp_1
*I *8797:RESET_B I *D sky130_fd_sc_hd__dfrtp_1
*I *8831:RESET_B I *D sky130_fd_sc_hd__dfrtp_1
*I *8852:RESET_B I *D sky130_fd_sc_hd__dfrtp_1
*I *8834:RESET_B I *D sky130_fd_sc_hd__dfrtp_1
*I *8837:RESET_B I *D sky130_fd_sc_hd__dfrtp_1
*I *8817:RESET_B I *D sky130_fd_sc_hd__dfrtp_1
*I *8869:X O *D sky130_fd_sc_hd__clkbuf_8
*CAP
1 *8868:A 7.91713e-05
2 *8832:RESET_B 0.000169932
3 *8844:RESET_B 2.54172e-05
4 *8794:RESET_B 0.000261037
5 *8797:RESET_B 2.94819e-05
6 *8831:RESET_B 0.000310623
7 *8852:RESET_B 0
8 *8834:RESET_B 0
9 *8837:RESET_B 8.19423e-05
10 *8817:RESET_B 8.13356e-05
11 *8869:X 2.27699e-05
12 *509:149 0.00103216
13 *509:102 0.00152452
14 *509:100 0.00136205
15 *509:96 0.00195279
16 *509:88 0.00222099
17 *509:84 0.00392486
18 *509:82 0.00344984
19 *509:66 0.000650319
20 *509:52 0.00119966
21 *509:50 0.00145741
22 *509:48 0.00232589
23 *509:46 0.00256071
24 *509:28 0.00164866
25 *509:16 0.00637494
26 *509:14 0.00504243
27 *509:12 0.00177646
28 *509:10 0.00201859
29 *509:6 0.00128363
30 *8794:RESET_B *570:20 0.000135338
31 *8797:RESET_B *525:10 5.50106e-05
32 *8831:RESET_B *575:8 0.00104615
33 *8832:RESET_B *548:30 0.000155029
34 *509:10 *8869:A 9.5877e-05
35 *509:10 *510:6 5.3304e-05
36 *509:12 *548:34 0
37 *509:52 *575:8 0.00313623
38 *509:66 *575:8 0.00109543
39 *509:82 *548:34 0
40 *509:84 *548:30 0.00204088
41 *509:84 *548:34 0.000912187
42 *509:102 *525:10 0.000388668
43 *8695:A1 *509:6 9.84851e-05
44 *8695:A1 *509:10 0.000140259
45 *8695:A1 *509:149 3.66893e-05
46 *8739:A1 *8832:RESET_B 0
47 *8817:CLK *509:28 0
48 *8817:D *8817:RESET_B 1.18939e-05
49 *8838:CLK *509:16 4.56077e-05
50 *8838:RESET_B *509:16 5.18019e-05
51 *231:10 *509:149 0.000190205
52 *288:8 *8837:RESET_B 9.88575e-05
53 *288:8 *509:52 0.000118879
54 *296:131 *509:84 0
55 *296:143 *8844:RESET_B 3.99364e-05
56 *296:143 *509:88 0.000542904
57 *296:143 *509:96 0.000274531
58 *296:145 *509:96 0.000668462
59 *311:133 *8794:RESET_B 0
60 *333:118 *509:149 0
61 *334:8 *509:149 0
62 *355:32 *8837:RESET_B 6.53342e-05
63 *355:32 *509:52 6.43149e-05
64 *355:41 *509:52 2.96805e-05
65 *355:73 *509:12 0.000194318
66 *383:98 *509:28 0.000307985
67 *394:27 *509:6 3.34247e-05
68 *394:27 *509:10 0.00014255
69 *397:8 *8831:RESET_B 0.000539541
70 *397:8 *509:52 0.00157549
71 *397:8 *509:66 0.000563091
72 *413:8 *509:84 0.000141888
73 *424:12 *509:100 0
74 *425:8 *8832:RESET_B 6.85412e-05
75 *430:123 *509:149 0
76 *430:125 *509:149 0
77 *430:135 *8832:RESET_B 0
78 *441:8 *509:149 0.000120446
79 *441:18 *509:10 1.46214e-05
80 *443:12 *8794:RESET_B 7.51159e-05
81 *445:10 *509:149 0
82 *449:10 *509:28 0.000111308
83 *449:10 *509:46 0
84 *449:20 *509:46 0.000526319
85 *460:12 *8794:RESET_B 0.000401807
86 *470:14 *509:46 0.000484539
87 *480:22 *8832:RESET_B 0
88 *480:24 *8797:RESET_B 9.18637e-05
89 *480:24 *509:102 0.00386865
90 *507:25 *509:12 0
91 *507:25 *509:82 0
92 *507:25 *509:84 0
93 *508:10 *8868:A 9.58714e-05
94 *508:10 *509:149 0.000455364
*RES
1 *8869:X *509:6 24.0979 
2 *509:6 *509:10 21.3386 
3 *509:10 *509:12 32.5421 
4 *509:12 *509:14 15 
5 *509:14 *509:16 65.1775 
6 *509:16 *509:28 40.5925 
7 *509:28 *8817:RESET_B 16.5225 
8 *509:28 *509:46 22.9129 
9 *509:46 *509:48 41.5943 
10 *509:48 *509:50 15 
11 *509:50 *509:52 45.2193 
12 *509:52 *8837:RESET_B 17.61 
13 *509:52 *8834:RESET_B 15 
14 *509:50 *509:66 14.5829 
15 *509:66 *8852:RESET_B 15 
16 *509:66 *8831:RESET_B 28.8786 
17 *509:12 *509:82 1.29464 
18 *509:82 *509:84 86.9482 
19 *509:84 *509:88 21.3386 
20 *509:88 *509:96 49.1371 
21 *509:96 *509:100 16.9057 
22 *509:100 *509:102 42.5471 
23 *509:102 *8797:RESET_B 1.02536 
24 *509:102 *8794:RESET_B 36.9289 
25 *509:88 *8844:RESET_B 1.04607 
26 *509:84 *8832:RESET_B 19.3707 
27 *509:6 *509:149 48.4564 
28 *509:149 *8868:A 24.5743 
*END

*D_NET *510 0.0508826
*CONN
*I *8869:A I *D sky130_fd_sc_hd__clkbuf_8
*I *8816:RESET_B I *D sky130_fd_sc_hd__dfrtp_4
*I *8855:RESET_B I *D sky130_fd_sc_hd__dfrtp_1
*I *8858:A I *D sky130_fd_sc_hd__clkbuf_1
*I *8854:RESET_B I *D sky130_fd_sc_hd__dfrtp_1
*I *8846:RESET_B I *D sky130_fd_sc_hd__dfrtp_1
*I *8798:RESET_B I *D sky130_fd_sc_hd__dfrtp_1
*I *8800:RESET_B I *D sky130_fd_sc_hd__dfrtp_2
*I *8849:RESET_B I *D sky130_fd_sc_hd__dfrtp_1
*I *8818:RESET_B I *D sky130_fd_sc_hd__dfrtp_1
*I *8870:X O *D sky130_fd_sc_hd__buf_4
*CAP
1 *8869:A 3.5518e-05
2 *8816:RESET_B 3.18648e-05
3 *8855:RESET_B 0
4 *8858:A 0.000732076
5 *8854:RESET_B 0.00163408
6 *8846:RESET_B 0.00171251
7 *8798:RESET_B 0.00030969
8 *8800:RESET_B 0.000474059
9 *8849:RESET_B 0.000684724
10 *8818:RESET_B 0.000300713
11 *8870:X 2.77218e-05
12 *510:129 0.00153986
13 *510:118 0.00266886
14 *510:110 0.00419692
15 *510:108 0.00390804
16 *510:82 0.001877
17 *510:48 0.0022239
18 *510:36 0.0029425
19 *510:34 0.00262678
20 *510:20 0.00117609
21 *510:12 0.00196116
22 *510:6 0.00118089
23 *8798:RESET_B *534:16 4.23714e-05
24 *8800:RESET_B *576:22 8.22941e-05
25 *8854:RESET_B *8784:A0 0.000359326
26 *510:12 *585:44 0.000215791
27 *510:12 *590:10 0.000277483
28 *510:20 *590:10 0.000964192
29 *510:36 *557:16 0
30 *510:36 *557:20 0
31 *510:48 *576:22 0.000129785
32 *510:48 *576:24 0.000100296
33 *510:82 *588:22 0.000476743
34 *510:118 *582:12 0
35 *510:118 *605:8 8.16356e-05
36 *8601:A *510:12 2.24608e-05
37 *8625:A *8798:RESET_B 0.000222785
38 *8652:A1 *510:12 0.000700153
39 *8705:A1 *8816:RESET_B 2.33744e-05
40 *8705:A1 *510:20 9.50411e-05
41 *8784:A1 *8854:RESET_B 0.000166909
42 *8845:CLK *8798:RESET_B 0.000171557
43 *8854:CLK *8854:RESET_B 0.000542504
44 *271:10 *510:129 0
45 *281:20 *510:12 2.24973e-05
46 *296:55 *510:12 2.57346e-05
47 *296:55 *510:20 1.14452e-05
48 *296:57 *8818:RESET_B 0.000129984
49 *296:57 *510:20 0.000644821
50 *296:57 *510:36 0.00584228
51 *296:63 *510:82 5.47808e-05
52 *296:76 *510:48 0.000162855
53 *296:96 *510:12 0.000136039
54 *296:118 *510:12 0.000163934
55 *296:120 *510:12 0.00144339
56 *297:10 *510:82 5.50049e-05
57 *311:157 *510:12 0
58 *311:159 *510:12 4.39199e-05
59 *381:8 *510:129 0
60 *384:33 *8854:RESET_B 0.000650849
61 *384:40 *8846:RESET_B 9.18637e-05
62 *384:40 *8854:RESET_B 0.000256629
63 *385:65 *510:12 0
64 *385:76 *510:12 0
65 *394:27 *8869:A 4.34973e-05
66 *394:27 *510:6 2.64616e-05
67 *402:12 *8800:RESET_B 0
68 *402:12 *510:48 0
69 *409:14 *510:108 0.000163352
70 *430:33 *8818:RESET_B 0.000380333
71 *430:33 *510:36 0.000155428
72 *435:36 *8858:A 0.000838502
73 *439:26 *8858:A 0.000840522
74 *439:26 *510:118 0.000239999
75 *450:10 *8818:RESET_B 5.27215e-06
76 *450:10 *510:36 0.000218962
77 *450:20 *8846:RESET_B 0
78 *455:10 *510:108 0
79 *462:10 *8846:RESET_B 0
80 *463:10 *8798:RESET_B 0.000123952
81 *485:10 *8846:RESET_B 6.17437e-06
82 *488:10 *8849:RESET_B 0.000174898
83 *488:14 *8798:RESET_B 6.6869e-05
84 *507:25 *510:12 0.000793497
85 *509:10 *8869:A 9.5877e-05
86 *509:10 *510:6 5.3304e-05
*RES
1 *8870:X *510:6 23.6214 
2 *510:6 *510:12 47.7804 
3 *510:12 *510:20 43.3268 
4 *510:20 *8818:RESET_B 36.9496 
5 *8818:RESET_B *510:34 15 
6 *510:34 *510:36 76.56 
7 *510:36 *8849:RESET_B 21.2661 
8 *8849:RESET_B *510:48 24.1454 
9 *510:48 *8800:RESET_B 17.9621 
10 *8800:RESET_B *8798:RESET_B 37.3846 
11 *510:48 *510:82 40.7271 
12 *510:82 *8846:RESET_B 33.2832 
13 *8846:RESET_B *8854:RESET_B 32.8114 
14 *8854:RESET_B *510:108 32.2579 
15 *510:108 *510:110 50.17 
16 *510:110 *510:118 39.0729 
17 *510:118 *8858:A 46.49 
18 *510:118 *510:129 42.9643 
19 *510:129 *8855:RESET_B 15 
20 *510:20 *8816:RESET_B 0.548929 
21 *510:6 *8869:A 24.0979 
*END

*D_NET *511 0.0234516
*CONN
*I *8791:RESET_B I *D sky130_fd_sc_hd__dfrtp_1
*I *8804:RESET_B I *D sky130_fd_sc_hd__dfrtp_4
*I *8801:RESET_B I *D sky130_fd_sc_hd__dfrtp_1
*I *8810:RESET_B I *D sky130_fd_sc_hd__dfrtp_2
*I *8842:RESET_B I *D sky130_fd_sc_hd__dfrtp_4
*I *8812:RESET_B I *D sky130_fd_sc_hd__dfrtp_2
*I *8848:RESET_B I *D sky130_fd_sc_hd__dfrtp_2
*I *8850:RESET_B I *D sky130_fd_sc_hd__dfrtp_4
*I *8809:RESET_B I *D sky130_fd_sc_hd__dfrtp_4
*I *8841:RESET_B I *D sky130_fd_sc_hd__dfrtp_1
*I *8871:X O *D sky130_fd_sc_hd__buf_4
*CAP
1 *8791:RESET_B 0.000287866
2 *8804:RESET_B 0.000168702
3 *8801:RESET_B 0.000973691
4 *8810:RESET_B 0.00116545
5 *8842:RESET_B 0.000187695
6 *8812:RESET_B 3.52773e-05
7 *8848:RESET_B 1.89289e-05
8 *8850:RESET_B 6.27914e-06
9 *8809:RESET_B 3.08838e-05
10 *8841:RESET_B 0.00137218
11 *8871:X 2.26248e-05
12 *511:110 0.00198857
13 *511:72 0.000444124
14 *511:62 0.000813156
15 *511:44 0.00235815
16 *511:42 0.00187226
17 *511:28 0.000329108
18 *511:26 0.00168635
19 *511:6 0.000520339
20 *8791:RESET_B *512:14 9.77033e-05
21 *8809:RESET_B *585:36 2.8521e-05
22 *8810:RESET_B *556:14 0.000437435
23 *8841:RESET_B *512:24 0.000395901
24 *8842:RESET_B *550:16 0
25 *8848:RESET_B *585:38 2.62973e-05
26 *511:26 *8847:RESET_B 0
27 *511:26 *585:36 0.00023937
28 *511:28 *585:36 8.19589e-05
29 *511:62 *550:16 5.21127e-05
30 *511:62 *585:38 8.39179e-05
31 *511:72 *560:8 0
32 *8627:A *511:62 0.000137651
33 *8680:A1 *8801:RESET_B 0.000138185
34 *8680:A1 *511:110 1.83667e-05
35 *8690:A1 *511:26 2.29192e-05
36 *8690:S *511:26 3.7122e-06
37 *8697:A1 *8812:RESET_B 7.51159e-05
38 *8724:A1 *511:44 0.00070101
39 *8771:A *511:44 5.50049e-05
40 *8809:D *8809:RESET_B 0
41 *8841:CLK *511:26 0.000133901
42 *8841:D *511:26 0.00014196
43 *263:12 *511:42 1.01436e-05
44 *263:12 *511:44 0.000141954
45 *266:10 *511:62 0.000180218
46 *321:12 *8791:RESET_B 0
47 *322:10 *8801:RESET_B 0.00128606
48 *322:14 *8801:RESET_B 0.000242996
49 *322:43 *8801:RESET_B 0.000246757
50 *322:52 *8801:RESET_B 0.000225265
51 *322:52 *511:110 0.00132982
52 *322:63 *511:26 0
53 *331:14 *511:26 0
54 *331:14 *511:44 7.13587e-05
55 *335:6 *8812:RESET_B 7.51159e-05
56 *366:32 *511:62 3.71369e-05
57 *366:43 *511:72 0.000191148
58 *376:10 *511:62 2.29192e-05
59 *389:99 *8791:RESET_B 0.00018745
60 *423:8 *8850:RESET_B 1.53169e-05
61 *423:8 *511:44 0.000463822
62 *423:8 *511:62 3.0817e-05
63 *423:12 *511:44 0.000332814
64 *423:14 *8841:RESET_B 0.000308575
65 *423:14 *511:6 2.93845e-05
66 *423:14 *511:26 3.21322e-05
67 *430:123 *8842:RESET_B 0
68 *430:123 *511:72 0
69 *433:21 *511:110 0.000204858
70 *439:8 *8801:RESET_B 0
71 *439:8 *511:110 0
72 *442:41 *511:72 0.000339893
73 *453:12 *511:42 0
74 *454:25 *8810:RESET_B 0
75 *454:25 *511:42 4.49946e-05
76 *454:31 *511:110 0.000105021
77 *487:10 *8848:RESET_B 4.70852e-05
78 *487:10 *511:62 9.5877e-05
*RES
1 *8871:X *511:6 23.6214 
2 *511:6 *8841:RESET_B 6.76321 
3 *8841:RESET_B *511:26 47.4104 
4 *511:26 *511:28 3.00357 
5 *511:28 *8809:RESET_B 1.04607 
6 *511:28 *511:42 31.5536 
7 *511:42 *511:44 37.3064 
8 *511:44 *8850:RESET_B 0.548929 
9 *511:44 *511:62 40.44 
10 *511:62 *8848:RESET_B 0.548929 
11 *511:62 *511:72 20.4271 
12 *511:72 *8812:RESET_B 16.5018 
13 *511:72 *8842:RESET_B 18.0243 
14 *511:26 *8810:RESET_B 36.1314 
15 *8810:RESET_B *511:110 36.8018 
16 *511:110 *8801:RESET_B 41.2036 
17 *511:110 *8804:RESET_B 17.4546 
18 *511:6 *8791:RESET_B 35.4271 
*END

*D_NET *512 0.0366988
*CONN
*I *8871:A I *D sky130_fd_sc_hd__buf_4
*I *8847:RESET_B I *D sky130_fd_sc_hd__dfrtp_1
*I *8833:RESET_B I *D sky130_fd_sc_hd__dfrtp_1
*I *8808:RESET_B I *D sky130_fd_sc_hd__dfrtp_1
*I *8806:RESET_B I *D sky130_fd_sc_hd__dfrtp_2
*I *8845:RESET_B I *D sky130_fd_sc_hd__dfrtp_1
*I *8827:RESET_B I *D sky130_fd_sc_hd__dfrtp_1
*I *8824:RESET_B I *D sky130_fd_sc_hd__dfrtp_1
*I *8872:X O *D sky130_fd_sc_hd__clkbuf_4
*CAP
1 *8871:A 0
2 *8847:RESET_B 0.000429554
3 *8833:RESET_B 0
4 *8808:RESET_B 3.72986e-05
5 *8806:RESET_B 2.01999e-05
6 *8845:RESET_B 0.00197552
7 *8827:RESET_B 0.00214451
8 *8824:RESET_B 0.000890819
9 *8872:X 0.000106345
10 *512:49 0.00134681
11 *512:45 0.00121453
12 *512:34 0.00132523
13 *512:32 0.00107959
14 *512:28 0.00252517
15 *512:26 0.00262791
16 *512:24 0.000466574
17 *512:14 0.00100464
18 *512:10 0.000644405
19 *8806:RESET_B *565:14 2.56175e-05
20 *8824:RESET_B *565:14 2.71046e-05
21 *8847:RESET_B *591:14 0
22 *8847:RESET_B *600:14 0
23 *512:10 *514:57 0.000401899
24 *512:10 *613:37 0.00031495
25 *512:14 *614:35 0
26 *512:24 *585:22 0.000615876
27 *512:24 *600:14 0
28 *512:28 *600:14 0
29 *512:34 *574:10 0.00269605
30 *8684:S *512:49 0
31 *8690:A1 *8847:RESET_B 0
32 *8690:A1 *512:28 0
33 *8728:S *8824:RESET_B 5.12254e-05
34 *8757:A *512:14 8.40712e-05
35 *8758:A1 *512:24 2.70366e-05
36 *8791:RESET_B *512:14 9.77033e-05
37 *8827:CLK *8827:RESET_B 0.000223988
38 *8827:CLK *8845:RESET_B 0.000208526
39 *8841:CLK *8847:RESET_B 0
40 *8841:RESET_B *512:24 0.000395901
41 *8845:D *8845:RESET_B 3.76692e-06
42 *240:10 *8824:RESET_B 0
43 *257:8 *8847:RESET_B 5.93485e-05
44 *275:24 *512:14 1.34308e-05
45 *275:30 *512:14 9.29757e-05
46 *275:78 *512:14 0
47 *310:10 *512:10 3.7122e-06
48 *310:10 *512:14 6.68587e-05
49 *310:12 *512:14 0.000107651
50 *321:12 *512:14 0
51 *328:10 *512:49 0
52 *344:134 *512:49 0
53 *344:138 *8824:RESET_B 0.000192022
54 *344:155 *8824:RESET_B 9.39159e-05
55 *366:18 *8847:RESET_B 0.000150933
56 *388:8 *8824:RESET_B 0
57 *389:18 *512:45 6.69072e-05
58 *389:99 *512:14 0.000212085
59 *406:8 *8845:RESET_B 8.92557e-05
60 *408:10 *512:24 0.00018155
61 *414:8 *512:28 0.0038668
62 *414:8 *512:32 0.000537407
63 *414:8 *512:34 0.000151817
64 *435:20 *8827:RESET_B 0.000179603
65 *439:8 *512:28 0
66 *439:24 *8845:RESET_B 0.00201781
67 *439:26 *8845:RESET_B 5.73151e-05
68 *440:12 *512:28 0
69 *457:12 *8827:RESET_B 0.000350114
70 *464:8 *512:28 0.000410727
71 *464:8 *512:32 0.00105013
72 *464:8 *512:34 0.00299234
73 *464:23 *512:28 0.000178592
74 *478:8 *512:24 5.21127e-05
75 *486:8 *8847:RESET_B 7.3572e-05
76 *489:49 *8847:RESET_B 0.000437057
77 *511:26 *8847:RESET_B 0
*RES
1 *8872:X *512:10 42.93 
2 *512:10 *512:14 26.4136 
3 *512:14 *512:24 43.5057 
4 *512:24 *512:26 15 
5 *512:26 *512:28 59.9989 
6 *512:28 *512:32 14.5104 
7 *512:32 *512:34 39.2329 
8 *512:34 *512:45 40.0464 
9 *512:45 *512:49 26.0614 
10 *512:49 *8824:RESET_B 41.5793 
11 *8824:RESET_B *8827:RESET_B 6.83571 
12 *8827:RESET_B *8845:RESET_B 32.6043 
13 *512:49 *8806:RESET_B 0.548929 
14 *512:45 *8808:RESET_B 15.8493 
15 *512:32 *8833:RESET_B 15 
16 *512:26 *8847:RESET_B 25.6161 
17 *512:14 *8871:A 23 
*END

*D_NET *513 0.0178482
*CONN
*I *8805:RESET_B I *D sky130_fd_sc_hd__dfrtp_4
*I *8822:RESET_B I *D sky130_fd_sc_hd__dfrtp_1
*I *8825:RESET_B I *D sky130_fd_sc_hd__dfrtp_4
*I *8821:RESET_B I *D sky130_fd_sc_hd__dfrtp_4
*I *8826:RESET_B I *D sky130_fd_sc_hd__dfrtp_4
*I *8856:RESET_B I *D sky130_fd_sc_hd__dfrtp_1
*I *8839:RESET_B I *D sky130_fd_sc_hd__dfrtp_2
*I *8815:RESET_B I *D sky130_fd_sc_hd__dfrtp_1
*I *8828:RESET_B I *D sky130_fd_sc_hd__dfrtp_2
*I *8835:RESET_B I *D sky130_fd_sc_hd__dfrtp_4
*I *8873:X O *D sky130_fd_sc_hd__buf_4
*CAP
1 *8805:RESET_B 6.62916e-05
2 *8822:RESET_B 0.000108119
3 *8825:RESET_B 4.03481e-05
4 *8821:RESET_B 0.000198712
5 *8826:RESET_B 0.000509457
6 *8856:RESET_B 0
7 *8839:RESET_B 6.00217e-05
8 *8815:RESET_B 7.73497e-05
9 *8828:RESET_B 0.000160724
10 *8835:RESET_B 0.000802657
11 *8873:X 6.18023e-05
12 *513:69 0.00263204
13 *513:52 0.0012399
14 *513:46 0.00414069
15 *513:26 0.000566841
16 *513:16 0.00133494
17 *513:14 0.000425737
18 *513:12 0.00100771
19 *513:6 0.000863826
20 *8821:RESET_B *553:24 0
21 *8825:RESET_B *568:36 1.19201e-05
22 *8835:RESET_B *568:36 8.84817e-06
23 *513:6 *514:57 3.3577e-05
24 *513:12 *514:57 1.94693e-05
25 *513:12 *568:36 5.62955e-05
26 *513:14 *568:36 1.03422e-05
27 *513:16 *568:36 1.68687e-05
28 *513:46 *542:8 0
29 *513:69 *542:8 0
30 *8703:A1 *8839:RESET_B 0.000166513
31 *8726:S *8821:RESET_B 5.3304e-05
32 *8726:S *8826:RESET_B 0
33 *8745:A1 *513:46 4.51233e-05
34 *8805:CLK *8821:RESET_B 0
35 *8825:CLK *8835:RESET_B 5.97178e-05
36 *8825:CLK *513:46 0
37 *241:10 *8826:RESET_B 0.000352538
38 *242:10 *8826:RESET_B 0
39 *311:48 *8821:RESET_B 0.00011569
40 *311:48 *8826:RESET_B 6.43031e-05
41 *344:29 *8821:RESET_B 0.000159609
42 *344:59 *8822:RESET_B 0.000330135
43 *350:8 *8821:RESET_B 2.9938e-05
44 *350:8 *8826:RESET_B 3.22879e-05
45 *355:139 *513:46 3.70094e-05
46 *355:141 *8828:RESET_B 0.000135547
47 *355:141 *513:46 0.000239765
48 *360:10 *513:46 3.7122e-06
49 *366:99 *8839:RESET_B 0.000166513
50 *388:70 *8826:RESET_B 1.01436e-05
51 *388:80 *8828:RESET_B 0.000226606
52 *437:46 *8828:RESET_B 5.40024e-05
53 *446:8 *8815:RESET_B 1.05235e-05
54 *446:8 *513:52 1.05235e-05
55 *453:35 *8821:RESET_B 4.34876e-05
56 *454:25 *8805:RESET_B 4.58924e-05
57 *471:14 *513:12 1.94812e-05
58 *471:29 *513:12 0.000191922
59 *472:8 *8835:RESET_B 0.000224649
60 *483:8 *8822:RESET_B 0.000166666
61 *486:21 *8805:RESET_B 7.03766e-05
62 *492:34 *513:46 0.000316338
63 *497:12 *513:69 1.14452e-05
64 *498:27 *8826:RESET_B 0
*RES
1 *8873:X *513:6 24.0979 
2 *513:6 *513:12 11.2686 
3 *513:12 *513:14 2.05071 
4 *513:14 *513:16 2.52714 
5 *513:16 *8835:RESET_B 10.7196 
6 *8835:RESET_B *513:26 15 
7 *513:26 *8828:RESET_B 19.3604 
8 *513:26 *513:46 39.0521 
9 *513:46 *513:52 32.7936 
10 *513:52 *8815:RESET_B 1.02536 
11 *513:52 *8839:RESET_B 32.2579 
12 *513:46 *513:69 49.0929 
13 *513:69 *8856:RESET_B 15 
14 *513:16 *8826:RESET_B 37.1982 
15 *8826:RESET_B *8821:RESET_B 34.7125 
16 *513:14 *8825:RESET_B 1.04607 
17 *513:12 *8822:RESET_B 34.3707 
18 *513:6 *8805:RESET_B 31.9057 
*END

*D_NET *514 0.0594548
*CONN
*I *8803:RESET_B I *D sky130_fd_sc_hd__dfrtp_1
*I *8843:RESET_B I *D sky130_fd_sc_hd__dfrtp_2
*I *8813:RESET_B I *D sky130_fd_sc_hd__dfrtp_1
*I *8829:RESET_B I *D sky130_fd_sc_hd__dfrtp_1
*I *8830:RESET_B I *D sky130_fd_sc_hd__dfrtp_1
*I *8836:RESET_B I *D sky130_fd_sc_hd__dfrtp_1
*I *8823:RESET_B I *D sky130_fd_sc_hd__dfrtp_1
*I *8873:A I *D sky130_fd_sc_hd__buf_4
*I *8793:RESET_B I *D sky130_fd_sc_hd__dfrtp_1
*I *8851:RESET_B I *D sky130_fd_sc_hd__dfrtp_1
*I *8874:X O *D sky130_fd_sc_hd__clkbuf_8
*CAP
1 *8803:RESET_B 3.6701e-05
2 *8843:RESET_B 0
3 *8813:RESET_B 0.000238839
4 *8829:RESET_B 1.18325e-05
5 *8830:RESET_B 4.42216e-06
6 *8836:RESET_B 6.27914e-06
7 *8823:RESET_B 0.000562977
8 *8873:A 4.01155e-05
9 *8793:RESET_B 0.00187274
10 *8851:RESET_B 0.000211291
11 *8874:X 9.7839e-05
12 *514:163 0.00180658
13 *514:141 0.00260392
14 *514:127 0.00200918
15 *514:113 0.0029533
16 *514:99 0.00361584
17 *514:97 0.00209952
18 *514:95 0.00452672
19 *514:93 0.00457224
20 *514:78 0.00116703
21 *514:70 0.00134376
22 *514:57 0.00221893
23 *514:55 0.00317801
24 *514:32 0.00139995
25 *514:24 0.00149986
26 *514:8 0.000551698
27 *8813:RESET_B *542:8 0
28 *8813:RESET_B *551:36 0.0002529
29 *8851:RESET_B *516:10 2.24608e-05
30 *8851:RESET_B *516:18 4.98718e-06
31 *8851:RESET_B *516:61 0.000179769
32 *8851:RESET_B *568:22 0.000110922
33 *514:24 *568:22 0.000110941
34 *514:57 *8650:C_N 0.00104712
35 *514:57 *8872:A 1.21972e-05
36 *514:57 *516:22 1.21972e-05
37 *514:57 *568:36 0.000571488
38 *514:57 *613:37 2.18409e-05
39 *514:93 *545:16 0.000177514
40 *514:113 *551:20 0.00027522
41 *514:141 *551:36 0.000453694
42 *514:163 *8739:A0 1.40958e-05
43 *514:163 *551:36 0.000408706
44 m_rdata[10] *514:70 6.17437e-06
45 m_rdata[10] *514:78 2.24608e-05
46 *8778:A1 *8851:RESET_B 0.000398664
47 *8778:A1 *514:8 5.3304e-05
48 *8803:D *8823:RESET_B 0.0002263
49 *8813:D *8813:RESET_B 6.17437e-06
50 *8829:CLK *8829:RESET_B 1.94335e-05
51 *8829:CLK *514:141 0.000316218
52 *8830:CLK *8829:RESET_B 1.24376e-05
53 *8830:CLK *514:127 0.00139302
54 *8830:D *514:127 0.000143655
55 *3:11 *514:95 0.00105677
56 *209:8 *514:55 0
57 *239:8 *514:95 5.21127e-05
58 *310:10 *514:57 1.89178e-05
59 *321:126 *514:57 0.000140259
60 *321:177 *514:57 0.00204182
61 *325:10 *8823:RESET_B 6.16531e-05
62 *366:113 *514:163 8.4047e-05
63 *369:10 *514:163 0
64 *390:44 *8813:RESET_B 0.000181214
65 *391:28 *514:55 0.000317553
66 *391:37 *514:55 0.000172403
67 *391:43 *514:93 5.25858e-05
68 *391:49 *8823:RESET_B 7.90464e-05
69 *391:127 *514:113 0.000514931
70 *391:136 *8836:RESET_B 1.53169e-05
71 *391:136 *514:99 0.000119645
72 *391:136 *514:113 8.1576e-05
73 *393:12 *514:55 0
74 *394:25 *8851:RESET_B 6.7177e-06
75 *394:25 *514:24 0.00045386
76 *394:25 *514:70 0.00019747
77 *412:30 *514:78 0.000222104
78 *418:20 *8851:RESET_B 2.33744e-05
79 *418:24 *514:70 0.000834161
80 *418:28 *514:70 0.000319819
81 *418:28 *514:78 0.000352222
82 *423:22 *514:78 4.93677e-05
83 *431:14 *8793:RESET_B 6.24895e-05
84 *431:14 *514:55 1.98065e-05
85 *431:23 *8793:RESET_B 0.00209932
86 *431:23 *514:32 0.000465438
87 *432:8 *514:78 6.74969e-06
88 *437:14 *8851:RESET_B 5.20202e-05
89 *446:23 *514:163 3.97502e-05
90 *471:35 *514:24 0.000246757
91 *471:35 *514:70 0.00216131
92 *473:23 *514:99 0.000949206
93 *480:12 *514:163 0.000180218
94 *480:22 *514:163 1.32314e-05
95 *499:25 *8830:RESET_B 2.8521e-05
96 *499:25 *514:113 0.00010655
97 *499:25 *514:127 0.000216018
98 *512:10 *514:57 0.000401899
99 *513:6 *514:57 3.3577e-05
100 *513:12 *514:57 1.94693e-05
*RES
1 *8874:X *514:8 39.5743 
2 *514:8 *8851:RESET_B 21.3282 
3 *514:8 *514:24 7.37429 
4 *514:24 *514:32 25.6679 
5 *514:32 *8793:RESET_B 24.8468 
6 *8793:RESET_B *514:55 47.4311 
7 *514:55 *514:57 50.17 
8 *514:57 *8873:A 23.8493 
9 *514:24 *514:70 44.7664 
10 *514:70 *514:78 40.585 
11 *514:78 *8823:RESET_B 38.8036 
12 *8823:RESET_B *514:93 16.9782 
13 *514:93 *514:95 86.42 
14 *514:95 *514:97 15 
15 *514:97 *514:99 42.0707 
16 *514:99 *8836:RESET_B 0.548929 
17 *514:99 *514:113 27.4879 
18 *514:113 *8830:RESET_B 0.548929 
19 *514:113 *514:127 27.4879 
20 *514:127 *8829:RESET_B 0.548929 
21 *514:127 *514:141 12.0039 
22 *514:141 *8813:RESET_B 36.6493 
23 *514:141 *514:163 43.0161 
24 *514:163 *8843:RESET_B 15 
25 *514:78 *8803:RESET_B 1.04607 
*END

*D_NET *515 0.0270206
*CONN
*I *8716:A0 I *D sky130_fd_sc_hd__mux2_1
*I *8901:X O *D sky130_fd_sc_hd__clkbuf_2
*CAP
1 *8716:A0 0
2 *8901:X 0
3 *515:14 0.00135953
4 *515:12 0.00135953
5 *515:10 0.00333051
6 *515:8 0.0033524
7 *515:6 0.00691616
8 *515:4 0.00689428
9 *515:14 *526:34 1.94418e-05
10 *8606:A *515:10 0.000179613
11 *238:10 *515:14 0.000348447
12 *344:75 *515:14 0
13 *344:84 *515:14 0.0021682
14 *346:16 *515:14 0.000308675
15 *350:20 *515:14 3.68907e-05
16 *396:6 *515:10 0.000746902
17 *483:8 *515:14 0
*RES
1 *8901:X *515:4 23 
2 *515:4 *515:6 127.113 
3 *515:6 *515:8 0.497143 
4 *515:8 *515:10 59.4604 
5 *515:10 *515:12 15 
6 *515:12 *515:14 36.7679 
7 *515:14 *8716:A0 38 
*END

*D_NET *516 0.0292861
*CONN
*I *8802:RESET_B I *D sky130_fd_sc_hd__dfrtp_2
*I *8807:RESET_B I *D sky130_fd_sc_hd__dfrtp_1
*I *8874:A I *D sky130_fd_sc_hd__clkbuf_8
*I *8792:RESET_B I *D sky130_fd_sc_hd__dfrtp_1
*I *8853:RESET_B I *D sky130_fd_sc_hd__dfrtp_1
*I *8872:A I *D sky130_fd_sc_hd__clkbuf_4
*I *8875:X O *D sky130_fd_sc_hd__clkbuf_4
*CAP
1 *8802:RESET_B 0.000596654
2 *8807:RESET_B 0.00125785
3 *8874:A 0
4 *8792:RESET_B 0.000393899
5 *8853:RESET_B 0.000100357
6 *8872:A 0.000121644
7 *8875:X 6.04911e-05
8 *516:61 0.00240766
9 *516:37 0.00298343
10 *516:35 0.00323164
11 *516:22 0.000583275
12 *516:20 0.00330863
13 *516:18 0.00311804
14 *516:10 0.000930023
15 *8792:RESET_B *8578:B_N 3.83778e-05
16 *8792:RESET_B *613:29 2.3529e-05
17 *8792:RESET_B *613:37 0
18 *8792:RESET_B *614:10 0.000156777
19 *8792:RESET_B *614:25 7.30798e-05
20 *8807:RESET_B *569:10 0
21 *8872:A *613:37 0.000185428
22 *516:10 *547:16 2.64616e-05
23 *516:35 *613:37 3.47781e-05
24 *516:35 *614:35 0
25 *516:37 *563:10 0
26 *8778:A1 *516:18 8.52481e-05
27 *8778:A1 *516:20 0.000187129
28 *8778:A1 *516:61 7.64851e-06
29 *8851:RESET_B *516:10 2.24608e-05
30 *8851:RESET_B *516:18 4.98718e-06
31 *8851:RESET_B *516:61 0.000179769
32 *275:8 *8792:RESET_B 0.000184259
33 *321:12 *8792:RESET_B 0
34 *321:126 *8792:RESET_B 3.98859e-05
35 *321:126 *516:20 6.17437e-06
36 *321:126 *516:22 7.59794e-05
37 *321:126 *516:35 6.48142e-05
38 *321:130 *516:35 0
39 *321:130 *516:37 0
40 *321:140 *516:37 0
41 *321:177 *516:20 0.003201
42 *329:12 *8807:RESET_B 0
43 *379:10 *516:37 0
44 *389:117 *8802:RESET_B 0.000986559
45 *391:12 *516:37 0
46 *391:20 *8853:RESET_B 5.18019e-05
47 *408:16 *8792:RESET_B 0
48 *412:14 *8802:RESET_B 0.000500761
49 *437:14 *516:18 0.000213551
50 *465:23 *8802:RESET_B 0.00230877
51 *490:10 *8807:RESET_B 0.00110089
52 *490:10 *516:61 0.000408015
53 *514:57 *8872:A 1.21972e-05
54 *514:57 *516:22 1.21972e-05
*RES
1 *8875:X *516:10 38.9425 
2 *516:10 *516:18 20.6861 
3 *516:18 *516:20 63.9864 
4 *516:20 *516:22 2.05071 
5 *516:22 *8872:A 25.5271 
6 *516:22 *516:35 21.4939 
7 *516:35 *516:37 54.6339 
8 *516:37 *8853:RESET_B 16.9782 
9 *516:20 *8792:RESET_B 37.54 
10 *516:18 *8874:A 23 
11 *516:10 *516:61 13.3504 
12 *516:61 *8807:RESET_B 44.0829 
13 *516:61 *8802:RESET_B 42.2496 
*END

*D_NET *517 0.000961636
*CONN
*I *8734:A1 I *D sky130_fd_sc_hd__mux2_1
*I *8876:X O *D sky130_fd_sc_hd__dlygate4sd3_1
*CAP
1 *8734:A1 0
2 *8876:X 0.000237698
3 *517:6 0.000237698
4 *517:6 *8734:A0 0.00048624
*RES
1 *8876:X *517:6 28.3857 
2 *517:6 *8734:A1 23 
*END

*D_NET *518 0.00123732
*CONN
*I *8720:A1 I *D sky130_fd_sc_hd__mux2_1
*I *8879:X O *D sky130_fd_sc_hd__dlygate4sd3_1
*CAP
1 *8720:A1 0
2 *8879:X 0.000353802
3 *518:6 0.000353802
4 *518:6 *530:30 0.000529715
*RES
1 *8879:X *518:6 28.8621 
2 *518:6 *8720:A1 23 
*END

*D_NET *519 0.0011042
*CONN
*I *8764:A1 I *D sky130_fd_sc_hd__mux2_1
*I *8880:X O *D sky130_fd_sc_hd__dlygate4sd3_1
*CAP
1 *8764:A1 5.88012e-05
2 *8880:X 0.000260222
3 *519:10 0.000319023
4 *8764:A1 *570:22 0.000228903
5 *8764:S *8764:A1 4.39278e-05
6 *8880:A *519:10 1.59094e-05
7 *482:8 *519:10 0.000108681
8 *482:25 *519:10 6.87362e-05
9 *487:26 *519:10 0
*RES
1 *8880:X *519:10 42.0807 
2 *519:10 *8764:A1 40.5271 
*END

*D_NET *520 0.00200405
*CONN
*I *8658:A1 I *D sky130_fd_sc_hd__mux2_1
*I *8881:X O *D sky130_fd_sc_hd__dlygate4sd3_1
*CAP
1 *8658:A1 0.000881102
2 *8881:X 6.87722e-05
3 *520:8 0.000949874
4 *296:151 *520:8 2.5415e-05
5 *311:133 *8658:A1 7.88828e-05
6 *460:12 *520:8 0
*RES
1 *8881:X *520:8 39.2014 
2 *520:8 *8658:A1 49.9521 
*END

*D_NET *521 0.000854358
*CONN
*I *8699:A1 I *D sky130_fd_sc_hd__mux2_1
*I *8882:X O *D sky130_fd_sc_hd__dlygate4sd3_1
*CAP
1 *8699:A1 0
2 *8882:X 0.000357131
3 *521:6 0.000357131
4 *426:14 *521:6 8.17547e-05
5 *444:12 *521:6 5.83407e-05
*RES
1 *8882:X *521:6 28.3857 
2 *521:6 *8699:A1 23 
*END

*D_NET *522 0.000224196
*CONN
*I *8580:A I *D sky130_fd_sc_hd__or2b_1
*I *8883:X O *D sky130_fd_sc_hd__dlygate4sd3_1
*CAP
1 *8580:A 6.20076e-05
2 *8883:X 6.20076e-05
3 *418:8 *8580:A 0.00010018
*RES
1 *8883:X *8580:A 47.0979 
*END

*D_NET *523 0.000923866
*CONN
*I *8678:A1 I *D sky130_fd_sc_hd__mux2_1
*I *8884:X O *D sky130_fd_sc_hd__dlygate4sd3_1
*CAP
1 *8678:A1 0
2 *8884:X 0.000274721
3 *523:6 0.000274721
4 *8884:A *523:6 0.000137651
5 *322:100 *523:6 5.67058e-05
6 *412:26 *523:6 3.7122e-06
7 *503:20 *523:6 0.000176355
*RES
1 *8884:X *523:6 28.8621 
2 *523:6 *8678:A1 23 
*END

*D_NET *524 0.00107975
*CONN
*I *8774:A1 I *D sky130_fd_sc_hd__mux2_1
*I *8885:X O *D sky130_fd_sc_hd__dlygate4sd3_1
*CAP
1 *8774:A1 0
2 *8885:X 0.000177522
3 *524:6 0.000177522
4 *524:6 *600:6 0.000310813
5 *8774:S *524:6 5.82853e-05
6 *8885:A *524:6 0.000272918
7 *366:51 *524:6 8.26843e-05
*RES
1 *8885:X *524:6 29.3386 
2 *524:6 *8774:A1 23 
*END

*D_NET *525 0.00175101
*CONN
*I *8664:A1 I *D sky130_fd_sc_hd__mux2_1
*I *8886:X O *D sky130_fd_sc_hd__dlygate4sd3_1
*CAP
1 *8664:A1 0.000194409
2 *8886:X 0.00032334
3 *525:10 0.000517749
4 *8664:S *8664:A1 0
5 *8797:RESET_B *525:10 5.50106e-05
6 *8886:A *525:10 5.50106e-05
7 *311:114 *8664:A1 0.000180812
8 *311:133 *8664:A1 1.76557e-05
9 *311:133 *525:10 0
10 *460:12 *525:10 1.83564e-05
11 *509:102 *525:10 0.000388668
*RES
1 *8886:X *525:10 45.8714 
2 *525:10 *8664:A1 42.93 
*END

*D_NET *526 0.0460161
*CONN
*I *8718:A0 I *D sky130_fd_sc_hd__mux2_1
*I *8902:X O *D sky130_fd_sc_hd__buf_2
*CAP
1 *8718:A0 0
2 *8902:X 0.000239739
3 *526:34 0.0057677
4 *526:32 0.00637368
5 *526:26 0.00727755
6 *526:24 0.00838562
7 *526:20 0.00305737
8 *526:12 0.00147368
9 *526:6 0.0003701
10 *526:6 *594:6 0.000232908
11 *526:26 *548:22 0.000684843
12 *526:26 *548:26 0.00067758
13 m_rdata[23] *526:24 0.000143655
14 m_rdata[6] *526:24 0.000143655
15 m_rdata[8] *526:20 0.000230604
16 paddr[1] *526:24 0.000143655
17 paddr[20] *526:32 1.01436e-05
18 paddr[3] *526:20 0.000100069
19 paddr[4] *526:24 0.000143655
20 pwdata[18] *526:20 0.000187752
21 pwdata[7] *526:24 0.000143655
22 *8891:A *526:24 0.00010018
23 *8903:A *526:26 3.22879e-05
24 *8909:A *526:26 3.22879e-05
25 *8916:A *526:26 3.22879e-05
26 *8920:A *526:26 3.22879e-05
27 *8926:A *526:20 0.000116096
28 *8941:A *526:26 3.22879e-05
29 *8944:A *526:20 5.50106e-05
30 *8947:A *526:26 0.00014196
31 *8952:A *526:26 3.22879e-05
32 *8961:A *526:26 5.56356e-05
33 *8976:A *526:26 9.84851e-05
34 *8987:A *526:26 9.61128e-05
35 *9001:A *526:26 0.000396238
36 *9015:A *526:24 0.000230604
37 *36:8 *526:26 0.000272383
38 *39:8 *526:26 0.000272383
39 *63:8 *526:26 0.000489755
40 *117:8 *526:26 0.000272383
41 *152:15 *526:6 0.000274078
42 *182:8 *526:26 0.000272383
43 *344:75 *526:34 6.48049e-05
44 *344:84 *526:34 0.00150547
45 *344:101 *526:34 0.000170444
46 *344:103 *526:32 0
47 *344:109 *526:32 0
48 *390:10 *526:34 0
49 *390:38 *526:32 0
50 *390:38 *526:34 0
51 *390:79 *526:32 0
52 *401:22 *526:6 0.00113666
53 *425:16 *526:24 6.33508e-05
54 *444:12 *526:34 0
55 *444:27 *526:32 0.00086405
56 *444:27 *526:34 2.97759e-06
57 *458:33 *526:12 0.000194309
58 *499:16 *526:32 0
59 *502:31 *526:24 1.70074e-05
60 *502:31 *526:26 0.00148132
61 *502:47 *526:24 0.00137127
62 *515:14 *526:34 1.94418e-05
*RES
1 *8902:X *526:6 35.5321 
2 *526:6 *526:12 32.9621 
3 *526:12 *526:20 25.81 
4 *526:20 *526:24 41.8532 
5 *526:24 *526:26 107.58 
6 *526:26 *526:32 27.9982 
7 *526:32 *526:34 121.728 
8 *526:34 *8718:A0 38 
*END

*D_NET *527 0.001743
*CONN
*I *8666:A1 I *D sky130_fd_sc_hd__mux2_1
*I *8877:X O *D sky130_fd_sc_hd__dlygate4sd3_1
*CAP
1 *8666:A1 0
2 *8877:X 0.000585276
3 *527:8 0.000585276
4 *527:8 *534:16 2.81066e-05
5 *8641:A *527:8 7.27085e-05
6 *296:63 *527:8 2.07355e-05
7 *416:8 *527:8 0.000183733
8 *461:14 *527:8 0.000267167
*RES
1 *8877:X *527:8 33.6471 
2 *527:8 *8666:A1 23 
*END

*D_NET *528 0.000903357
*CONN
*I *8732:A1 I *D sky130_fd_sc_hd__mux2_1
*I *8878:X O *D sky130_fd_sc_hd__dlygate4sd3_1
*CAP
1 *8732:A1 0
2 *8878:X 0.000343885
3 *528:6 0.000343885
4 *8734:S *528:6 0.000135811
5 *355:117 *528:6 2.47702e-05
6 *499:16 *528:6 5.50049e-05
*RES
1 *8878:X *528:6 28.3857 
2 *528:6 *8732:A1 23 
*END

*D_NET *529 0.0150669
*CONN
*I *8660:A0 I *D sky130_fd_sc_hd__mux2_1
*I *8903:X O *D sky130_fd_sc_hd__buf_1
*CAP
1 *8660:A0 0.000125296
2 *8903:X 0
3 *529:8 0.00735247
4 *529:6 0.00722718
5 m_ready *529:8 0
6 *8660:A1 *8660:A0 5.67058e-05
7 *8660:S *529:8 0
8 *311:110 *529:8 0
9 *383:90 *529:8 0.000179893
10 *404:16 *8660:A0 0.000125404
*RES
1 *8903:X *529:6 38 
2 *529:6 *529:8 137.481 
3 *529:8 *8660:A0 41.48 
*END

*D_NET *530 0.0162027
*CONN
*I *8720:A0 I *D sky130_fd_sc_hd__mux2_1
*I *8904:X O *D sky130_fd_sc_hd__buf_1
*CAP
1 *8720:A0 0
2 *8904:X 0
3 *530:30 0.000678307
4 *530:24 0.00155246
5 *530:20 0.00150494
6 *530:14 0.00188685
7 *530:6 0.00125607
8 *530:14 *585:12 0
9 *530:24 *585:16 0.00229439
10 m_rdata[24] *530:20 0.00012758
11 m_rdata[29] *530:14 2.26497e-05
12 m_rdata[4] *530:14 1.27424e-05
13 *11:13 *530:20 6.17437e-06
14 *27:13 *530:14 4.32584e-05
15 *144:15 *530:14 2.2781e-05
16 *344:88 *530:30 5.70419e-05
17 *412:40 *530:20 0.00104489
18 *418:30 *530:14 0.00201857
19 *418:30 *530:20 9.94571e-05
20 *423:22 *530:14 1.06693e-05
21 *423:22 *530:20 0.00152295
22 *423:30 *530:14 0.00137187
23 *456:21 *530:30 0.000139346
24 *471:35 *530:14 0
25 *518:6 *530:30 0.000529715
*RES
1 *8904:X *530:6 38 
2 *530:6 *530:14 39.9889 
3 *530:14 *530:20 37.5682 
4 *530:20 *530:24 44.3729 
5 *530:24 *530:30 28.0293 
6 *530:30 *8720:A0 23 
*END

*D_NET *531 0.0225372
*CONN
*I *8722:A0 I *D sky130_fd_sc_hd__mux2_1
*I *8905:X O *D sky130_fd_sc_hd__buf_1
*CAP
1 *8722:A0 0
2 *8905:X 6.4883e-05
3 *531:20 0.000421148
4 *531:14 0.00254237
5 *531:12 0.00217043
6 *531:8 0.000114088
7 *531:8 *598:14 8.62783e-05
8 *531:14 *537:12 6.51746e-05
9 *531:14 *557:12 0.0030791
10 *531:14 *598:22 0.00113406
11 *8911:A *531:20 0
12 *240:10 *531:20 0
13 *416:14 *531:14 0.000607034
14 *416:28 *531:14 0.000268074
15 *442:57 *531:14 0.000398836
16 *448:14 *531:14 7.06229e-05
17 *448:20 *531:14 0.00225399
18 *451:24 *531:14 0.000580726
19 *462:14 *531:14 0.00277478
20 *477:34 *531:14 0.000688048
21 *477:36 *531:14 0.00234524
22 *495:12 *531:20 0
23 *495:16 *531:14 1.22822e-05
24 *495:22 *531:14 0.00286003
*RES
1 *8905:X *531:8 39.2014 
2 *531:8 *531:12 15.8493 
3 *531:12 *531:14 110.2 
4 *531:14 *531:20 35.7793 
5 *531:20 *8722:A0 23 
*END

*D_NET *532 0.0175212
*CONN
*I *8662:A0 I *D sky130_fd_sc_hd__mux2_1
*I *8906:X O *D sky130_fd_sc_hd__buf_1
*CAP
1 *8662:A0 7.55819e-05
2 *8906:X 5.74087e-05
3 *532:10 0.00642251
4 *532:8 0.00640433
5 *532:8 *534:8 0.000447976
6 *532:10 *598:34 0
7 *311:86 *8662:A0 0.000140935
8 *311:86 *532:10 0
9 *321:48 *532:10 0.00245813
10 *321:78 *532:10 0.000909987
11 *383:26 *532:10 0.0001581
12 *462:10 *532:10 0
13 *484:28 *532:8 0.000446281
*RES
1 *8906:X *532:8 42.9093 
2 *532:8 *532:10 143.467 
3 *532:10 *8662:A0 39.5743 
*END

*D_NET *533 0.00895827
*CONN
*I *8664:A0 I *D sky130_fd_sc_hd__mux2_1
*I *8907:X O *D sky130_fd_sc_hd__clkbuf_1
*CAP
1 *8664:A0 0
2 *8907:X 0
3 *533:14 0.0021487
4 *533:8 0.00447914
5 *533:4 0.00233044
6 *386:65 *533:14 0
*RES
1 *8907:X *533:4 23 
2 *533:4 *533:8 30.3982 
3 *533:8 *533:14 43.7411 
4 *533:14 *8664:A0 38 
*END

*D_NET *534 0.00872226
*CONN
*I *8666:A0 I *D sky130_fd_sc_hd__mux2_1
*I *8908:X O *D sky130_fd_sc_hd__buf_1
*CAP
1 *8666:A0 0
2 *8908:X 2.34823e-05
3 *534:16 0.000485546
4 *534:8 0.00146521
5 *534:6 0.00100315
6 *534:8 *555:10 5.67058e-05
7 *534:8 *588:14 0.0010033
8 *534:8 *606:8 6.16045e-05
9 *534:16 *576:22 0
10 *8670:S *534:16 0.000422378
11 *8798:RESET_B *534:16 4.23714e-05
12 *8929:A *534:8 0.00014196
13 *8994:A *534:8 0.000313255
14 *9078:A *534:8 0.000506464
15 *296:63 *534:16 0.000136738
16 *297:10 *534:16 3.7122e-06
17 *311:163 *534:16 6.48049e-05
18 *484:22 *534:16 5.08836e-05
19 *484:26 *534:8 0.00116972
20 *484:28 *534:8 0.0012949
21 *488:14 *534:16 0
22 *527:8 *534:16 2.81066e-05
23 *532:8 *534:8 0.000447976
*RES
1 *8908:X *534:6 23.4971 
2 *534:6 *534:8 43.9764 
3 *534:8 *534:16 40.5229 
4 *534:16 *8666:A0 23 
*END

*D_NET *535 0.0156729
*CONN
*I *8668:A0 I *D sky130_fd_sc_hd__mux2_1
*I *8909:X O *D sky130_fd_sc_hd__buf_1
*CAP
1 *8668:A0 0
2 *8909:X 0.000311575
3 *535:10 0.00553531
4 *535:8 0.00584689
5 *321:78 *535:10 0
6 *395:8 *535:10 0.00335729
7 *405:10 *535:10 9.39056e-05
8 *425:16 *535:8 0.000489755
9 *508:86 *535:10 3.81391e-05
*RES
1 *8909:X *535:8 43.3857 
2 *535:8 *535:10 133.607 
3 *535:10 *8668:A0 38 
*END

*D_NET *536 0.0181484
*CONN
*I *8680:A0 I *D sky130_fd_sc_hd__mux2_1
*I *8910:X O *D sky130_fd_sc_hd__buf_1
*CAP
1 *8680:A0 0
2 *8910:X 0
3 *536:14 0.00260558
4 *536:12 0.00260558
5 *536:10 0.00126224
6 *536:6 0.00501424
7 *536:4 0.003752
8 *8680:A1 *536:14 0.000223692
9 *6:15 *536:6 4.96717e-05
10 *393:12 *536:10 0.00263536
*RES
1 *8910:X *536:4 23 
2 *536:4 *536:6 49.2171 
3 *536:6 *536:10 49.655 
4 *536:10 *536:12 15 
5 *536:12 *536:14 45.8821 
6 *536:14 *8680:A0 23 
*END

*D_NET *537 0.0115266
*CONN
*I *8670:A0 I *D sky130_fd_sc_hd__mux2_1
*I *8911:X O *D sky130_fd_sc_hd__clkbuf_1
*CAP
1 *8670:A0 0
2 *8911:X 5.94633e-05
3 *537:22 0.000853835
4 *537:12 0.0033257
5 *537:10 0.00247186
6 *537:8 5.94633e-05
7 *537:12 *557:12 0.0030731
8 *537:22 *557:16 0.000143096
9 *8670:S *537:22 0.000151601
10 *8911:A *537:8 8.62876e-05
11 *320:12 *537:22 2.34437e-05
12 *384:52 *537:22 3.46673e-05
13 *416:12 *537:22 0.000297959
14 *416:28 *537:12 0.000481943
15 *435:28 *537:22 1.60381e-05
16 *442:57 *537:12 0.000216853
17 *484:22 *537:22 0.000166072
18 *531:14 *537:12 6.51746e-05
*RES
1 *8911:X *537:8 39.2014 
2 *537:8 *537:10 15 
3 *537:10 *537:12 40.6414 
4 *537:12 *537:22 44.8936 
5 *537:22 *8670:A0 23 
*END

*D_NET *538 0.0329838
*CONN
*I *8674:A0 I *D sky130_fd_sc_hd__mux2_1
*I *8912:X O *D sky130_fd_sc_hd__clkbuf_2
*CAP
1 *8674:A0 0
2 *8912:X 0.000138795
3 *538:12 0.0148887
4 *538:10 0.0148887
5 *538:8 0.000138795
6 *538:8 *609:10 0.000546186
7 *323:8 *538:12 0.00010655
8 *399:12 *538:12 0.00172772
9 *506:22 *538:8 0.000548417
*RES
1 *8912:X *538:8 45.1879 
2 *538:8 *538:10 15 
3 *538:10 *538:12 199.292 
4 *538:12 *8674:A0 23 
*END

*D_NET *539 0.0168188
*CONN
*I *8676:A0 I *D sky130_fd_sc_hd__mux2_1
*I *8913:X O *D sky130_fd_sc_hd__buf_1
*CAP
1 *8676:A0 0.000208859
2 *8913:X 0
3 *539:12 0.00372759
4 *539:10 0.00357338
5 *539:8 0.00433661
6 *539:6 0.00428197
7 *209:8 *539:12 0.000113153
8 *285:165 *539:12 0
9 *313:8 *539:12 0.000350687
10 *324:8 *8676:A0 0.00010655
11 *391:39 *539:12 0
12 *392:16 *539:8 0
13 *392:16 *539:12 0
14 *423:14 *8676:A0 0.000120042
15 *431:14 *539:12 0
*RES
1 *8913:X *539:6 38 
2 *539:6 *539:8 82.0804 
3 *539:8 *539:10 0.621429 
4 *539:10 *539:12 66.8139 
5 *539:12 *8676:A0 43.3857 
*END

*D_NET *540 0.0163272
*CONN
*I *8650:C_N I *D sky130_fd_sc_hd__or3b_2
*I *8914:X O *D sky130_fd_sc_hd__buf_1
*CAP
1 *8650:C_N 0.000404358
2 *8914:X 0
3 *540:8 0.00762764
4 *540:6 0.00722328
5 *540:8 *568:30 0
6 *540:8 *591:14 0
7 *246:8 *540:8 0
8 *285:18 *540:8 0
9 *310:10 *8650:C_N 3.7122e-06
10 *383:174 *540:8 2.11157e-05
11 *514:57 *8650:C_N 0.00104712
*RES
1 *8914:X *540:6 38 
2 *540:6 *540:8 137.129 
3 *540:8 *8650:C_N 49.5793 
*END

*D_NET *541 0.0351484
*CONN
*I *8724:A0 I *D sky130_fd_sc_hd__mux2_1
*I *8915:X O *D sky130_fd_sc_hd__clkbuf_2
*CAP
1 *8724:A0 0
2 *8915:X 0
3 *541:14 0.00344991
4 *541:12 0.00344991
5 *541:10 0.0121838
6 *541:8 0.0138093
7 *541:4 0.00162547
8 *321:28 *541:14 5.13811e-05
9 *344:18 *541:14 0
10 *383:147 *541:14 0.000578615
11 *388:8 *541:14 0
*RES
1 *8915:X *541:4 23 
2 *541:4 *541:8 27.5604 
3 *541:8 *541:10 158.081 
4 *541:10 *541:12 15 
5 *541:12 *541:14 64.9393 
6 *541:14 *8724:A0 38 
*END

*D_NET *542 0.0148762
*CONN
*I *8745:A0 I *D sky130_fd_sc_hd__mux2_1
*I *8916:X O *D sky130_fd_sc_hd__buf_1
*CAP
1 *8745:A0 0.000214862
2 *8916:X 0
3 *542:8 0.00720711
4 *542:6 0.00699225
5 *542:8 *567:10 0
6 *8788:A1 *542:8 8.93593e-05
7 *8813:RESET_B *542:8 0
8 *229:10 *542:8 0
9 *272:8 *542:8 0
10 *382:8 *542:8 0
11 *492:34 *8745:A0 0.000317492
12 *497:12 *542:8 5.50955e-05
13 *513:46 *542:8 0
14 *513:69 *542:8 0
*RES
1 *8916:X *542:6 38 
2 *542:6 *542:8 133.607 
3 *542:8 *8745:A0 41.48 
*END

*D_NET *543 0.000674714
*CONN
*I *8747:A0 I *D sky130_fd_sc_hd__mux2_1
*I *8917:X O *D sky130_fd_sc_hd__clkbuf_1
*CAP
1 *8747:A0 6.65405e-05
2 *8917:X 0.000230087
3 *543:8 0.000296627
4 *8747:A0 *571:24 2.4754e-05
5 *543:8 *551:16 0
6 *473:12 *8747:A0 5.67058e-05
*RES
1 *8917:X *543:8 42.0186 
2 *543:8 *8747:A0 39.0979 
*END

*D_NET *544 0.00238038
*CONN
*I *8749:A0 I *D sky130_fd_sc_hd__mux2_1
*I *8918:X O *D sky130_fd_sc_hd__clkbuf_1
*CAP
1 *8749:A0 0
2 *8918:X 0.00039129
3 *544:12 0.000707618
4 *544:8 0.00109891
5 *544:12 *579:10 0
6 *544:12 *609:10 0
7 *544:12 *611:14 0
8 *73:13 *544:8 5.25848e-05
9 *283:10 *544:12 0.000129984
10 *427:16 *544:12 0
11 *506:20 *544:12 0
*RES
1 *8918:X *544:8 42.9093 
2 *544:8 *544:12 27.47 
3 *544:12 *8749:A0 23 
*END

*D_NET *545 0.0320134
*CONN
*I *8751:A0 I *D sky130_fd_sc_hd__mux2_1
*I *8919:X O *D sky130_fd_sc_hd__clkbuf_2
*CAP
1 *8751:A0 0
2 *8919:X 0
3 *545:20 0.0014934
4 *545:16 0.00932083
5 *545:14 0.00963569
6 *545:8 0.00486452
7 *545:6 0.00305627
8 *545:8 *568:8 0
9 *545:8 *568:14 0
10 *545:8 *596:10 0
11 *545:14 *568:14 0
12 *8751:A1 *545:20 3.22879e-05
13 *8823:D *545:16 5.50106e-05
14 *8838:CLK *545:20 0.00108968
15 *95:15 *545:8 8.41012e-05
16 *154:13 *545:8 6.37358e-05
17 *391:43 *545:16 1.91803e-05
18 *391:103 *545:16 0.00194545
19 *392:8 *545:8 4.23817e-05
20 *456:21 *545:14 0.000133316
21 *471:35 *545:8 0
22 *514:93 *545:16 0.000177514
*RES
1 *8919:X *545:6 38 
2 *545:6 *545:8 60.6411 
3 *545:8 *545:14 49.7689 
4 *545:14 *545:16 111.868 
5 *545:16 *545:20 30.4189 
6 *545:20 *8751:A0 23 
*END

*D_NET *546 0.0206784
*CONN
*I *8753:A0 I *D sky130_fd_sc_hd__mux2_1
*I *8920:X O *D sky130_fd_sc_hd__buf_1
*CAP
1 *8753:A0 0.00102147
2 *8920:X 0
3 *546:14 0.00232944
4 *546:8 0.00621983
5 *546:6 0.00491186
6 *8712:A *8753:A0 0.000484551
7 *235:8 *8753:A0 0.00035673
8 *355:73 *8753:A0 0.000234333
9 *405:14 *546:14 0.000282664
10 *410:8 *546:8 0.00483753
11 *424:12 *546:8 0
*RES
1 *8920:X *546:6 38 
2 *546:6 *546:8 125.156 
3 *546:8 *546:14 34.0882 
4 *546:14 *8753:A0 42.4404 
*END

*D_NET *547 0.0172887
*CONN
*I *8682:A0 I *D sky130_fd_sc_hd__mux2_1
*I *8921:X O *D sky130_fd_sc_hd__buf_1
*CAP
1 *8682:A0 0
2 *8921:X 0.000289421
3 *547:30 0.00201387
4 *547:22 0.00258714
5 *547:16 0.00152336
6 *547:12 0.00123951
7 *547:16 *568:24 0.00125614
8 *547:22 *568:24 0.000524988
9 *8581:B *547:22 0.000401106
10 *8651:A *547:30 0.000285231
11 *8682:A1 *547:30 5.50106e-05
12 *8779:A *547:16 0.00010018
13 *8875:A *547:16 0.000223692
14 *7:13 *547:12 4.39607e-05
15 *273:8 *547:22 0
16 *275:22 *547:30 2.92911e-06
17 *311:36 *547:30 0.000285385
18 *311:48 *547:30 0.000696779
19 *418:8 *547:30 0.000734064
20 *418:20 *547:12 6.17437e-06
21 *437:18 *547:16 0.00222804
22 *437:22 *547:16 0.000561495
23 *437:22 *547:22 0.00219359
24 *469:10 *547:22 1.01436e-05
25 *516:10 *547:16 2.64616e-05
*RES
1 *8921:X *547:12 27.7229 
2 *547:12 *547:16 40.9004 
3 *547:16 *547:22 40.7582 
4 *547:22 *547:30 48.4121 
5 *547:30 *8682:A0 23 
*END

*D_NET *548 0.0374859
*CONN
*I *8755:A0 I *D sky130_fd_sc_hd__mux2_1
*I *8922:X O *D sky130_fd_sc_hd__clkbuf_2
*CAP
1 *8755:A0 0
2 *8922:X 0.0014685
3 *548:34 0.00315876
4 *548:32 0.0031919
5 *548:30 0.0025045
6 *548:28 0.00247136
7 *548:26 0.00160538
8 *548:22 0.00570446
9 *548:20 0.00444769
10 *548:6 0.00181711
11 *548:20 *608:8 5.13142e-05
12 *548:22 *551:10 0.000348255
13 *548:22 *563:8 9.36953e-05
14 *548:26 *567:8 0.000359326
15 m_rdata[20] *548:22 0.000143655
16 m_rdata[30] *548:22 0.000143655
17 paddr[20] *548:22 0.000143655
18 pwdata[22] *548:22 0.00010018
19 pwdata[25] *548:22 0.000143655
20 pwdata[4] *548:22 0.000143655
21 pwdata[5] *548:22 0.000143655
22 *8832:RESET_B *548:30 0.000155029
23 *8838:RESET_B *548:34 0
24 *8892:A *548:22 0.00014196
25 *8913:A *548:22 5.50106e-05
26 *8914:A *548:22 5.50106e-05
27 *8916:A *548:26 3.22879e-05
28 *8917:A *548:22 0.00014196
29 *8925:A *548:22 5.50106e-05
30 *8937:A *548:22 5.50106e-05
31 *8941:A *548:26 3.22879e-05
32 *8945:A *548:20 0.000101751
33 *8947:A *548:26 5.83407e-05
34 *8952:A *548:26 2.32101e-05
35 *8961:A *548:26 2.91094e-05
36 *8971:A *548:22 5.50106e-05
37 *8992:A *548:20 0.000441972
38 *9034:A *548:26 7.88828e-05
39 *9058:A *548:20 0.000401106
40 *9083:A *548:22 0.000272377
41 *76:9 *548:6 2.30292e-05
42 *95:15 *548:6 3.71369e-05
43 *117:8 *548:26 5.10805e-05
44 *248:10 *548:30 0
45 *355:73 *548:34 5.15848e-05
46 *392:12 *548:6 0.000866555
47 *420:18 *548:22 0.000690486
48 *425:8 *548:30 0
49 *425:14 *548:26 0.000227208
50 *426:8 *548:22 6.30728e-05
51 *444:27 *548:22 0.000182826
52 *466:10 *548:20 0.000161121
53 *473:23 *548:20 0
54 *482:8 *548:30 0
55 *482:25 *548:30 4.55681e-05
56 *502:31 *548:26 0.000401106
57 *508:118 *548:34 0
58 *509:12 *548:34 0
59 *509:82 *548:34 0
60 *509:84 *548:30 0.00204088
61 *509:84 *548:34 0.000912187
62 *526:26 *548:22 0.000684843
63 *526:26 *548:26 0.00067758
*RES
1 *8922:X *548:6 45.5371 
2 *548:6 *548:20 41.0407 
3 *548:20 *548:22 87.5696 
4 *548:22 *548:26 37.7932 
5 *548:26 *548:28 15 
6 *548:28 *548:30 60.9932 
7 *548:30 *548:32 0.621429 
8 *548:32 *548:34 67.4768 
9 *548:34 *8755:A0 38 
*END

*D_NET *549 0.0120136
*CONN
*I *8758:A0 I *D sky130_fd_sc_hd__mux2_1
*I *8923:X O *D sky130_fd_sc_hd__buf_1
*CAP
1 *8758:A0 0
2 *8923:X 2.1727e-05
3 *549:12 0.00112436
4 *549:8 0.00575166
5 *549:6 0.00464903
6 *77:15 *549:6 4.00259e-06
7 *77:15 *549:8 9.75779e-05
8 *275:78 *549:12 0
9 *275:87 *549:12 0
10 *285:18 *549:12 0
11 *391:66 *549:12 0.000221099
12 *391:68 *549:12 0.000144141
*RES
1 *8923:X *549:6 23.4971 
2 *549:6 *549:8 81.6143 
3 *549:8 *549:12 36.9779 
4 *549:12 *8758:A0 38 
*END

*D_NET *550 0.0198597
*CONN
*I *8760:A0 I *D sky130_fd_sc_hd__mux2_1
*I *8924:X O *D sky130_fd_sc_hd__dlymetal6s2s_1
*CAP
1 *8760:A0 0
2 *8924:X 2.1727e-05
3 *550:16 0.00121333
4 *550:8 0.00905409
5 *550:6 0.0078625
6 *550:16 *560:8 0.00130408
7 *8760:A1 *550:16 1.12695e-05
8 *8842:RESET_B *550:16 0
9 *78:17 *550:6 4.00259e-06
10 *78:17 *550:8 7.88828e-05
11 *228:10 *550:16 5.72557e-05
12 *231:10 *550:16 0
13 *366:32 *550:16 0
14 *366:99 *550:16 8.49404e-06
15 *376:10 *550:16 0
16 *476:8 *550:16 0
17 *479:12 *550:16 0.000191981
18 *511:62 *550:16 5.21127e-05
*RES
1 *8924:X *550:6 23.4971 
2 *550:6 *550:8 137.833 
3 *550:8 *550:16 41.2657 
4 *550:16 *8760:A0 38 
*END

*D_NET *551 0.016698
*CONN
*I *8762:A0 I *D sky130_fd_sc_hd__mux2_1
*I *8925:X O *D sky130_fd_sc_hd__buf_1
*CAP
1 *8762:A0 0
2 *8925:X 0.00090801
3 *551:36 0.00173545
4 *551:26 0.00378111
5 *551:20 0.00289845
6 *551:16 0.00128968
7 *551:10 0.00134491
8 *551:36 *8739:A0 0.000268868
9 *8813:RESET_B *551:36 0.0002529
10 *8829:CLK *551:26 0.000292755
11 *8830:CLK *551:26 2.25927e-05
12 *8917:A *551:10 7.46977e-05
13 *245:10 *551:26 4.6318e-06
14 *252:10 *551:16 0
15 *391:127 *551:20 0.000601931
16 *408:18 *551:16 0
17 *420:18 *551:10 0.00014196
18 *426:14 *551:26 0
19 *444:27 *551:26 0
20 *499:6 *551:26 2.93747e-05
21 *499:25 *551:20 0.000315852
22 *499:25 *551:26 0.00119222
23 *500:10 *551:20 5.67058e-05
24 *514:113 *551:20 0.00027522
25 *514:141 *551:36 0.000453694
26 *514:163 *551:36 0.000408706
27 *543:8 *551:16 0
28 *548:22 *551:10 0.000348255
*RES
1 *8925:X *551:10 38.5564 
2 *551:10 *551:16 37.54 
3 *551:16 *551:20 19.6993 
4 *551:20 *551:26 47.5421 
5 *551:26 *551:36 45.8229 
6 *551:36 *8762:A0 23 
*END

*D_NET *552 0.0165975
*CONN
*I *8764:A0 I *D sky130_fd_sc_hd__mux2_1
*I *8926:X O *D sky130_fd_sc_hd__buf_1
*CAP
1 *8764:A0 0.000630985
2 *8926:X 0.000136309
3 *552:18 0.000770892
4 *552:12 0.0023904
5 *552:10 0.00225049
6 *552:8 0.000136309
7 *8764:A0 *570:22 0.00182445
8 *552:12 *594:6 0.00127846
9 *8765:A *8764:A0 0.000185434
10 *260:10 *8764:A0 1.05235e-05
11 *401:14 *552:12 0.0069832
12 *410:8 *552:18 0
*RES
1 *8926:X *552:8 40.2579 
2 *552:8 *552:10 15 
3 *552:10 *552:12 76.85 
4 *552:12 *552:18 32.2579 
5 *552:18 *8764:A0 43.155 
*END

*D_NET *553 0.0225315
*CONN
*I *8726:A0 I *D sky130_fd_sc_hd__mux2_1
*I *8927:X O *D sky130_fd_sc_hd__dlymetal6s2s_1
*CAP
1 *8726:A0 0
2 *8927:X 0
3 *553:24 0.000895018
4 *553:14 0.00362036
5 *553:12 0.00394714
6 *553:6 0.00461552
7 *553:4 0.00339372
8 *553:6 *604:16 0.00361211
9 *553:12 *604:16 3.61695e-05
10 *8805:CLK *553:24 6.84893e-05
11 *8821:RESET_B *553:24 0
12 *81:15 *553:6 0.000143655
13 *309:6 *553:6 7.42621e-05
14 *309:6 *553:12 0.00031495
15 *344:18 *553:24 0
16 *344:29 *553:24 0
17 *388:8 *553:14 0
18 *388:28 *553:14 0.000658113
19 *388:28 *553:24 0.000684204
20 *388:39 *553:24 0.000416325
21 *388:54 *553:24 5.15096e-05
22 *453:14 *553:14 0
*RES
1 *8927:X *553:4 23 
2 *553:4 *553:6 79.2321 
3 *553:6 *553:12 36.605 
4 *553:12 *553:14 55.8146 
5 *553:14 *553:24 33.4046 
6 *553:24 *8726:A0 23 
*END

*D_NET *554 0.0148622
*CONN
*I *8766:A0 I *D sky130_fd_sc_hd__mux2_1
*I *8928:X O *D sky130_fd_sc_hd__buf_1
*CAP
1 *8766:A0 0
2 *8928:X 8.81617e-05
3 *554:28 0.00103844
4 *554:18 0.00254744
5 *554:16 0.00303233
6 *554:12 0.00161335
7 *554:8 0.000178177
8 paddr[5] *554:28 0
9 *8928:A *554:8 5.45887e-05
10 *8954:A *554:28 0
11 *416:30 *554:16 0
12 *435:28 *554:28 0.000387169
13 *448:14 *554:16 0.00341036
14 *448:14 *554:18 0.00108373
15 *448:20 *554:18 9.24795e-06
16 *448:22 *554:28 0
17 *461:6 *554:28 2.31797e-05
18 *461:29 *554:28 8.50726e-05
19 *484:14 *554:28 0.000189932
20 *484:22 *554:28 2.02872e-05
21 *495:16 *554:18 0.00110073
*RES
1 *8928:X *554:8 39.5536 
2 *554:8 *554:12 16.9057 
3 *554:12 *554:16 44.7118 
4 *554:16 *554:18 43.2618 
5 *554:18 *554:28 48.5393 
6 *554:28 *8766:A0 23 
*END

*D_NET *555 0.00050203
*CONN
*I *8768:A0 I *D sky130_fd_sc_hd__mux2_1
*I *8929:X O *D sky130_fd_sc_hd__clkbuf_1
*CAP
1 *8768:A0 0
2 *8929:X 0.00018474
3 *555:10 0.00018474
4 *450:20 *555:10 0
5 *484:28 *555:10 5.50106e-05
6 *485:10 *555:10 2.08324e-05
7 *534:8 *555:10 5.67058e-05
*RES
1 *8929:X *555:10 41.2314 
2 *555:10 *8768:A0 38 
*END

*D_NET *556 0.0220012
*CONN
*I *8770:A0 I *D sky130_fd_sc_hd__mux2_1
*I *8930:X O *D sky130_fd_sc_hd__dlymetal6s2s_1
*CAP
1 *8770:A0 0
2 *8930:X 0
3 *556:14 0.00210715
4 *556:12 0.00392371
5 *556:8 0.00181657
6 *556:6 0.00501693
7 *556:4 0.00501693
8 *8810:RESET_B *556:14 0.000437435
9 *84:15 *556:6 0.000143655
10 *217:10 *556:12 1.75595e-05
11 *217:10 *556:14 3.52397e-05
12 *322:10 *556:14 0.000430673
13 *322:14 *556:14 1.44346e-05
14 *322:43 *556:14 8.1606e-05
15 *322:52 *556:14 0.000552925
16 *322:63 *556:14 0.000103941
17 *344:130 *556:12 0
18 *344:130 *556:14 0
19 *344:134 *556:12 0
20 *389:10 *556:12 0.000925626
21 *389:12 *556:12 0.000762674
22 *389:55 *556:12 0.000105061
23 *421:12 *556:6 0.000509047
24 *454:25 *556:14 0
*RES
1 *8930:X *556:4 23 
2 *556:4 *556:6 92.5721 
3 *556:6 *556:8 15 
4 *556:8 *556:12 46.7211 
5 *556:12 *556:14 48.9168 
6 *556:14 *8770:A0 38 
*END

*D_NET *557 0.0266894
*CONN
*I *8772:A0 I *D sky130_fd_sc_hd__mux2_1
*I *8931:X O *D sky130_fd_sc_hd__buf_1
*CAP
1 *8772:A0 0
2 *8931:X 7.21917e-05
3 *557:20 0.00273579
4 *557:18 0.00276301
5 *557:16 0.0019715
6 *557:14 0.00194428
7 *557:12 0.000484465
8 *557:8 0.000556657
9 *557:16 *610:16 0.000502704
10 *557:20 *610:24 0.00130455
11 *8931:A *557:8 5.00543e-05
12 *8934:A *557:16 0
13 *277:8 *557:20 8.62876e-05
14 *284:14 *557:20 2.11066e-05
15 *296:57 *557:16 0
16 *296:63 *557:16 0
17 *305:8 *557:16 0
18 *366:43 *557:20 0
19 *366:47 *557:16 0.00295016
20 *366:47 *557:20 0.000971595
21 *416:12 *557:16 0.000155856
22 *416:20 *557:8 9.28078e-06
23 *430:33 *557:20 0.00301625
24 *430:42 *557:20 0.000158437
25 *430:123 *557:20 0.000114173
26 *442:57 *557:12 0.000390562
27 *487:10 *557:20 8.85189e-05
28 *495:12 *557:8 4.66343e-05
29 *510:36 *557:16 0
30 *510:36 *557:20 0
31 *531:14 *557:12 0.0030791
32 *537:12 *557:12 0.0030731
33 *537:22 *557:16 0.000143096
*RES
1 *8931:X *557:8 39.5536 
2 *557:8 *557:12 48.9714 
3 *557:12 *557:14 15 
4 *557:14 *557:16 54.0746 
5 *557:16 *557:18 0.621429 
6 *557:18 *557:20 82.8468 
7 *557:20 *8772:A0 38 
*END

*D_NET *558 0.0146292
*CONN
*I *8684:A0 I *D sky130_fd_sc_hd__mux2_1
*I *8932:X O *D sky130_fd_sc_hd__buf_1
*CAP
1 *8684:A0 0
2 *8932:X 8.83236e-05
3 *558:20 0.000274925
4 *558:12 0.00293658
5 *558:10 0.00266165
6 *558:8 8.83236e-05
7 *558:12 *576:22 0.000290733
8 *403:10 *558:20 0.000138718
9 *417:10 *558:8 0.000169674
10 *439:8 *558:20 0.000136486
11 *439:14 *558:12 2.30292e-05
12 *457:23 *558:20 0.000313244
13 *472:30 *558:12 0.00750749
*RES
1 *8932:X *558:8 40.2579 
2 *558:8 *558:10 15 
3 *558:10 *558:12 82.5671 
4 *558:12 *558:20 35.3857 
5 *558:20 *8684:A0 23 
*END

*D_NET *559 0.0174774
*CONN
*I *8774:A0 I *D sky130_fd_sc_hd__mux2_1
*I *8933:X O *D sky130_fd_sc_hd__buf_1
*CAP
1 *8774:A0 0.000405003
2 *8933:X 0.000534176
3 *559:16 0.00433911
4 *559:14 0.00492004
5 *559:8 0.00152011
6 *8774:A0 *600:6 0.000467023
7 *559:14 *600:6 0.00143343
8 *559:16 *600:6 0.00321149
9 *8629:A *559:16 0.000367267
10 *8774:S *8774:A0 1.35999e-05
11 *8933:A *559:8 6.16635e-05
12 *8966:A *559:8 0
13 *375:12 *8774:A0 2.95526e-05
14 *409:8 *559:16 0.000174898
*RES
1 *8933:X *559:8 48.3571 
2 *559:8 *559:14 43.0368 
3 *559:14 *559:16 100.195 
4 *559:16 *8774:A0 32.9325 
*END

*D_NET *560 0.0204473
*CONN
*I *8776:A0 I *D sky130_fd_sc_hd__mux2_1
*I *8934:X O *D sky130_fd_sc_hd__buf_1
*CAP
1 *8776:A0 4.56956e-05
2 *8934:X 0
3 *560:8 0.00491393
4 *560:6 0.00486823
5 *228:18 *8776:A0 0.000139352
6 *261:10 *560:8 0.000110913
7 *266:10 *560:8 0.000114083
8 *298:12 *560:8 0.000172201
9 *335:6 *8776:A0 7.44257e-05
10 *366:81 *560:8 0.000329914
11 *406:12 *560:8 3.96053e-05
12 *412:10 *560:8 2.33476e-05
13 *442:41 *560:8 7.35344e-05
14 *442:45 *560:8 0.000563592
15 *442:47 *560:8 0.00767441
16 *476:8 *560:8 0
17 *511:72 *560:8 0
18 *550:16 *560:8 0.00130408
*RES
1 *8934:X *560:6 38 
2 *560:6 *560:8 137.481 
3 *560:8 *8776:A0 39.5743 
*END

*D_NET *561 0.00402147
*CONN
*I *8778:A0 I *D sky130_fd_sc_hd__mux2_1
*I *8935:X O *D sky130_fd_sc_hd__clkbuf_1
*CAP
1 *8778:A0 0
2 *8935:X 0.00051854
3 *561:12 0.00149219
4 *561:8 0.00201073
5 *561:12 *568:22 0
6 *437:14 *561:12 0
*RES
1 *8935:X *561:8 44.3386 
2 *561:8 *561:12 42.6121 
3 *561:12 *8778:A0 23 
*END

*D_NET *562 0.000837509
*CONN
*I *8780:A0 I *D sky130_fd_sc_hd__mux2_1
*I *8936:X O *D sky130_fd_sc_hd__clkbuf_1
*CAP
1 *8780:A0 0
2 *8936:X 0.000344815
3 *562:8 0.000344815
4 *89:13 *562:8 9.58714e-05
5 *378:10 *562:8 5.20072e-05
*RES
1 *8936:X *562:8 28.4064 
2 *562:8 *8780:A0 23 
*END

*D_NET *563 0.00945818
*CONN
*I *8782:A0 I *D sky130_fd_sc_hd__mux2_1
*I *8937:X O *D sky130_fd_sc_hd__buf_1
*CAP
1 *8782:A0 0
2 *8937:X 0.000227104
3 *563:10 0.00431485
4 *563:8 0.00454195
5 *321:130 *563:10 6.16439e-05
6 *391:12 *563:10 0
7 *391:20 *563:10 0.000218943
8 *391:117 *563:10 0
9 *391:119 *563:10 0
10 *408:18 *563:10 0
11 *516:37 *563:10 0
12 *548:22 *563:8 9.36953e-05
*RES
1 *8937:X *563:8 41.48 
2 *563:8 *563:10 81.8421 
3 *563:10 *8782:A0 38 
*END

*D_NET *564 0.0012584
*CONN
*I *8784:A0 I *D sky130_fd_sc_hd__mux2_1
*I *8938:X O *D sky130_fd_sc_hd__clkbuf_1
*CAP
1 *8784:A0 0.000146567
2 *8938:X 0.000274615
3 *564:8 0.000421182
4 *8784:A1 *8784:A0 5.67058e-05
5 *8854:RESET_B *8784:A0 0.000359326
*RES
1 *8938:X *564:8 42.7229 
2 *564:8 *8784:A0 41.9564 
*END

*D_NET *565 0.0177925
*CONN
*I *8728:A0 I *D sky130_fd_sc_hd__mux2_1
*I *8939:X O *D sky130_fd_sc_hd__buf_1
*CAP
1 *8728:A0 0.000263568
2 *8939:X 0.00115298
3 *565:14 0.00629434
4 *565:12 0.00634866
5 *565:6 0.00147086
6 *8728:A1 *8728:A0 2.93747e-05
7 *8728:S *8728:A0 0.000193189
8 *8728:S *565:14 8.82787e-06
9 *8806:RESET_B *565:14 2.56175e-05
10 *8824:RESET_B *565:14 2.71046e-05
11 *344:138 *565:14 0.000137613
12 *435:10 *565:14 3.82058e-06
13 *472:30 *565:6 0.00183656
*RES
1 *8939:X *565:6 43.155 
2 *565:6 *565:12 35.7793 
3 *565:12 *565:14 78.9939 
4 *565:14 *8728:A0 28.6446 
*END

*D_NET *566 0.00444233
*CONN
*I *8786:A0 I *D sky130_fd_sc_hd__mux2_1
*I *8940:X O *D sky130_fd_sc_hd__clkbuf_1
*CAP
1 *8786:A0 0.000265123
2 *8940:X 0
3 *566:10 0.00198857
4 *566:6 0.00172345
5 *566:10 *582:12 0
6 *8855:CLK *8786:A0 2.32004e-05
7 *384:94 *8786:A0 0.000441978
*RES
1 *8940:X *566:6 38 
2 *566:6 *566:10 47.5421 
3 *566:10 *8786:A0 28.8829 
*END

*D_NET *567 0.00895692
*CONN
*I *8788:A0 I *D sky130_fd_sc_hd__mux2_1
*I *8941:X O *D sky130_fd_sc_hd__buf_1
*CAP
1 *8788:A0 0
2 *8941:X 0.000230873
3 *567:10 0.00406792
4 *567:8 0.0042988
5 *542:8 *567:10 0
6 *548:26 *567:8 0.000359326
*RES
1 *8941:X *567:8 41.9564 
2 *567:8 *567:10 77.2643 
3 *567:10 *8788:A0 38 
*END

*D_NET *568 0.0411607
*CONN
*I *8730:A0 I *D sky130_fd_sc_hd__mux2_1
*I *8942:X O *D sky130_fd_sc_hd__clkbuf_2
*CAP
1 *8730:A0 0
2 *8942:X 0
3 *568:36 0.00175279
4 *568:30 0.00187377
5 *568:24 0.00579075
6 *568:22 0.00650034
7 *568:14 0.00269313
8 *568:8 0.00362208
9 *568:6 0.00175953
10 *568:8 *596:10 0.00108198
11 *568:24 *8578:B_N 3.42276e-05
12 *568:24 *612:32 0.000334085
13 *568:24 *613:29 1.03836e-05
14 *568:30 *591:14 0.000222104
15 *8581:A *568:24 0.000141954
16 *8581:B *568:24 0.000171111
17 *8758:A1 *568:24 0.00010655
18 *8779:A *568:24 5.70419e-05
19 *8825:CLK *568:36 7.73389e-05
20 *8825:RESET_B *568:36 1.19201e-05
21 *8835:RESET_B *568:36 8.84817e-06
22 *8851:RESET_B *568:22 0.000110922
23 *8875:A *568:24 7.53384e-06
24 *154:13 *568:8 8.87011e-05
25 *242:10 *568:36 3.56537e-05
26 *321:126 *568:24 0.000224605
27 *344:75 *568:36 4.21594e-06
28 *350:20 *568:36 0
29 *366:151 *568:24 3.17634e-05
30 *437:14 *568:22 0.001832
31 *437:34 *568:24 0.000382164
32 *456:21 *568:14 0
33 *471:14 *568:36 2.93845e-05
34 *471:29 *568:36 0.000214026
35 *471:35 *568:8 0.00441975
36 *471:35 *568:14 0.000803273
37 *471:35 *568:22 0.00209991
38 *498:27 *568:36 0.000141879
39 *503:20 *568:14 0.0019379
40 *513:12 *568:36 5.62955e-05
41 *513:14 *568:36 1.03422e-05
42 *513:16 *568:36 1.68687e-05
43 *514:24 *568:22 0.000110941
44 *514:57 *568:36 0.000571488
45 *540:8 *568:30 0
46 *545:8 *568:8 0
47 *545:8 *568:14 0
48 *545:14 *568:14 0
49 *547:16 *568:24 0.00125614
50 *547:22 *568:24 0.000524988
51 *561:12 *568:22 0
*RES
1 *8942:X *568:6 38 
2 *568:6 *568:8 57.8239 
3 *568:8 *568:14 48.1193 
4 *568:14 *568:22 47.7804 
5 *568:22 *568:24 87.3314 
6 *568:24 *568:30 32.9621 
7 *568:30 *568:36 40.2714 
8 *568:36 *8730:A0 38 
*END

*D_NET *569 0.0013356
*CONN
*I *8686:A0 I *D sky130_fd_sc_hd__mux2_1
*I *8943:X O *D sky130_fd_sc_hd__clkbuf_1
*CAP
1 *8686:A0 0
2 *8943:X 0.000667801
3 *569:10 0.000667801
4 *8807:RESET_B *569:10 0
5 *389:123 *569:10 0
*RES
1 *8943:X *569:10 47.4043 
2 *569:10 *8686:A0 38 
*END

*D_NET *570 0.0257162
*CONN
*I *8732:A0 I *D sky130_fd_sc_hd__mux2_1
*I *8944:X O *D sky130_fd_sc_hd__dlymetal6s2s_1
*CAP
1 *8732:A0 0
2 *8944:X 0.000322713
3 *570:30 0.00278725
4 *570:22 0.0075259
5 *570:20 0.00600466
6 *570:16 0.00257578
7 *570:8 0.00163248
8 *570:20 *594:14 0.000317553
9 *8633:A *570:20 0.000143655
10 *8733:A *570:30 0.000148678
11 *8764:A0 *570:22 0.00182445
12 *8764:A1 *570:22 0.000228903
13 *8764:S *570:22 2.80924e-06
14 *8764:S *570:30 1.08906e-05
15 *8794:D *570:16 7.73854e-05
16 *8794:D *570:20 5.70419e-05
17 *8794:RESET_B *570:20 0.000135338
18 *8832:CLK *570:22 0.000269366
19 *8832:CLK *570:30 0.000136738
20 *8843:D *570:30 0.000141954
21 *8881:A *570:20 5.50106e-05
22 *355:115 *570:30 0.00115658
23 *355:117 *570:30 4.39278e-05
24 *411:10 *570:20 1.76557e-05
25 *428:18 *570:8 0
26 *443:12 *570:20 9.94504e-05
*RES
1 *8944:X *570:8 43.7793 
2 *570:8 *570:16 37.5786 
3 *570:16 *570:20 26.8354 
4 *570:20 *570:22 67.5596 
5 *570:22 *570:30 43.9143 
6 *570:30 *8732:A0 23 
*END

*D_NET *571 0.00936586
*CONN
*I *8734:A0 I *D sky130_fd_sc_hd__mux2_1
*I *8945:X O *D sky130_fd_sc_hd__buf_1
*CAP
1 *8734:A0 0.000655156
2 *8945:X 4.45576e-05
3 *571:24 0.00144863
4 *571:14 0.00124235
5 *571:8 0.000493428
6 *571:8 *608:14 8.62876e-05
7 *571:14 *608:18 0.00174791
8 *8734:S *8734:A0 0.00010018
9 *8747:A0 *571:24 2.4754e-05
10 *8747:S *571:24 0
11 *8748:A *8734:A0 5.67058e-05
12 *8748:A *571:24 1.14154e-05
13 *355:117 *8734:A0 0.00121128
14 *355:117 *571:24 0.00012377
15 *392:12 *571:14 0.000967975
16 *400:14 *571:8 8.85189e-05
17 *420:10 *571:24 0
18 *473:12 *571:24 0.000576699
19 *517:6 *8734:A0 0.00048624
*RES
1 *8945:X *571:8 39.2014 
2 *571:8 *571:14 35.1757 
3 *571:14 *571:24 47.7729 
4 *571:24 *8734:A0 43.7971 
*END

*D_NET *572 0.00152107
*CONN
*I *8737:A0 I *D sky130_fd_sc_hd__mux2_1
*I *8946:X O *D sky130_fd_sc_hd__clkbuf_1
*CAP
1 *8737:A0 0
2 *8946:X 0.000616932
3 *572:10 0.000616932
4 *572:10 *603:8 0
5 *572:10 *603:12 6.69899e-05
6 *8737:A1 *572:10 2.08324e-05
7 *98:13 *572:10 4.9662e-05
8 *479:20 *572:10 3.31683e-05
9 *491:21 *572:10 0.000116554
*RES
1 *8946:X *572:10 47.9843 
2 *572:10 *8737:A0 38 
*END

*D_NET *573 0.00222213
*CONN
*I *8739:A0 I *D sky130_fd_sc_hd__mux2_1
*I *8947:X O *D sky130_fd_sc_hd__clkbuf_1
*CAP
1 *8739:A0 0.000209991
2 *8947:X 0.000380759
3 *573:8 0.00059075
4 *8739:A1 *8739:A0 5.67058e-05
5 *8739:S *8739:A0 0.00010018
6 *366:107 *8739:A0 9.58714e-05
7 *366:107 *573:8 1.58805e-05
8 *446:23 *573:8 0.000139644
9 *480:8 *573:8 0.000110922
10 *480:12 *8739:A0 4.04303e-05
11 *480:22 *8739:A0 0.000198032
12 *514:163 *8739:A0 1.40958e-05
13 *551:36 *8739:A0 0.000268868
*RES
1 *8947:X *573:8 45.8921 
2 *573:8 *8739:A0 45.2914 
*END

*D_NET *574 0.012583
*CONN
*I *8741:A0 I *D sky130_fd_sc_hd__mux2_1
*I *8948:X O *D sky130_fd_sc_hd__buf_1
*CAP
1 *8741:A0 0
2 *8948:X 0.000171971
3 *574:10 0.0011717
4 *574:8 0.0011717
5 *574:6 0.000171971
6 *574:6 *576:22 0.000120171
7 *9086:A *574:6 2.4754e-05
8 *406:14 *574:6 0.00109059
9 *414:8 *574:10 0.00418102
10 *414:16 *574:6 0.00104972
11 *464:8 *574:10 0.000733329
12 *512:34 *574:10 0.00269605
*RES
1 *8948:X *574:6 35.0557 
2 *574:6 *574:8 15 
3 *574:8 *574:10 55.0793 
4 *574:10 *8741:A0 38 
*END

*D_NET *575 0.0186461
*CONN
*I *8743:A0 I *D sky130_fd_sc_hd__mux2_1
*I *8949:X O *D sky130_fd_sc_hd__buf_1
*CAP
1 *8743:A0 0.00015474
2 *8949:X 0
3 *575:8 0.00427439
4 *575:6 0.00411965
5 *8831:RESET_B *575:8 0.00104615
6 *355:41 *575:8 0.0025549
7 *397:8 *575:8 0.00156263
8 *404:8 *8743:A0 3.28496e-05
9 *491:21 *575:8 0.00064962
10 *501:21 *575:8 0
11 *501:29 *575:8 0
12 *506:20 *8743:A0 1.94693e-05
13 *509:52 *575:8 0.00313623
14 *509:66 *575:8 0.00109543
*RES
1 *8949:X *575:6 38 
2 *575:6 *575:8 133.607 
3 *575:8 *8743:A0 40.0507 
*END

*D_NET *576 0.0425328
*CONN
*I *8652:A0 I *D sky130_fd_sc_hd__mux2_1
*I *617:DIODE I *D sky130_fd_sc_hd__diode_2
*I *8950:X O *D sky130_fd_sc_hd__clkbuf_2
*CAP
1 *8652:A0 0
2 *617:DIODE 0.00017925
3 *8950:X 2.115e-05
4 *576:26 0.00017925
5 *576:24 0.00496377
6 *576:22 0.0108489
7 *576:10 0.00590631
8 *576:22 *580:8 0.000540803
9 *576:22 *610:14 0.0105105
10 *576:24 *595:14 0.00545285
11 *8670:S *576:22 1.80023e-05
12 *8736:A *576:24 5.52131e-05
13 *8800:RESET_B *576:22 8.22941e-05
14 *214:10 *576:22 6.99679e-05
15 *234:10 *576:24 0.000141879
16 *285:84 *617:DIODE 0.000261685
17 *297:10 *576:22 0.000123024
18 *311:157 *576:24 0.00047819
19 *311:159 *576:24 0
20 *311:163 *576:22 0
21 *311:163 *576:24 0.000247637
22 *312:8 *617:DIODE 0.000141954
23 *318:10 *576:22 0.000274543
24 *321:34 *576:24 8.4047e-05
25 *333:54 *576:24 8.43986e-05
26 *333:64 *576:24 0.000184725
27 *355:8 *576:24 5.21024e-05
28 *402:12 *576:22 0
29 *402:12 *576:24 0
30 *406:14 *576:22 0.000863696
31 *439:14 *576:22 0.000125621
32 *463:10 *576:22 0
33 *463:14 *576:22 0
34 *510:48 *576:22 0.000129785
35 *510:48 *576:24 0.000100296
36 *534:16 *576:22 0
37 *558:12 *576:22 0.000290733
38 *574:6 *576:22 0.000120171
*RES
1 *8950:X *576:10 46.3211 
2 *576:10 *576:22 41.6372 
3 *576:22 *576:24 122.867 
4 *576:24 *576:26 15 
5 *576:26 *617:DIODE 27.1221 
6 *576:26 *8652:A0 23 
*END

*D_NET *577 0.0202117
*CONN
*I *8584:A I *D sky130_fd_sc_hd__and2_1
*I *8951:X O *D sky130_fd_sc_hd__buf_1
*CAP
1 *8584:A 0
2 *8951:X 0
3 *577:10 0.00140853
4 *577:6 0.0101059
5 *577:4 0.00869733
6 *8584:B *577:10 0
7 *410:8 *577:10 0
8 *430:71 *577:10 0
*RES
1 *8951:X *577:4 23 
2 *577:4 *577:6 115.441 
3 *577:6 *577:10 41.2036 
4 *577:10 *8584:A 38 
*END

*D_NET *578 0.0128534
*CONN
*I *8605:A I *D sky130_fd_sc_hd__and2_1
*I *8952:X O *D sky130_fd_sc_hd__buf_1
*CAP
1 *8605:A 0
2 *8952:X 0.000524175
3 *578:12 0.00248945
4 *578:10 0.00301363
5 *259:8 *578:10 0
6 *355:81 *578:12 0.000227683
7 *355:90 *578:12 0.00222624
8 *355:94 *578:10 7.28893e-05
9 *355:94 *578:12 6.07611e-06
10 *355:107 *578:10 5.6572e-05
11 *369:10 *578:10 0
12 *390:52 *578:10 0.000345295
13 *430:125 *578:10 1.14452e-05
14 *430:125 *578:12 0.00362805
15 *430:135 *578:10 0.000195331
16 *502:29 *578:10 5.65824e-05
*RES
1 *8952:X *578:10 49.2375 
2 *578:10 *578:12 92.8518 
3 *578:12 *8605:A 38 
*END

*D_NET *579 0.00173708
*CONN
*I *8607:A I *D sky130_fd_sc_hd__and2_1
*I *8953:X O *D sky130_fd_sc_hd__clkbuf_1
*CAP
1 *8607:A 0
2 *8953:X 0.000552697
3 *579:10 0.000552697
4 *139:13 *579:10 5.25848e-05
5 *285:124 *579:10 0.000299285
6 *427:12 *579:10 0.000279813
7 *544:12 *579:10 0
*RES
1 *8953:X *579:10 47.1971 
2 *579:10 *8607:A 38 
*END

*D_NET *580 0.00956447
*CONN
*I *8688:A0 I *D sky130_fd_sc_hd__mux2_1
*I *8954:X O *D sky130_fd_sc_hd__buf_1
*CAP
1 *8688:A0 0
2 *8954:X 0
3 *580:14 0.00127676
4 *580:8 0.00203287
5 *580:4 0.000756117
6 *8911:A *580:8 7.88926e-05
7 *9081:A *580:8 0.000325748
8 *222:10 *580:14 5.45887e-05
9 *328:10 *580:14 0
10 *330:10 *580:14 3.57974e-05
11 *344:134 *580:14 0
12 *344:155 *580:14 0.000400905
13 *389:26 *580:14 0.000567897
14 *406:14 *580:8 0.00296623
15 *461:29 *580:8 0.000321976
16 *476:14 *580:8 0.000205887
17 *576:22 *580:8 0.000540803
*RES
1 *8954:X *580:4 23 
2 *580:4 *580:8 47.5421 
3 *580:8 *580:14 38.4071 
4 *580:14 *8688:A0 23 
*END

*D_NET *581 0.00970888
*CONN
*I *8609:A I *D sky130_fd_sc_hd__and2_1
*I *8955:X O *D sky130_fd_sc_hd__buf_1
*CAP
1 *8609:A 0
2 *8955:X 0
3 *581:10 0.0023231
4 *581:8 0.00413134
5 *581:4 0.00180825
6 *285:108 *581:10 0.00144619
*RES
1 *8955:X *581:4 23 
2 *581:4 *581:8 28.0368 
3 *581:8 *581:10 48.9789 
4 *581:10 *8609:A 23 
*END

*D_NET *582 0.0103578
*CONN
*I *8611:A I *D sky130_fd_sc_hd__and2_1
*I *8956:X O *D sky130_fd_sc_hd__buf_1
*CAP
1 *8611:A 0
2 *8956:X 0.00065515
3 *582:12 0.00433579
4 *582:10 0.00499094
5 *582:12 *605:8 0
6 *8940:A *582:10 7.88926e-05
7 *8940:A *582:12 4.21594e-06
8 *451:44 *582:10 0.000292802
9 *496:27 *582:12 0
10 *510:118 *582:12 0
11 *566:10 *582:12 0
*RES
1 *8956:X *582:10 48.5229 
2 *582:10 *582:12 81.8421 
3 *582:12 *8611:A 38 
*END

*D_NET *583 0.0153419
*CONN
*I *8613:A I *D sky130_fd_sc_hd__and2_1
*I *8957:X O *D sky130_fd_sc_hd__buf_1
*CAP
1 *8613:A 0
2 *8957:X 0
3 *583:18 0.00148682
4 *583:12 0.00395462
5 *583:8 0.00501982
6 *583:4 0.00255203
7 *142:15 *583:8 5.41385e-05
8 *322:87 *583:18 0.00218258
9 *322:96 *583:18 9.18526e-05
10 *447:23 *583:12 0
*RES
1 *8957:X *583:4 23 
2 *583:4 *583:8 48.495 
3 *583:8 *583:12 46.9696 
4 *583:12 *583:18 37.1096 
5 *583:18 *8613:A 38 
*END

*D_NET *584 0.0215822
*CONN
*I *8615:A I *D sky130_fd_sc_hd__and2_1
*I *8958:X O *D sky130_fd_sc_hd__buf_1
*CAP
1 *8615:A 0
2 *8958:X 0.000359163
3 *584:10 0.00498173
4 *584:8 0.0053409
5 *451:20 *584:10 0.010422
6 *484:26 *584:8 0.000478433
*RES
1 *8958:X *584:8 43.3857 
2 *584:8 *584:10 137.129 
3 *584:10 *8615:A 38 
*END

*D_NET *585 0.0419249
*CONN
*I *8617:A I *D sky130_fd_sc_hd__and2_1
*I *8959:X O *D sky130_fd_sc_hd__clkbuf_2
*CAP
1 *8617:A 0
2 *8959:X 0.00012945
3 *585:44 8.68303e-05
4 *585:38 0.00190274
5 *585:36 0.0023374
6 *585:22 0.00735728
7 *585:20 0.00683579
8 *585:18 0.0012926
9 *585:16 0.00252831
10 *585:12 0.00316772
11 *585:8 0.00206146
12 *8618:A *585:38 4.57742e-05
13 *8627:A *585:38 0.000137651
14 *8809:CLK *585:36 5.50106e-05
15 *8809:D *585:36 3.16665e-05
16 *8809:RESET_B *585:36 2.8521e-05
17 *8848:RESET_B *585:38 2.62973e-05
18 *8899:A *585:12 5.05059e-05
19 *8935:A *585:18 2.11066e-05
20 *22:15 *585:12 4.71078e-05
21 *144:15 *585:8 0.00014196
22 *144:15 *585:12 3.23515e-05
23 *196:14 *585:16 7.83014e-05
24 *266:10 *585:38 1.76557e-05
25 *296:118 *585:44 0.000215791
26 *385:54 *585:38 9.4713e-05
27 *408:8 *585:38 0.00208019
28 *408:10 *585:22 0.000159801
29 *408:10 *585:36 0.000685134
30 *408:10 *585:38 0.000752656
31 *412:18 *585:18 0.00315816
32 *412:26 *585:16 0.00044799
33 *412:26 *585:18 8.64896e-05
34 *423:30 *585:12 0
35 *487:10 *585:38 5.29247e-05
36 *492:12 *585:12 0.00071528
37 *492:12 *585:16 0.00153096
38 *510:12 *585:44 0.000215791
39 *511:26 *585:36 0.00023937
40 *511:28 *585:36 8.19589e-05
41 *511:62 *585:38 8.39179e-05
42 *512:24 *585:22 0.000615876
43 *530:14 *585:12 0
44 *530:24 *585:16 0.00229439
*RES
1 *8959:X *585:8 40.5271 
2 *585:8 *585:12 45.7682 
3 *585:12 *585:16 47.4979 
4 *585:16 *585:18 43.2825 
5 *585:18 *585:20 15 
6 *585:20 *585:22 91.3811 
7 *585:22 *585:36 16.3539 
8 *585:36 *585:38 47.3114 
9 *585:38 *585:44 32.9621 
10 *585:44 *8617:A 23 
*END

*D_NET *586 0.0189749
*CONN
*I *8619:A I *D sky130_fd_sc_hd__and2_1
*I *8960:X O *D sky130_fd_sc_hd__buf_1
*CAP
1 *8619:A 0
2 *8960:X 0
3 *586:22 0.00106788
4 *586:18 0.00308207
5 *586:10 0.00494722
6 *586:8 0.00504523
7 *586:4 0.00211221
8 *586:18 *593:18 6.79006e-05
9 *285:54 *586:22 0.00265238
*RES
1 *8960:X *586:4 23 
2 *586:4 *586:8 28.0368 
3 *586:8 *586:10 50.17 
4 *586:10 *586:18 42.5604 
5 *586:18 *586:22 44.2071 
6 *586:22 *8619:A 23 
*END

*D_NET *587 0.0249309
*CONN
*I *8621:A I *D sky130_fd_sc_hd__and2_1
*I *8961:X O *D sky130_fd_sc_hd__buf_1
*CAP
1 *8621:A 0
2 *8961:X 8.10608e-05
3 *587:20 0.00211582
4 *587:18 0.00214897
5 *587:16 0.00237636
6 *587:14 0.00234321
7 *587:12 0.00290939
8 *587:10 0.00290939
9 *587:8 8.10608e-05
10 *587:12 *608:26 0.00161556
11 *260:10 *587:16 8.4047e-05
12 *285:32 *587:20 1.14452e-05
13 *333:91 *587:20 0
14 *333:155 *587:20 0
15 *387:67 *587:20 3.56433e-05
16 *401:10 *587:16 0.0022428
17 *401:10 *587:20 0.00457639
18 *430:143 *587:12 0.00139974
19 *487:26 *587:16 0
20 *487:26 *587:20 0
*RES
1 *8961:X *587:8 39.2014 
2 *587:8 *587:10 15 
3 *587:10 *587:12 47.3114 
4 *587:12 *587:14 15 
5 *587:14 *587:16 59.5846 
6 *587:16 *587:18 0.621429 
7 *587:18 *587:20 60.0818 
8 *587:20 *8621:A 38 
*END

*D_NET *588 0.0223662
*CONN
*I *8624:A I *D sky130_fd_sc_hd__and2_1
*I *8962:X O *D sky130_fd_sc_hd__buf_1
*CAP
1 *8624:A 0
2 *8962:X 0
3 *588:22 0.000556405
4 *588:14 0.00280559
5 *588:6 0.00373965
6 *588:4 0.00149047
7 *588:14 *606:8 0.000877516
8 *8671:A *588:22 5.50049e-05
9 *8849:CLK *588:22 0.000145593
10 *8929:A *588:14 2.89076e-05
11 *8938:A *588:14 7.88926e-05
12 *9078:A *588:14 0.00100194
13 *384:52 *588:22 0.000222104
14 *451:20 *588:22 0.000323473
15 *451:32 *588:14 9.45849e-05
16 *451:40 *588:6 0.00351332
17 *451:44 *588:6 0.0022713
18 *477:30 *588:22 3.65271e-05
19 *484:28 *588:6 0.00356864
20 *484:28 *588:14 7.6241e-05
21 *510:82 *588:22 0.000476743
22 *534:8 *588:14 0.0010033
*RES
1 *8962:X *588:4 23 
2 *588:4 *588:6 64.4629 
3 *588:6 *588:14 44.2664 
4 *588:14 *588:22 44.3343 
5 *588:22 *8624:A 23 
*END

*D_NET *589 0.020985
*CONN
*I *8586:A I *D sky130_fd_sc_hd__and2_1
*I *8963:X O *D sky130_fd_sc_hd__buf_1
*CAP
1 *8586:A 4.01155e-05
2 *8963:X 4.6575e-05
3 *589:16 0.00632235
4 *589:14 0.00632235
5 *589:12 0.00371933
6 *589:10 0.00367922
7 *589:8 4.6575e-05
8 *589:8 *607:10 0.000141888
9 *8643:A *589:12 0.000228909
10 *8801:D *589:16 1.79538e-05
11 *389:55 *589:16 9.91701e-05
12 *389:61 *589:16 0.000123934
13 *417:8 *589:12 5.47808e-05
14 *436:10 *589:8 0.000141888
*RES
1 *8963:X *589:8 39.9057 
2 *589:8 *589:10 15 
3 *589:10 *589:12 67.5596 
4 *589:12 *589:14 0.849286 
5 *589:14 *589:16 79.9468 
6 *589:16 *8586:A 23.8493 
*END

*D_NET *590 0.024189
*CONN
*I *8626:A I *D sky130_fd_sc_hd__and2_1
*I *8964:X O *D sky130_fd_sc_hd__dlymetal6s2s_1
*CAP
1 *8626:A 0
2 *8964:X 0
3 *590:10 0.00148803
4 *590:8 0.00148803
5 *590:6 0.00805074
6 *590:4 0.00805074
7 *296:57 *590:10 0
8 *311:159 *590:10 0.00386973
9 *510:12 *590:10 0.000277483
10 *510:20 *590:10 0.000964192
*RES
1 *8964:X *590:4 23 
2 *590:4 *590:6 144.026 
3 *590:6 *590:8 15 
4 *590:8 *590:10 50.8536 
5 *590:10 *8626:A 38 
*END

*D_NET *591 0.0193834
*CONN
*I *8690:A0 I *D sky130_fd_sc_hd__mux2_1
*I *8965:X O *D sky130_fd_sc_hd__dlymetal6s2s_1
*CAP
1 *8690:A0 0
2 *8965:X 0
3 *591:14 0.00452214
4 *591:12 0.00594393
5 *591:6 0.00498753
6 *591:4 0.00356574
7 *8682:S *591:14 0
8 *8847:RESET_B *591:14 0
9 *11:13 *591:6 0.000141954
10 *486:21 *591:14 0
11 *540:8 *591:14 0
12 *568:30 *591:14 0.000222104
*RES
1 *8965:X *591:4 23 
2 *591:4 *591:6 64.7011 
3 *591:6 *591:12 38.7489 
4 *591:12 *591:14 84.3071 
5 *591:14 *8690:A0 38 
*END

*D_NET *592 0.0119023
*CONN
*I *8628:A I *D sky130_fd_sc_hd__and2_1
*I *8966:X O *D sky130_fd_sc_hd__buf_1
*CAP
1 *8628:A 0
2 *8966:X 0
3 *592:12 0.000107136
4 *592:6 0.00595115
5 *592:4 0.00584401
*RES
1 *8966:X *592:4 23 
2 *592:4 *592:6 76.85 
3 *592:6 *592:12 31.9057 
4 *592:12 *8628:A 23 
*END

*D_NET *593 0.0319353
*CONN
*I *8630:A I *D sky130_fd_sc_hd__and2_1
*I *8967:X O *D sky130_fd_sc_hd__clkbuf_2
*CAP
1 *8630:A 0
2 *8967:X 5.97594e-05
3 *593:18 0.0067552
4 *593:16 0.0067552
5 *593:14 0.00206617
6 *593:12 0.00215709
7 *593:8 0.00015068
8 pwdata[2] *593:18 0
9 *8908:A *593:18 0
10 *110:14 *593:8 1.27424e-05
11 *151:11 *593:8 8.48189e-05
12 *463:16 *593:14 0.00805615
13 *477:34 *593:14 9.84794e-05
14 *477:36 *593:14 0.00225102
15 *477:44 *593:8 1.43064e-05
16 *477:44 *593:14 0.000265037
17 *485:24 *593:18 0
18 *485:26 *593:14 0.000317346
19 *494:16 *593:14 0.00282346
20 *586:18 *593:18 6.79006e-05
*RES
1 *8967:X *593:8 39.2014 
2 *593:8 *593:12 16.9057 
3 *593:12 *593:14 103.53 
4 *593:14 *593:16 15 
5 *593:16 *593:18 127.621 
6 *593:18 *8630:A 38 
*END

*D_NET *594 0.0103658
*CONN
*I *8632:A I *D sky130_fd_sc_hd__and2_1
*I *8968:X O *D sky130_fd_sc_hd__buf_1
*CAP
1 *8632:A 0
2 *8968:X 0
3 *594:14 0.000222411
4 *594:6 0.00399738
5 *594:4 0.00377497
6 *401:14 *594:6 0.00033884
7 *401:22 *594:6 0.000138869
8 *411:10 *594:14 0
9 *460:12 *594:14 6.4393e-05
10 *526:6 *594:6 0.000232908
11 *552:12 *594:6 0.00127846
12 *570:20 *594:14 0.000317553
*RES
1 *8968:X *594:4 23 
2 *594:4 *594:6 57.7929 
3 *594:6 *594:14 35.3857 
4 *594:14 *8632:A 23 
*END

*D_NET *595 0.0318462
*CONN
*I *8634:A I *D sky130_fd_sc_hd__and2_1
*I *8969:X O *D sky130_fd_sc_hd__clkbuf_2
*CAP
1 *8634:A 0
2 *8969:X 0
3 *595:14 0.00176328
4 *595:12 0.00176328
5 *595:10 0.00880449
6 *595:8 0.0104561
7 *595:4 0.00165159
8 *232:10 *595:14 0.000141879
9 *311:159 *595:14 0.00181279
10 *576:24 *595:14 0.00545285
*RES
1 *8969:X *595:4 23 
2 *595:4 *595:8 27.5604 
3 *595:8 *595:10 115.202 
4 *595:10 *595:12 15 
5 *595:12 *595:14 71.63 
6 *595:14 *8634:A 38 
*END

*D_NET *596 0.019732
*CONN
*I *8636:A I *D sky130_fd_sc_hd__and2_1
*I *8970:X O *D sky130_fd_sc_hd__dlymetal6s2s_1
*CAP
1 *8636:A 2.34823e-05
2 *8970:X 0
3 *596:12 0.00749446
4 *596:10 0.00798057
5 *596:6 0.000509594
6 *8636:B *596:12 5.50049e-05
7 *434:25 *596:12 0.00258695
8 *545:8 *596:10 0
9 *568:8 *596:10 0.00108198
*RES
1 *8970:X *596:6 38 
2 *596:6 *596:10 29.2307 
3 *596:10 *596:12 147.838 
4 *596:12 *8636:A 23.4971 
*END

*D_NET *597 0.0198424
*CONN
*I *8638:A I *D sky130_fd_sc_hd__and2_1
*I *8971:X O *D sky130_fd_sc_hd__buf_1
*CAP
1 *8638:A 0.000253242
2 *8971:X 0.000664555
3 *597:12 0.00675497
4 *597:10 0.00716628
5 *8682:A1 *597:12 5.76076e-05
6 *221:8 *597:12 5.31444e-05
7 *225:8 *597:12 8.62876e-05
8 *296:40 *8638:A 0.000566283
9 *332:8 *597:12 4.334e-05
10 *344:103 *597:10 0
11 *388:28 *597:12 0.000158654
12 *388:39 *597:12 4.77096e-05
13 *434:21 *597:12 0.00211478
14 *453:12 *597:12 0.00101329
15 *453:35 *597:12 0.000233181
16 *454:14 *597:12 0.000218962
17 *471:14 *597:12 0.000410118
18 *483:8 *597:12 0
19 *499:16 *597:10 0
*RES
1 *8971:X *597:10 49.7139 
2 *597:10 *597:12 149.195 
3 *597:12 *8638:A 44.3386 
*END

*D_NET *598 0.0145113
*CONN
*I *8640:A I *D sky130_fd_sc_hd__and2_1
*I *8972:X O *D sky130_fd_sc_hd__buf_1
*CAP
1 *8640:A 0.00155105
2 *8972:X 0.000553962
3 *598:34 0.0022036
4 *598:28 0.00171339
5 *598:22 0.00178351
6 *598:14 0.00127663
7 m_rdata[21] *598:22 0
8 *8667:A *8640:A 9.84851e-05
9 *8905:A *598:14 6.29881e-05
10 *8938:A *598:22 0
11 *8980:A *598:34 0.000155132
12 *462:10 *598:34 0.00100547
13 *462:22 *598:22 1.01436e-05
14 *462:24 *598:14 0.000574096
15 *463:16 *598:28 0.000733707
16 *485:26 *598:28 0.00156881
17 *531:8 *598:14 8.62783e-05
18 *531:14 *598:22 0.00113406
19 *532:10 *598:34 0
*RES
1 *8972:X *598:14 47.4871 
2 *598:14 *598:22 45.1421 
3 *598:22 *598:28 47.0864 
4 *598:28 *598:34 45.6393 
5 *598:34 *8640:A 49.0586 
*END

*D_NET *599 0.00366475
*CONN
*I *8642:A I *D sky130_fd_sc_hd__and2_1
*I *8973:X O *D sky130_fd_sc_hd__clkbuf_1
*CAP
1 *8642:A 0
2 *8973:X 0.00015074
3 *599:14 0.000996706
4 *599:8 0.00114745
5 *296:16 *599:14 0.00010018
6 *481:8 *599:14 0.000461599
7 *490:10 *599:14 0.000808075
*RES
1 *8973:X *599:8 39.5743 
2 *599:8 *599:14 38.7179 
3 *599:14 *8642:A 23 
*END

*D_NET *600 0.0490163
*CONN
*I *8644:A I *D sky130_fd_sc_hd__and2_1
*I *8974:X O *D sky130_fd_sc_hd__buf_2
*CAP
1 *8644:A 0
2 *8974:X 0
3 *600:14 0.00203663
4 *600:10 0.00585487
5 *600:8 0.00381824
6 *600:6 0.0146366
7 *600:4 0.0146366
8 *8629:A *600:6 0.000202991
9 *8758:A1 *600:14 0
10 *8774:A0 *600:6 0.000467023
11 *8774:S *600:6 1.12268e-05
12 *8841:CLK *600:14 0.000191166
13 *8847:RESET_B *600:14 0
14 *8885:A *600:6 9.29049e-05
15 *257:8 *600:14 0
16 *275:40 *600:10 0
17 *275:40 *600:14 0
18 *366:51 *600:6 2.85801e-05
19 *366:81 *600:6 3.24081e-05
20 *383:155 *600:10 0.000365098
21 *414:8 *600:10 0
22 *414:8 *600:14 0
23 *421:10 *600:10 0.00109581
24 *478:8 *600:10 0
25 *478:8 *600:14 0
26 *505:10 *600:10 0.000590454
27 *512:24 *600:14 0
28 *512:28 *600:14 0
29 *524:6 *600:6 0.000310813
30 *559:14 *600:6 0.00143343
31 *559:16 *600:6 0.00321149
*RES
1 *8974:X *600:4 23 
2 *600:4 *600:6 211.203 
3 *600:6 *600:8 15 
4 *600:8 *600:10 86.8446 
5 *600:10 *600:14 36.9646 
6 *600:14 *8644:A 38 
*END

*D_NET *601 0.0108006
*CONN
*I *8588:A I *D sky130_fd_sc_hd__and2_1
*I *8975:X O *D sky130_fd_sc_hd__buf_1
*CAP
1 *8588:A 0
2 *8975:X 0.00105662
3 *601:16 0.000820951
4 *601:10 0.00398926
5 *601:8 0.00316831
6 *601:6 0.00105662
7 *8589:A *601:16 0.000272383
8 *159:15 *601:6 3.71887e-05
9 *419:6 *601:16 0.000355528
10 *430:16 *601:16 4.37033e-05
*RES
1 *8975:X *601:6 36.9614 
2 *601:6 *601:8 15 
3 *601:8 *601:10 60.7136 
4 *601:10 *601:16 32.7936 
5 *601:16 *8588:A 23 
*END

*D_NET *602 0.0350567
*CONN
*I *8692:A0 I *D sky130_fd_sc_hd__mux2_1
*I *8976:X O *D sky130_fd_sc_hd__clkbuf_2
*CAP
1 *8692:A0 0.000246307
2 *8976:X 0
3 *602:16 0.00441524
4 *602:14 0.00416894
5 *602:12 0.00217529
6 *602:8 0.0079799
7 *602:6 0.0058046
8 *602:16 *8600:A 0.000312348
9 *602:16 *607:28 0.000137651
10 *8660:A1 *602:12 5.33691e-05
11 *8660:S *602:12 0
12 *211:8 *602:12 0.000114092
13 *280:10 *602:16 0.00048103
14 *289:10 *602:12 0
15 *311:110 *602:8 0
16 *311:110 *602:12 0
17 *321:28 *8692:A0 0.000785351
18 *321:28 *602:16 7.9284e-05
19 *321:30 *602:16 0.00388982
20 *344:18 *8692:A0 0.000311309
21 *412:14 *602:16 0.000196655
22 *428:14 *602:16 0.000905034
23 *430:54 *602:16 1.21972e-05
24 *430:56 *602:16 0.000227985
25 *430:67 *602:16 0.00241767
26 *455:10 *602:12 0.000342579
*RES
1 *8976:X *602:6 38 
2 *602:6 *602:8 110.666 
3 *602:8 *602:12 43.7796 
4 *602:12 *602:14 15 
5 *602:14 *602:16 106.389 
6 *602:16 *8692:A0 32.57 
*END

*D_NET *603 0.0328806
*CONN
*I *8646:A I *D sky130_fd_sc_hd__and2_1
*I *8977:X O *D sky130_fd_sc_hd__clkbuf_2
*CAP
1 *8646:A 0
2 *8977:X 0
3 *603:12 0.0119104
4 *603:10 0.0119104
5 *603:8 0.00296043
6 *603:6 0.00296043
7 pwrite *603:8 2.26497e-05
8 *8737:A1 *603:8 0
9 *8907:A *603:8 0
10 *247:8 *603:8 4.59027e-05
11 *356:10 *603:8 0
12 *429:22 *603:8 0.000200646
13 *441:24 *603:8 0
14 *452:20 *603:8 0.00261071
15 *479:20 *603:8 0.000192087
16 *501:21 *603:8 0
17 *501:29 *603:8 0
18 *572:10 *603:8 0
19 *572:10 *603:12 6.69899e-05
*RES
1 *8977:X *603:6 38 
2 *603:6 *603:8 69.8693 
3 *603:8 *603:10 15 
4 *603:10 *603:12 209.774 
5 *603:12 *8646:A 23 
*END

*D_NET *604 0.0173476
*CONN
*I *8648:A I *D sky130_fd_sc_hd__and2_1
*I *8978:X O *D sky130_fd_sc_hd__buf_1
*CAP
1 *8648:A 0
2 *8978:X 0.000944025
3 *604:16 0.00165317
4 *604:12 0.00165317
5 *604:10 0.00350937
6 *604:8 0.00350937
7 *604:6 0.000944025
8 *393:10 *604:6 0.00148616
9 *553:6 *604:16 0.00361211
10 *553:12 *604:16 3.61695e-05
*RES
1 *8978:X *604:6 39.3436 
2 *604:6 *604:8 15 
3 *604:8 *604:10 67.4043 
4 *604:10 *604:12 15 
5 *604:12 *604:16 40.6621 
6 *604:16 *8648:A 23 
*END

*D_NET *605 0.0140522
*CONN
*I *8590:A I *D sky130_fd_sc_hd__and2_1
*I *8979:X O *D sky130_fd_sc_hd__buf_1
*CAP
1 *8590:A 0.000234656
2 *8979:X 0
3 *605:8 0.00660609
4 *605:6 0.00637143
5 *290:10 *605:8 4.48671e-05
6 *381:8 *605:8 2.5415e-05
7 *399:8 *605:8 0.000169674
8 *430:77 *8590:A 0.00044458
9 *496:27 *605:8 7.38842e-05
10 *510:118 *605:8 8.16356e-05
11 *582:12 *605:8 0
*RES
1 *8979:X *605:6 38 
2 *605:6 *605:8 123.395 
3 *605:8 *8590:A 43.8829 
*END

*D_NET *606 0.023612
*CONN
*I *8592:A I *D sky130_fd_sc_hd__and2_1
*I *8980:X O *D sky130_fd_sc_hd__buf_1
*CAP
1 *8592:A 7.13206e-05
2 *8980:X 0.000705783
3 *606:14 0.00345127
4 *606:12 0.0035028
5 *606:8 0.000828634
6 *8958:A *606:12 0.000109333
7 *216:8 *606:14 0.000191166
8 *366:57 *606:14 0.000294925
9 *375:12 *606:14 0.000241736
10 *402:12 *606:12 0
11 *402:12 *606:14 0
12 *428:12 *8592:A 0.000310647
13 *430:67 *8592:A 0.000310647
14 *445:20 *606:14 0.000159813
15 *445:22 *606:14 0.00357186
16 *477:20 *606:14 0.00812245
17 *477:30 *606:12 0.000110354
18 *477:30 *606:14 0.000690135
19 *534:8 *606:8 6.16045e-05
20 *588:14 *606:8 0.000877516
*RES
1 *8980:X *606:8 49.5793 
2 *606:8 *606:12 2.47536 
3 *606:12 *606:14 129.205 
4 *606:14 *8592:A 41.48 
*END

*D_NET *607 0.0294015
*CONN
*I *8594:A I *D sky130_fd_sc_hd__and2_1
*I *8981:X O *D sky130_fd_sc_hd__clkbuf_2
*CAP
1 *8594:A 0
2 *8981:X 0
3 *607:28 0.000298365
4 *607:20 0.000781316
5 *607:16 0.00225157
6 *607:12 0.00781887
7 *607:10 0.00674047
8 *607:6 0.000690215
9 *81:15 *607:10 8.02832e-05
10 *281:12 *607:28 1.01436e-05
11 *296:42 *607:20 0.00198792
12 *296:96 *607:28 0.00025214
13 *296:118 *607:28 0.000183811
14 *430:25 *607:20 0.0010057
15 *430:33 *607:28 0
16 *430:42 *607:28 0
17 *430:54 *607:28 4.14029e-05
18 *430:56 *607:28 9.41704e-05
19 *430:123 *607:28 7.30392e-06
20 *436:10 *607:10 0.000965661
21 *440:23 *607:10 0.000689377
22 *440:27 *607:10 0.000784444
23 *481:12 *607:12 0.00443879
24 *589:8 *607:10 0.000141888
25 *602:16 *607:28 0.000137651
*RES
1 *8981:X *607:6 38 
2 *607:6 *607:10 42.9643 
3 *607:10 *607:12 126.399 
4 *607:12 *607:16 48.5986 
5 *607:16 *607:20 37.0607 
6 *607:20 *607:28 37.3536 
7 *607:28 *8594:A 23 
*END

*D_NET *608 0.0207778
*CONN
*I *8596:A I *D sky130_fd_sc_hd__and2_1
*I *8982:X O *D sky130_fd_sc_hd__buf_1
*CAP
1 *8596:A 0
2 *8982:X 0.000978343
3 *608:26 0.00121474
4 *608:20 0.00403426
5 *608:18 0.00551759
6 *608:14 0.00277577
7 *608:8 0.00105605
8 m_rdata[14] *608:8 1.32939e-05
9 *8596:B *608:26 6.26126e-05
10 *8992:A *608:8 0.00143838
11 *165:17 *608:8 0.00010018
12 *282:10 *608:26 1.21972e-05
13 *400:14 *608:14 1.22803e-05
14 *430:143 *608:26 6.09892e-05
15 *548:20 *608:8 5.13142e-05
16 *571:8 *608:14 8.62876e-05
17 *571:14 *608:18 0.00174791
18 *587:12 *608:26 0.00161556
*RES
1 *8982:X *608:8 44.605 
2 *608:8 *608:14 31.5536 
3 *608:14 *608:18 40.1754 
4 *608:18 *608:20 50.17 
5 *608:20 *608:26 33.2982 
6 *608:26 *8596:A 23 
*END

*D_NET *609 0.0100311
*CONN
*I *8598:A I *D sky130_fd_sc_hd__and2_1
*I *8983:X O *D sky130_fd_sc_hd__buf_1
*CAP
1 *8598:A 8.47031e-05
2 *8983:X 8.52579e-05
3 *609:10 0.00320009
4 *609:8 0.00320065
5 *609:10 *611:14 0.00100292
6 *153:13 *609:10 0
7 *203:10 *609:10 0
8 *422:12 *8598:A 0.000103647
9 *506:22 *609:10 0.00151131
10 *506:28 *609:10 0.000296302
11 *538:8 *609:10 0.000546186
12 *544:12 *609:10 0
*RES
1 *8983:X *609:8 39.0979 
2 *609:8 *609:10 77.9686 
3 *609:10 *8598:A 40.0507 
*END

*D_NET *610 0.0440384
*CONN
*I *8600:A I *D sky130_fd_sc_hd__and2_1
*I *618:DIODE I *D sky130_fd_sc_hd__diode_2
*I *8984:X O *D sky130_fd_sc_hd__clkbuf_2
*CAP
1 *8600:A 0.000186714
2 *618:DIODE 0
3 *8984:X 2.80778e-05
4 *610:26 0.000186714
5 *610:24 0.00134635
6 *610:22 0.00141219
7 *610:16 0.00275019
8 *610:14 0.00812804
9 *610:10 0.00547177
10 *8932:A *610:10 0
11 *8934:A *610:16 6.10551e-06
12 *8984:A *610:10 3.76959e-05
13 *9081:A *610:14 0.000126703
14 *277:8 *610:24 4.08641e-05
15 *284:14 *8600:A 5.3304e-05
16 *366:43 *610:24 0.0039427
17 *366:47 *610:16 0.00480398
18 *371:8 *610:16 0.000477039
19 *393:10 *610:14 0.000109901
20 *414:16 *610:14 0.000446364
21 *442:47 *610:16 0
22 *442:57 *610:14 0.00158971
23 *464:12 *610:14 0.000146757
24 *476:14 *610:14 0.000117145
25 *557:16 *610:16 0.000502704
26 *557:20 *610:24 0.00130455
27 *576:22 *610:14 0.0105105
28 *602:16 *8600:A 0.000312348
*RES
1 *8984:X *610:10 46.6732 
2 *610:10 *610:14 31.4117 
3 *610:14 *610:16 76.3839 
4 *610:16 *610:22 31.2014 
5 *610:22 *610:24 51.91 
6 *610:24 *610:26 15 
7 *610:26 *618:DIODE 23 
8 *610:26 *8600:A 27.6814 
*END

*D_NET *611 0.00352935
*CONN
*I *8603:A I *D sky130_fd_sc_hd__and2_1
*I *8985:X O *D sky130_fd_sc_hd__clkbuf_1
*CAP
1 *8603:A 0
2 *8985:X 0.000119538
3 *611:14 0.000623803
4 *611:8 0.000743341
5 *168:13 *611:8 3.71251e-05
6 *427:12 *611:14 0.000128401
7 *506:20 *611:14 0.000569427
8 *506:22 *611:14 0.000304792
9 *544:12 *611:14 0
10 *609:10 *611:14 0.00100292
*RES
1 *8985:X *611:8 39.5743 
2 *611:8 *611:14 36.3357 
3 *611:14 *8603:A 23 
*END

*D_NET *612 0.015714
*CONN
*I *8655:A1 I *D sky130_fd_sc_hd__o21ai_1
*I *8582:C I *D sky130_fd_sc_hd__and3b_2
*I *8986:X O *D sky130_fd_sc_hd__buf_1
*CAP
1 *8655:A1 1.56004e-05
2 *8582:C 0
3 *8986:X 0.000783642
4 *612:32 0.000386022
5 *612:20 0.000554599
6 *612:14 0.00211269
7 *612:12 0.00293052
8 *612:8 0.00175445
9 *612:32 *8578:B_N 0.00016279
10 *612:32 *8580:B_N 0.000400198
11 *8581:A *612:32 6.68617e-05
12 *8613:B *612:14 0.000574102
13 *8655:A2 *8655:A1 2.93284e-05
14 *8655:A2 *612:32 0.000618478
15 *8655:B1 *8655:A1 1.21382e-05
16 *8655:B1 *612:32 2.32004e-05
17 *8851:CLK *612:12 0.000698804
18 *3:19 *612:14 0.00015463
19 *169:15 *612:8 4.06849e-05
20 *208:8 *612:20 2.96369e-05
21 *273:8 *612:32 0.000233706
22 *291:10 *612:14 0.000230604
23 *311:201 *612:14 0.000487153
24 *389:123 *612:12 0.00120487
25 *408:16 *612:32 0.000106872
26 *418:8 *612:32 8.29052e-05
27 *437:34 *612:32 6.16164e-05
28 *467:6 *612:14 0.00129889
29 *489:61 *612:14 0.000324879
30 *568:24 *612:32 0.000334085
*RES
1 *8986:X *612:8 48.15 
2 *612:8 *612:12 40.1471 
3 *612:12 *612:14 48.2643 
4 *612:14 *612:20 31.9057 
5 *612:20 *612:32 45.1732 
6 *612:32 *8582:C 23 
7 *612:20 *8655:A1 23.5334 
*END

*D_NET *613 0.00507258
*CONN
*I *8580:B_N I *D sky130_fd_sc_hd__or2b_1
*I *8582:A_N I *D sky130_fd_sc_hd__and3b_2
*I *8650:A I *D sky130_fd_sc_hd__or3b_2
*I *8578:A I *D sky130_fd_sc_hd__or2b_1
*I *8791:Q O *D sky130_fd_sc_hd__dfrtp_1
*CAP
1 *8580:B_N 0.000152346
2 *8582:A_N 0
3 *8650:A 0
4 *8578:A 6.93947e-05
5 *8791:Q 0.000405598
6 *613:37 0.000248393
7 *613:29 0.000387956
8 *613:12 0.000316887
9 *613:8 0.000665873
10 *8580:B_N *8883:A 0.000265472
11 *613:8 *8883:A 1.22822e-05
12 *613:29 *8578:B_N 0.000181131
13 *613:37 *8578:B_N 4.21594e-06
14 *613:37 *614:35 0
15 *8792:RESET_B *613:29 2.3529e-05
16 *8792:RESET_B *613:37 0
17 *8872:A *613:37 0.000185428
18 *275:8 *613:12 0.000160884
19 *275:22 *613:8 0.000321519
20 *311:12 *8580:B_N 9.75779e-05
21 *311:12 *613:8 0
22 *321:12 *613:37 1.19692e-05
23 *321:126 *613:29 5.70419e-05
24 *321:126 *613:37 5.97612e-05
25 *408:16 *613:12 4.13458e-05
26 *408:16 *613:29 1.62015e-05
27 *418:8 *8580:B_N 0.000196488
28 *437:34 *8578:A 9.84851e-05
29 *437:34 *613:29 0.000310647
30 *512:10 *613:37 0.00031495
31 *514:57 *613:37 2.18409e-05
32 *516:35 *613:37 3.47781e-05
33 *568:24 *613:29 1.03836e-05
34 *612:32 *8580:B_N 0.000400198
*RES
1 *8791:Q *613:8 29.235 
2 *613:8 *613:12 17.2579 
3 *613:12 *8578:A 39.0979 
4 *613:12 *613:29 19.8264 
5 *613:29 *613:37 36.5664 
6 *613:37 *8650:A 23 
7 *613:29 *8582:A_N 23 
8 *613:8 *8580:B_N 29.815 
*END

*D_NET *614 0.00466037
*CONN
*I *8578:B_N I *D sky130_fd_sc_hd__or2b_1
*I *8582:B I *D sky130_fd_sc_hd__and3b_2
*I *8650:B I *D sky130_fd_sc_hd__or3b_2
*I *8883:A I *D sky130_fd_sc_hd__dlygate4sd3_1
*I *8792:Q O *D sky130_fd_sc_hd__dfrtp_1
*CAP
1 *8578:B_N 0.000117574
2 *8582:B 3.3552e-05
3 *8650:B 0
4 *8883:A 0.000132877
5 *8792:Q 0.000343263
6 *614:35 0.000537301
7 *614:27 0.000570853
8 *614:25 0.000289785
9 *614:10 0.00064835
10 *8580:B_N *8883:A 0.000265472
11 *8792:RESET_B *8578:B_N 3.83778e-05
12 *8792:RESET_B *614:10 0.000156777
13 *8792:RESET_B *614:25 7.30798e-05
14 *275:22 *8883:A 4.67488e-05
15 *275:78 *614:35 0
16 *307:10 *614:10 0
17 *311:32 *614:10 0.000107748
18 *321:12 *8578:B_N 0
19 *321:12 *614:10 0
20 *321:12 *614:25 0
21 *321:12 *614:35 3.91747e-05
22 *418:8 *8883:A 0.000388071
23 *437:34 *8578:B_N 2.32101e-05
24 *437:34 *8582:B 5.50106e-05
25 *437:34 *614:35 0.000398503
26 *512:14 *614:35 0
27 *516:35 *614:35 0
28 *568:24 *8578:B_N 3.42276e-05
29 *612:32 *8578:B_N 0.00016279
30 *613:8 *8883:A 1.22822e-05
31 *613:29 *8578:B_N 0.000181131
32 *613:37 *8578:B_N 4.21594e-06
33 *613:37 *614:35 0
*RES
1 *8792:Q *614:10 43.2614 
2 *614:10 *8883:A 42.4329 
3 *614:10 *614:25 2.67214 
4 *614:25 *614:27 15 
5 *614:27 *614:35 39.1557 
6 *614:35 *8650:B 23 
7 *614:27 *8582:B 23.6214 
8 *614:25 *8578:B_N 41.7286 
*END
