*SPEF "ieee 1481-1999"
*DESIGN "uart_top"
*DATE "11:11:11 Fri 11 11, 1111"
*VENDOR "OpenRCX"
*PROGRAM "Parallel Extraction"
*VERSION "1.0"
*DESIGN_FLOW "NAME_SCOPE LOCAL" "PIN_CAP NONE"
*DIVIDER /
*DELIMITER :
*BUS_DELIMITER []
*T_UNIT 1 NS
*C_UNIT 1 PF
*R_UNIT 1 OHM
*L_UNIT 1 HENRY

*NAME_MAP
*3 clk
*4 data_in[0]
*5 data_in[1]
*6 data_in[2]
*7 data_in[3]
*8 data_in[4]
*9 data_in[5]
*10 data_in[6]
*11 data_in[7]
*12 data_out[0]
*13 data_out[1]
*14 data_out[2]
*15 data_out[3]
*16 data_out[4]
*17 data_out[5]
*18 data_out[6]
*19 data_out[7]
*20 data_ready
*21 data_valid
*22 rst_n
*23 rx_in
*24 tx_busy
*25 tx_out
*26 _000_
*27 _001_
*28 _002_
*29 _003_
*30 _004_
*31 _005_
*32 _006_
*33 _007_
*34 _008_
*35 _009_
*36 _010_
*37 _011_
*38 _012_
*39 _013_
*40 _014_
*41 _015_
*42 _016_
*43 _017_
*44 _018_
*45 _019_
*46 _020_
*47 _021_
*48 _022_
*49 _023_
*50 _024_
*51 _025_
*52 _026_
*53 _027_
*54 _028_
*55 _029_
*56 _030_
*57 _031_
*58 _032_
*59 _033_
*60 _034_
*61 _035_
*62 _036_
*63 _037_
*64 _038_
*65 _039_
*66 _040_
*67 _041_
*68 _042_
*69 _043_
*70 _044_
*71 _045_
*72 _046_
*73 _047_
*74 _048_
*75 _049_
*76 _050_
*77 _051_
*78 _052_
*79 _053_
*80 _054_
*81 _055_
*82 _056_
*83 _057_
*84 _058_
*85 _059_
*86 _060_
*87 _061_
*88 _062_
*89 _063_
*90 _064_
*91 _065_
*92 _066_
*93 _067_
*94 _068_
*95 _069_
*96 _070_
*97 _071_
*98 _072_
*99 _073_
*100 _074_
*101 _075_
*102 _076_
*103 _077_
*104 _078_
*105 _079_
*106 _080_
*107 _081_
*108 _082_
*109 _083_
*110 _084_
*111 _085_
*112 _086_
*113 _087_
*114 _088_
*115 _089_
*116 _090_
*117 _091_
*118 _092_
*119 _093_
*120 _094_
*121 _095_
*122 _096_
*123 _097_
*124 _098_
*125 _099_
*126 _100_
*127 _101_
*128 _102_
*129 _103_
*130 _104_
*131 _105_
*132 _106_
*133 _107_
*134 _108_
*135 _109_
*136 _110_
*137 _111_
*138 _112_
*139 _113_
*140 _114_
*141 _115_
*142 _116_
*143 _117_
*144 _118_
*145 _119_
*146 _120_
*147 _121_
*148 _122_
*149 _123_
*150 _124_
*151 _125_
*152 _126_
*153 _127_
*154 _128_
*155 _129_
*156 _130_
*157 _131_
*158 _132_
*159 _133_
*160 _134_
*161 _135_
*162 _136_
*163 _137_
*164 _138_
*165 _139_
*166 _140_
*167 _141_
*168 _142_
*169 _143_
*170 _144_
*171 _145_
*172 _146_
*173 _147_
*174 _148_
*175 _149_
*176 _150_
*177 _151_
*178 _152_
*179 _153_
*180 _154_
*181 _155_
*182 _156_
*183 _157_
*184 _158_
*185 _159_
*186 _160_
*187 _161_
*188 _162_
*189 _163_
*190 _164_
*191 _165_
*192 _166_
*193 _167_
*194 _168_
*195 _169_
*196 _170_
*197 _171_
*198 _172_
*199 _173_
*200 _174_
*201 _175_
*202 _176_
*203 _177_
*204 _178_
*205 _179_
*206 _180_
*207 _181_
*208 _182_
*209 _183_
*210 _184_
*211 _185_
*212 _186_
*213 _187_
*214 _188_
*215 _189_
*216 _190_
*217 _191_
*218 _192_
*219 _193_
*220 _194_
*221 _195_
*222 _196_
*223 _197_
*224 _198_
*225 _199_
*226 _200_
*227 _201_
*228 _202_
*229 _203_
*230 clknet_0_clk
*231 clknet_3_0__leaf_clk
*232 clknet_3_1__leaf_clk
*233 clknet_3_2__leaf_clk
*234 clknet_3_3__leaf_clk
*235 clknet_3_4__leaf_clk
*236 clknet_3_5__leaf_clk
*237 clknet_3_6__leaf_clk
*238 clknet_3_7__leaf_clk
*239 net1
*240 net10
*241 net11
*242 net12
*243 net13
*244 net14
*245 net15
*246 net16
*247 net17
*248 net18
*249 net19
*250 net2
*251 net20
*252 net21
*253 net22
*254 net23
*255 net24
*256 net25
*257 net26
*258 net27
*259 net28
*260 net29
*261 net3
*262 net30
*263 net31
*264 net32
*265 net33
*266 net34
*267 net35
*268 net36
*269 net37
*270 net38
*271 net39
*272 net4
*273 net40
*274 net41
*275 net42
*276 net43
*277 net44
*278 net45
*279 net46
*280 net47
*281 net48
*282 net49
*283 net5
*284 net50
*285 net51
*286 net52
*287 net53
*288 net54
*289 net55
*290 net56
*291 net57
*292 net58
*293 net59
*294 net6
*295 net60
*296 net61
*297 net62
*298 net63
*299 net64
*300 net65
*301 net66
*302 net67
*303 net68
*304 net69
*305 net7
*306 net70
*307 net71
*308 net72
*309 net73
*310 net74
*311 net8
*312 net9
*313 rx_baud_cnt\[0\]
*314 rx_baud_cnt\[1\]
*315 rx_baud_cnt\[2\]
*316 rx_baud_cnt\[3\]
*317 rx_baud_cnt\[4\]
*318 rx_baud_cnt\[5\]
*319 rx_baud_cnt\[6\]
*320 rx_baud_cnt\[7\]
*321 rx_baud_cnt\[8\]
*322 rx_bit_cnt\[0\]
*323 rx_bit_cnt\[1\]
*324 rx_bit_cnt\[2\]
*325 rx_shift_reg\[0\]
*326 rx_shift_reg\[1\]
*327 rx_shift_reg\[2\]
*328 rx_shift_reg\[3\]
*329 rx_shift_reg\[4\]
*330 rx_shift_reg\[5\]
*331 rx_shift_reg\[6\]
*332 rx_shift_reg\[7\]
*333 rx_state\[0\]
*334 rx_state\[1\]
*335 rx_state\[2\]
*336 rx_state\[3\]
*337 rx_sync1
*338 rx_sync2
*339 tx_baud_cnt\[0\]
*340 tx_baud_cnt\[1\]
*341 tx_baud_cnt\[2\]
*342 tx_baud_cnt\[3\]
*343 tx_baud_cnt\[4\]
*344 tx_baud_cnt\[5\]
*345 tx_baud_cnt\[6\]
*346 tx_baud_cnt\[7\]
*347 tx_baud_cnt\[8\]
*348 tx_bit_cnt\[0\]
*349 tx_bit_cnt\[1\]
*350 tx_bit_cnt\[2\]
*351 tx_shift_reg\[0\]
*352 tx_shift_reg\[1\]
*353 tx_shift_reg\[2\]
*354 tx_shift_reg\[3\]
*355 tx_shift_reg\[4\]
*356 tx_shift_reg\[5\]
*357 tx_shift_reg\[6\]
*358 tx_shift_reg\[7\]
*359 tx_state\[0\]
*360 tx_state\[1\]
*361 tx_state\[2\]
*362 tx_state\[3\]
*363 FILLER_0_0_104
*364 FILLER_0_0_113
*365 FILLER_0_0_119
*366 FILLER_0_0_155
*367 FILLER_0_0_167
*368 FILLER_0_0_169
*369 FILLER_0_0_181
*370 FILLER_0_0_26
*371 FILLER_0_0_43
*372 FILLER_0_0_55
*373 FILLER_0_0_57
*374 FILLER_0_0_63
*375 FILLER_0_0_70
*376 FILLER_0_0_79
*377 FILLER_0_0_83
*378 FILLER_0_0_85
*379 FILLER_0_0_97
*380 FILLER_0_10_107
*381 FILLER_0_10_128
*382 FILLER_0_10_144
*383 FILLER_0_10_156
*384 FILLER_0_10_168
*385 FILLER_0_10_180
*386 FILLER_0_10_192
*387 FILLER_0_10_23
*388 FILLER_0_10_27
*389 FILLER_0_10_29
*390 FILLER_0_10_41
*391 FILLER_0_10_79
*392 FILLER_0_10_83
*393 FILLER_0_10_9
*394 FILLER_0_10_93
*395 FILLER_0_11_139
*396 FILLER_0_11_15
*397 FILLER_0_11_151
*398 FILLER_0_11_163
*399 FILLER_0_11_167
*400 FILLER_0_11_169
*401 FILLER_0_11_181
*402 FILLER_0_11_27
*403 FILLER_0_11_3
*404 FILLER_0_11_39
*405 FILLER_0_11_44
*406 FILLER_0_11_52
*407 FILLER_0_11_73
*408 FILLER_0_12_125
*409 FILLER_0_12_15
*410 FILLER_0_12_161
*411 FILLER_0_12_169
*412 FILLER_0_12_27
*413 FILLER_0_12_29
*414 FILLER_0_12_3
*415 FILLER_0_12_46
*416 FILLER_0_12_54
*417 FILLER_0_12_67
*418 FILLER_0_12_85
*419 FILLER_0_12_90
*420 FILLER_0_12_99
*421 FILLER_0_13_104
*422 FILLER_0_13_113
*423 FILLER_0_13_119
*424 FILLER_0_13_131
*425 FILLER_0_13_143
*426 FILLER_0_13_155
*427 FILLER_0_13_160
*428 FILLER_0_13_169
*429 FILLER_0_13_181
*430 FILLER_0_13_24
*431 FILLER_0_13_3
*432 FILLER_0_13_45
*433 FILLER_0_13_65
*434 FILLER_0_13_73
*435 FILLER_0_13_95
*436 FILLER_0_14_111
*437 FILLER_0_14_123
*438 FILLER_0_14_135
*439 FILLER_0_14_139
*440 FILLER_0_14_141
*441 FILLER_0_14_15
*442 FILLER_0_14_153
*443 FILLER_0_14_174
*444 FILLER_0_14_186
*445 FILLER_0_14_192
*446 FILLER_0_14_27
*447 FILLER_0_14_29
*448 FILLER_0_14_3
*449 FILLER_0_14_39
*450 FILLER_0_14_45
*451 FILLER_0_14_55
*452 FILLER_0_14_66
*453 FILLER_0_14_85
*454 FILLER_0_14_93
*455 FILLER_0_14_99
*456 FILLER_0_15_107
*457 FILLER_0_15_111
*458 FILLER_0_15_113
*459 FILLER_0_15_14
*460 FILLER_0_15_145
*461 FILLER_0_15_151
*462 FILLER_0_15_165
*463 FILLER_0_15_169
*464 FILLER_0_15_38
*465 FILLER_0_15_50
*466 FILLER_0_15_6
*467 FILLER_0_15_63
*468 FILLER_0_15_75
*469 FILLER_0_15_87
*470 FILLER_0_15_91
*471 FILLER_0_15_95
*472 FILLER_0_16_116
*473 FILLER_0_16_122
*474 FILLER_0_16_126
*475 FILLER_0_16_138
*476 FILLER_0_16_145
*477 FILLER_0_16_157
*478 FILLER_0_16_165
*479 FILLER_0_16_184
*480 FILLER_0_16_192
*481 FILLER_0_16_24
*482 FILLER_0_16_33
*483 FILLER_0_16_38
*484 FILLER_0_16_50
*485 FILLER_0_16_56
*486 FILLER_0_16_74
*487 FILLER_0_16_82
*488 FILLER_0_16_91
*489 FILLER_0_17_113
*490 FILLER_0_17_137
*491 FILLER_0_17_143
*492 FILLER_0_17_15
*493 FILLER_0_17_161
*494 FILLER_0_17_169
*495 FILLER_0_17_178
*496 FILLER_0_17_190
*497 FILLER_0_17_27
*498 FILLER_0_17_3
*499 FILLER_0_17_35
*500 FILLER_0_17_42
*501 FILLER_0_17_51
*502 FILLER_0_17_57
*503 FILLER_0_17_71
*504 FILLER_0_17_77
*505 FILLER_0_17_84
*506 FILLER_0_18_108
*507 FILLER_0_18_139
*508 FILLER_0_18_141
*509 FILLER_0_18_151
*510 FILLER_0_18_163
*511 FILLER_0_18_189
*512 FILLER_0_18_27
*513 FILLER_0_18_29
*514 FILLER_0_18_3
*515 FILLER_0_18_46
*516 FILLER_0_18_58
*517 FILLER_0_18_63
*518 FILLER_0_18_75
*519 FILLER_0_18_85
*520 FILLER_0_19_101
*521 FILLER_0_19_107
*522 FILLER_0_19_111
*523 FILLER_0_19_113
*524 FILLER_0_19_121
*525 FILLER_0_19_128
*526 FILLER_0_19_149
*527 FILLER_0_19_15
*528 FILLER_0_19_161
*529 FILLER_0_19_167
*530 FILLER_0_19_169
*531 FILLER_0_19_176
*532 FILLER_0_19_188
*533 FILLER_0_19_192
*534 FILLER_0_19_3
*535 FILLER_0_19_47
*536 FILLER_0_19_55
*537 FILLER_0_19_64
*538 FILLER_0_19_76
*539 FILLER_0_19_80
*540 FILLER_0_19_93
*541 FILLER_0_1_110
*542 FILLER_0_1_119
*543 FILLER_0_1_163
*544 FILLER_0_1_167
*545 FILLER_0_1_169
*546 FILLER_0_1_181
*547 FILLER_0_1_25
*548 FILLER_0_1_3
*549 FILLER_0_1_48
*550 FILLER_0_1_52
*551 FILLER_0_1_57
*552 FILLER_0_1_68
*553 FILLER_0_20_121
*554 FILLER_0_20_147
*555 FILLER_0_20_157
*556 FILLER_0_20_169
*557 FILLER_0_20_181
*558 FILLER_0_20_29
*559 FILLER_0_20_3
*560 FILLER_0_20_44
*561 FILLER_0_20_77
*562 FILLER_0_20_81
*563 FILLER_0_20_85
*564 FILLER_0_20_97
*565 FILLER_0_21_101
*566 FILLER_0_21_109
*567 FILLER_0_21_136
*568 FILLER_0_21_15
*569 FILLER_0_21_183
*570 FILLER_0_21_191
*571 FILLER_0_21_27
*572 FILLER_0_21_3
*573 FILLER_0_21_45
*574 FILLER_0_21_65
*575 FILLER_0_22_112
*576 FILLER_0_22_120
*577 FILLER_0_22_132
*578 FILLER_0_22_154
*579 FILLER_0_22_160
*580 FILLER_0_22_164
*581 FILLER_0_22_27
*582 FILLER_0_22_50
*583 FILLER_0_22_74
*584 FILLER_0_22_83
*585 FILLER_0_22_85
*586 FILLER_0_22_97
*587 FILLER_0_23_127
*588 FILLER_0_23_139
*589 FILLER_0_23_15
*590 FILLER_0_23_157
*591 FILLER_0_23_165
*592 FILLER_0_23_169
*593 FILLER_0_23_175
*594 FILLER_0_23_185
*595 FILLER_0_23_3
*596 FILLER_0_23_32
*597 FILLER_0_23_44
*598 FILLER_0_23_57
*599 FILLER_0_23_69
*600 FILLER_0_23_81
*601 FILLER_0_23_89
*602 FILLER_0_24_105
*603 FILLER_0_24_117
*604 FILLER_0_24_129
*605 FILLER_0_24_137
*606 FILLER_0_24_141
*607 FILLER_0_24_164
*608 FILLER_0_24_177
*609 FILLER_0_24_18
*610 FILLER_0_24_26
*611 FILLER_0_24_29
*612 FILLER_0_24_41
*613 FILLER_0_24_51
*614 FILLER_0_24_6
*615 FILLER_0_24_66
*616 FILLER_0_24_77
*617 FILLER_0_25_102
*618 FILLER_0_25_110
*619 FILLER_0_25_113
*620 FILLER_0_25_120
*621 FILLER_0_25_133
*622 FILLER_0_25_139
*623 FILLER_0_25_146
*624 FILLER_0_25_15
*625 FILLER_0_25_27
*626 FILLER_0_25_3
*627 FILLER_0_25_35
*628 FILLER_0_25_77
*629 FILLER_0_26_103
*630 FILLER_0_26_107
*631 FILLER_0_26_133
*632 FILLER_0_26_149
*633 FILLER_0_26_15
*634 FILLER_0_26_153
*635 FILLER_0_26_162
*636 FILLER_0_26_170
*637 FILLER_0_26_192
*638 FILLER_0_26_27
*639 FILLER_0_26_29
*640 FILLER_0_26_3
*641 FILLER_0_26_37
*642 FILLER_0_26_43
*643 FILLER_0_26_62
*644 FILLER_0_26_74
*645 FILLER_0_26_82
*646 FILLER_0_26_85
*647 FILLER_0_27_110
*648 FILLER_0_27_113
*649 FILLER_0_27_125
*650 FILLER_0_27_132
*651 FILLER_0_27_144
*652 FILLER_0_27_15
*653 FILLER_0_27_152
*654 FILLER_0_27_166
*655 FILLER_0_27_169
*656 FILLER_0_27_181
*657 FILLER_0_27_27
*658 FILLER_0_27_3
*659 FILLER_0_27_39
*660 FILLER_0_27_51
*661 FILLER_0_27_55
*662 FILLER_0_27_57
*663 FILLER_0_27_69
*664 FILLER_0_27_81
*665 FILLER_0_27_89
*666 FILLER_0_28_115
*667 FILLER_0_28_127
*668 FILLER_0_28_139
*669 FILLER_0_28_141
*670 FILLER_0_28_15
*671 FILLER_0_28_173
*672 FILLER_0_28_185
*673 FILLER_0_28_27
*674 FILLER_0_28_29
*675 FILLER_0_28_3
*676 FILLER_0_28_61
*677 FILLER_0_28_85
*678 FILLER_0_28_89
*679 FILLER_0_29_106
*680 FILLER_0_29_121
*681 FILLER_0_29_129
*682 FILLER_0_29_136
*683 FILLER_0_29_148
*684 FILLER_0_29_15
*685 FILLER_0_29_160
*686 FILLER_0_29_164
*687 FILLER_0_29_169
*688 FILLER_0_29_181
*689 FILLER_0_29_27
*690 FILLER_0_29_3
*691 FILLER_0_29_39
*692 FILLER_0_29_53
*693 FILLER_0_29_77
*694 FILLER_0_29_86
*695 FILLER_0_2_122
*696 FILLER_0_2_133
*697 FILLER_0_2_139
*698 FILLER_0_2_141
*699 FILLER_0_2_15
*700 FILLER_0_2_160
*701 FILLER_0_2_172
*702 FILLER_0_2_184
*703 FILLER_0_2_192
*704 FILLER_0_2_27
*705 FILLER_0_2_29
*706 FILLER_0_2_33
*707 FILLER_0_2_37
*708 FILLER_0_2_47
*709 FILLER_0_2_6
*710 FILLER_0_2_77
*711 FILLER_0_2_83
*712 FILLER_0_2_94
*713 FILLER_0_30_106
*714 FILLER_0_30_118
*715 FILLER_0_30_136
*716 FILLER_0_30_15
*717 FILLER_0_30_161
*718 FILLER_0_30_178
*719 FILLER_0_30_190
*720 FILLER_0_30_27
*721 FILLER_0_30_29
*722 FILLER_0_30_3
*723 FILLER_0_30_41
*724 FILLER_0_30_49
*725 FILLER_0_30_70
*726 FILLER_0_30_81
*727 FILLER_0_30_94
*728 FILLER_0_31_140
*729 FILLER_0_31_169
*730 FILLER_0_31_18
*731 FILLER_0_31_181
*732 FILLER_0_31_30
*733 FILLER_0_31_42
*734 FILLER_0_31_50
*735 FILLER_0_31_54
*736 FILLER_0_31_6
*737 FILLER_0_31_66
*738 FILLER_0_32_111
*739 FILLER_0_32_119
*740 FILLER_0_32_123
*741 FILLER_0_32_135
*742 FILLER_0_32_139
*743 FILLER_0_32_141
*744 FILLER_0_32_161
*745 FILLER_0_32_167
*746 FILLER_0_32_169
*747 FILLER_0_32_181
*748 FILLER_0_32_189
*749 FILLER_0_32_21
*750 FILLER_0_32_27
*751 FILLER_0_32_29
*752 FILLER_0_32_34
*753 FILLER_0_32_46
*754 FILLER_0_32_54
*755 FILLER_0_32_57
*756 FILLER_0_32_65
*757 FILLER_0_32_77
*758 FILLER_0_32_83
*759 FILLER_0_32_85
*760 FILLER_0_32_9
*761 FILLER_0_32_99
*762 FILLER_0_3_105
*763 FILLER_0_3_111
*764 FILLER_0_3_113
*765 FILLER_0_3_121
*766 FILLER_0_3_146
*767 FILLER_0_3_15
*768 FILLER_0_3_155
*769 FILLER_0_3_167
*770 FILLER_0_3_169
*771 FILLER_0_3_181
*772 FILLER_0_3_19
*773 FILLER_0_3_3
*774 FILLER_0_3_30
*775 FILLER_0_3_38
*776 FILLER_0_3_43
*777 FILLER_0_3_53
*778 FILLER_0_3_65
*779 FILLER_0_3_89
*780 FILLER_0_4_106
*781 FILLER_0_4_118
*782 FILLER_0_4_130
*783 FILLER_0_4_138
*784 FILLER_0_4_141
*785 FILLER_0_4_153
*786 FILLER_0_4_165
*787 FILLER_0_4_177
*788 FILLER_0_4_189
*789 FILLER_0_4_29
*790 FILLER_0_4_3
*791 FILLER_0_4_33
*792 FILLER_0_4_54
*793 FILLER_0_4_7
*794 FILLER_0_4_91
*795 FILLER_0_4_95
*796 FILLER_0_4_99
*797 FILLER_0_5_103
*798 FILLER_0_5_107
*799 FILLER_0_5_111
*800 FILLER_0_5_133
*801 FILLER_0_5_145
*802 FILLER_0_5_15
*803 FILLER_0_5_157
*804 FILLER_0_5_165
*805 FILLER_0_5_169
*806 FILLER_0_5_181
*807 FILLER_0_5_189
*808 FILLER_0_5_19
*809 FILLER_0_5_28
*810 FILLER_0_5_3
*811 FILLER_0_5_48
*812 FILLER_0_5_57
*813 FILLER_0_5_69
*814 FILLER_0_5_77
*815 FILLER_0_5_85
*816 FILLER_0_5_95
*817 FILLER_0_6_121
*818 FILLER_0_6_134
*819 FILLER_0_6_141
*820 FILLER_0_6_15
*821 FILLER_0_6_153
*822 FILLER_0_6_165
*823 FILLER_0_6_177
*824 FILLER_0_6_189
*825 FILLER_0_6_27
*826 FILLER_0_6_29
*827 FILLER_0_6_3
*828 FILLER_0_6_33
*829 FILLER_0_6_45
*830 FILLER_0_6_70
*831 FILLER_0_6_82
*832 FILLER_0_6_85
*833 FILLER_0_6_97
*834 FILLER_0_7_110
*835 FILLER_0_7_113
*836 FILLER_0_7_121
*837 FILLER_0_7_14
*838 FILLER_0_7_156
*839 FILLER_0_7_169
*840 FILLER_0_7_181
*841 FILLER_0_7_22
*842 FILLER_0_7_3
*843 FILLER_0_7_53
*844 FILLER_0_7_61
*845 FILLER_0_7_77
*846 FILLER_0_7_87
*847 FILLER_0_7_95
*848 FILLER_0_8_130
*849 FILLER_0_8_138
*850 FILLER_0_8_141
*851 FILLER_0_8_162
*852 FILLER_0_8_174
*853 FILLER_0_8_186
*854 FILLER_0_8_192
*855 FILLER_0_8_25
*856 FILLER_0_8_29
*857 FILLER_0_8_3
*858 FILLER_0_8_41
*859 FILLER_0_8_65
*860 FILLER_0_8_76
*861 FILLER_0_8_96
*862 FILLER_0_9_109
*863 FILLER_0_9_113
*864 FILLER_0_9_125
*865 FILLER_0_9_15
*866 FILLER_0_9_157
*867 FILLER_0_9_165
*868 FILLER_0_9_169
*869 FILLER_0_9_181
*870 FILLER_0_9_26
*871 FILLER_0_9_3
*872 FILLER_0_9_49
*873 FILLER_0_9_55
*874 FILLER_0_9_57
*875 FILLER_0_9_69
*876 FILLER_0_9_81
*877 FILLER_0_9_93
*878 FILLER_0_9_99
*879 PHY_0
*880 PHY_1
*881 PHY_10
*882 PHY_11
*883 PHY_12
*884 PHY_13
*885 PHY_14
*886 PHY_15
*887 PHY_16
*888 PHY_17
*889 PHY_18
*890 PHY_19
*891 PHY_2
*892 PHY_20
*893 PHY_21
*894 PHY_22
*895 PHY_23
*896 PHY_24
*897 PHY_25
*898 PHY_26
*899 PHY_27
*900 PHY_28
*901 PHY_29
*902 PHY_3
*903 PHY_30
*904 PHY_31
*905 PHY_32
*906 PHY_33
*907 PHY_34
*908 PHY_35
*909 PHY_36
*910 PHY_37
*911 PHY_38
*912 PHY_39
*913 PHY_4
*914 PHY_40
*915 PHY_41
*916 PHY_42
*917 PHY_43
*918 PHY_44
*919 PHY_45
*920 PHY_46
*921 PHY_47
*922 PHY_48
*923 PHY_49
*924 PHY_5
*925 PHY_50
*926 PHY_51
*927 PHY_52
*928 PHY_53
*929 PHY_54
*930 PHY_55
*931 PHY_56
*932 PHY_57
*933 PHY_58
*934 PHY_59
*935 PHY_6
*936 PHY_60
*937 PHY_61
*938 PHY_62
*939 PHY_63
*940 PHY_64
*941 PHY_65
*942 PHY_7
*943 PHY_8
*944 PHY_9
*945 TAP_100
*946 TAP_101
*947 TAP_102
*948 TAP_103
*949 TAP_104
*950 TAP_105
*951 TAP_106
*952 TAP_107
*953 TAP_108
*954 TAP_109
*955 TAP_110
*956 TAP_111
*957 TAP_112
*958 TAP_113
*959 TAP_114
*960 TAP_115
*961 TAP_116
*962 TAP_117
*963 TAP_118
*964 TAP_119
*965 TAP_120
*966 TAP_121
*967 TAP_122
*968 TAP_123
*969 TAP_124
*970 TAP_125
*971 TAP_126
*972 TAP_127
*973 TAP_128
*974 TAP_129
*975 TAP_130
*976 TAP_131
*977 TAP_132
*978 TAP_133
*979 TAP_134
*980 TAP_135
*981 TAP_136
*982 TAP_137
*983 TAP_138
*984 TAP_139
*985 TAP_140
*986 TAP_141
*987 TAP_142
*988 TAP_143
*989 TAP_144
*990 TAP_145
*991 TAP_146
*992 TAP_147
*993 TAP_148
*994 TAP_149
*995 TAP_150
*996 TAP_151
*997 TAP_152
*998 TAP_153
*999 TAP_154
*1000 TAP_155
*1001 TAP_156
*1002 TAP_157
*1003 TAP_158
*1004 TAP_159
*1005 TAP_160
*1006 TAP_161
*1007 TAP_162
*1008 TAP_163
*1009 TAP_164
*1010 TAP_165
*1011 TAP_166
*1012 TAP_167
*1013 TAP_168
*1014 TAP_169
*1015 TAP_170
*1016 TAP_66
*1017 TAP_67
*1018 TAP_68
*1019 TAP_69
*1020 TAP_70
*1021 TAP_71
*1022 TAP_72
*1023 TAP_73
*1024 TAP_74
*1025 TAP_75
*1026 TAP_76
*1027 TAP_77
*1028 TAP_78
*1029 TAP_79
*1030 TAP_80
*1031 TAP_81
*1032 TAP_82
*1033 TAP_83
*1034 TAP_84
*1035 TAP_85
*1036 TAP_86
*1037 TAP_87
*1038 TAP_88
*1039 TAP_89
*1040 TAP_90
*1041 TAP_91
*1042 TAP_92
*1043 TAP_93
*1044 TAP_94
*1045 TAP_95
*1046 TAP_96
*1047 TAP_97
*1048 TAP_98
*1049 TAP_99
*1050 _204_
*1051 _205_
*1052 _206_
*1053 _207_
*1054 _208_
*1055 _209_
*1056 _210_
*1057 _211_
*1058 _212_
*1059 _213_
*1060 _214_
*1061 _215_
*1062 _216_
*1063 _217_
*1064 _218_
*1065 _219_
*1066 _220_
*1067 _221_
*1068 _222_
*1069 _223_
*1070 _224_
*1071 _225_
*1072 _226_
*1073 _227_
*1074 _228_
*1075 _229_
*1076 _230_
*1077 _231_
*1078 _232_
*1079 _233_
*1080 _234_
*1081 _235_
*1082 _236_
*1083 _237_
*1084 _238_
*1085 _239_
*1086 _240_
*1087 _241_
*1088 _242_
*1089 _243_
*1090 _244_
*1091 _245_
*1092 _246_
*1093 _247_
*1094 _248_
*1095 _249_
*1096 _250_
*1097 _251_
*1098 _252_
*1099 _253_
*1100 _254_
*1101 _255_
*1102 _256_
*1103 _257_
*1104 _258_
*1105 _259_
*1106 _260_
*1107 _261_
*1108 _262_
*1109 _263_
*1110 _264_
*1111 _265_
*1112 _266_
*1113 _267_
*1114 _268_
*1115 _269_
*1116 _270_
*1117 _271_
*1118 _272_
*1119 _273_
*1120 _274_
*1121 _275_
*1122 _276_
*1123 _277_
*1124 _278_
*1125 _279_
*1126 _280_
*1127 _281_
*1128 _282_
*1129 _283_
*1130 _284_
*1131 _285_
*1132 _286_
*1133 _287_
*1134 _288_
*1135 _289_
*1136 _290_
*1137 _291_
*1138 _292_
*1139 _293_
*1140 _294_
*1141 _295_
*1142 _296_
*1143 _297_
*1144 _298_
*1145 _299_
*1146 _300_
*1147 _301_
*1148 _302_
*1149 _303_
*1150 _304_
*1151 _305_
*1152 _306_
*1153 _307_
*1154 _308_
*1155 _309_
*1156 _310_
*1157 _311_
*1158 _312_
*1159 _313_
*1160 _314_
*1161 _315_
*1162 _316_
*1163 _317_
*1164 _318_
*1165 _319_
*1166 _320_
*1167 _321_
*1168 _322_
*1169 _323_
*1170 _324_
*1171 _325_
*1172 _326_
*1173 _327_
*1174 _328_
*1175 _329_
*1176 _330_
*1177 _331_
*1178 _332_
*1179 _333_
*1180 _334_
*1181 _335_
*1182 _336_
*1183 _337_
*1184 _338_
*1185 _339_
*1186 _340_
*1187 _341_
*1188 _342_
*1189 _343_
*1190 _344_
*1191 _345_
*1192 _346_
*1193 _347_
*1194 _348_
*1195 _349_
*1196 _350_
*1197 _351_
*1198 _352_
*1199 _353_
*1200 _354_
*1201 _355_
*1202 _356_
*1203 _357_
*1204 _358_
*1205 _359_
*1206 _360_
*1207 _361_
*1208 _362_
*1209 _363_
*1210 _364_
*1211 _365_
*1212 _366_
*1213 _367_
*1214 _368_
*1215 _369_
*1216 _370_
*1217 _371_
*1218 _372_
*1219 _373_
*1220 _374_
*1221 _375_
*1222 _376_
*1223 _377_
*1224 _378_
*1225 _379_
*1226 _380_
*1227 _381_
*1228 _382_
*1229 _383_
*1230 _384_
*1231 _385_
*1232 _386_
*1233 _387_
*1234 _388_
*1235 _389_
*1236 _390_
*1237 _391_
*1238 _392_
*1239 _393_
*1240 _394_
*1241 _395_
*1242 _396_
*1243 _397_
*1244 _398_
*1245 _399_
*1246 _400_
*1247 _401_
*1248 _402_
*1249 _403_
*1250 _404_
*1251 _405_
*1252 _406_
*1253 _407_
*1254 _408_
*1255 _409_
*1256 _410_
*1257 _411_
*1258 _412_
*1259 _413_
*1260 _414_
*1261 _415_
*1262 _416_
*1263 _417_
*1264 _418_
*1265 _419_
*1266 _420_
*1267 _421_
*1268 _422_
*1269 _423_
*1270 _424_
*1271 _425_
*1272 _426_
*1273 _427_
*1274 _428_
*1275 _429_
*1276 _430_
*1277 _431_
*1278 _432_
*1279 _433_
*1280 _434_
*1281 _435_
*1282 _436_
*1283 _437_
*1284 _438_
*1285 _439_
*1286 _440_
*1287 _441_
*1288 _442_
*1289 _443_
*1290 _444_
*1291 _445_
*1292 _446_
*1293 _447_
*1294 _448_
*1295 _449_
*1296 _450_
*1297 _451_
*1298 _452_
*1299 _453_
*1300 _454_
*1301 _455_
*1302 _456_
*1303 _457_
*1304 _458_
*1305 _459_
*1306 _460_
*1307 _461_
*1308 _462_
*1309 _463_
*1310 _464_
*1311 _465_
*1312 _466_
*1313 _467_
*1314 _468_
*1315 clkbuf_0_clk
*1316 clkbuf_3_0__f_clk
*1317 clkbuf_3_1__f_clk
*1318 clkbuf_3_2__f_clk
*1319 clkbuf_3_3__f_clk
*1320 clkbuf_3_4__f_clk
*1321 clkbuf_3_5__f_clk
*1322 clkbuf_3_6__f_clk
*1323 clkbuf_3_7__f_clk
*1324 fanout24
*1325 fanout25
*1326 fanout26
*1327 fanout27
*1328 fanout28
*1329 fanout29
*1330 fanout30
*1331 fanout31
*1332 hold1
*1333 hold10
*1334 hold11
*1335 hold12
*1336 hold13
*1337 hold14
*1338 hold15
*1339 hold16
*1340 hold17
*1341 hold18
*1342 hold19
*1343 hold2
*1344 hold20
*1345 hold21
*1346 hold22
*1347 hold23
*1348 hold24
*1349 hold25
*1350 hold26
*1351 hold27
*1352 hold28
*1353 hold29
*1354 hold3
*1355 hold30
*1356 hold31
*1357 hold32
*1358 hold33
*1359 hold34
*1360 hold35
*1361 hold36
*1362 hold37
*1363 hold38
*1364 hold39
*1365 hold4
*1366 hold40
*1367 hold41
*1368 hold42
*1369 hold43
*1370 hold5
*1371 hold6
*1372 hold7
*1373 hold8
*1374 hold9
*1375 input1
*1376 input10
*1377 input11
*1378 input2
*1379 input3
*1380 input4
*1381 input5
*1382 input6
*1383 input7
*1384 input8
*1385 input9
*1386 max_cap23
*1387 output12
*1388 output13
*1389 output14
*1390 output15
*1391 output16
*1392 output17
*1393 output18
*1394 output19
*1395 output20
*1396 output21
*1397 output22

*PORTS
clk I
data_in[0] I
data_in[1] I
data_in[2] I
data_in[3] I
data_in[4] I
data_in[5] I
data_in[6] I
data_in[7] I
data_out[0] O
data_out[1] O
data_out[2] O
data_out[3] O
data_out[4] O
data_out[5] O
data_out[6] O
data_out[7] O
data_ready O
data_valid I
rst_n I
rx_in I
tx_busy O
tx_out O

*D_NET *3 0.0114047
*CONN
*P clk I
*I *1315:A I *D sky130_fd_sc_hd__clkbuf_16
*CAP
1 clk 0.00553112
2 *1315:A 0.00553112
3 *1315:A *1286:CLK 0.000176866
4 *1315:A *96:14 0.000154686
5 *1315:A *237:10 1.08716e-05
6 *1315:A *240:29 0
*RES
1 clk *1315:A 39.3913 
*END

*D_NET *4 0.000558079
*CONN
*P data_in[0] I
*I *1375:A I *D sky130_fd_sc_hd__clkbuf_1
*CAP
1 data_in[0] 0.000279039
2 *1375:A 0.000279039
*RES
1 data_in[0] *1375:A 18.627 
*END

*D_NET *5 0.000859982
*CONN
*P data_in[1] I
*I *1378:A I *D sky130_fd_sc_hd__buf_1
*CAP
1 data_in[1] 0.000424866
2 *1378:A 0.000424866
3 *1378:A data_out[4] 0
4 *1378:A *1391:A 1.02504e-05
*RES
1 data_in[1] *1378:A 22.3714 
*END

*D_NET *6 0.000469287
*CONN
*P data_in[2] I
*I *1379:A I *D sky130_fd_sc_hd__buf_1
*CAP
1 data_in[2] 0.000234643
2 *1379:A 0.000234643
*RES
1 data_in[2] *1379:A 19.9411 
*END

*D_NET *7 0.000609244
*CONN
*P data_in[3] I
*I *1380:A I *D sky130_fd_sc_hd__clkbuf_1
*CAP
1 data_in[3] 0.000304622
2 *1380:A 0.000304622
3 *1380:A *1270:D 0
*RES
1 data_in[3] *1380:A 21.1554 
*END

*D_NET *8 0.000962583
*CONN
*P data_in[4] I
*I *1381:A I *D sky130_fd_sc_hd__clkbuf_1
*CAP
1 data_in[4] 0.000452994
2 *1381:A 0.000452994
3 *1381:A *252:14 5.65955e-05
*RES
1 data_in[4] *1381:A 22.7464 
*END

*D_NET *9 0.00106932
*CONN
*P data_in[5] I
*I *1382:A I *D sky130_fd_sc_hd__clkbuf_1
*CAP
1 data_in[5] 0.000534659
2 *1382:A 0.000534659
*RES
1 data_in[5] *1382:A 24.1036 
*END

*D_NET *10 0.000943615
*CONN
*P data_in[6] I
*I *1383:A I *D sky130_fd_sc_hd__clkbuf_1
*CAP
1 data_in[6] 0.000471808
2 *1383:A 0.000471808
*RES
1 data_in[6] *1383:A 22.7464 
*END

*D_NET *11 0.000631876
*CONN
*P data_in[7] I
*I *1384:A I *D sky130_fd_sc_hd__buf_1
*CAP
1 data_in[7] 0.000315938
2 *1384:A 0.000315938
*RES
1 data_in[7] *1384:A 21.1203 
*END

*D_NET *12 0.00161617
*CONN
*P data_out[0] O
*I *1387:X O *D sky130_fd_sc_hd__clkbuf_4
*CAP
1 data_out[0] 0.000692844
2 *1387:X 0.000692844
3 data_out[0] *1387:A 0.000230482
*RES
1 *1387:X data_out[0] 27.05 
*END

*D_NET *13 0.00142033
*CONN
*P data_out[1] O
*I *1388:X O *D sky130_fd_sc_hd__clkbuf_4
*CAP
1 data_out[1] 0.000710163
2 *1388:X 0.000710163
*RES
1 *1388:X data_out[1] 27.2821 
*END

*D_NET *14 0.00164238
*CONN
*P data_out[2] O
*I *1389:X O *D sky130_fd_sc_hd__clkbuf_4
*CAP
1 data_out[2] 0.000641777
2 *1389:X 0.000641777
3 data_out[2] *1129:A0 0.000358829
*RES
1 *1389:X data_out[2] 25.05 
*END

*D_NET *15 0.000577282
*CONN
*P data_out[3] O
*I *1390:X O *D sky130_fd_sc_hd__clkbuf_4
*CAP
1 data_out[3] 0.000288641
2 *1390:X 0.000288641
3 data_out[3] *1271:CLK 0
*RES
1 *1390:X data_out[3] 20.8518 
*END

*D_NET *16 0.00119673
*CONN
*P data_out[4] O
*I *1391:X O *D sky130_fd_sc_hd__clkbuf_4
*CAP
1 data_out[4] 0.000598366
2 *1391:X 0.000598366
3 *1378:A data_out[4] 0
*RES
1 *1391:X data_out[4] 25.3371 
*END

*D_NET *17 0.000700258
*CONN
*P data_out[5] O
*I *1392:X O *D sky130_fd_sc_hd__clkbuf_4
*CAP
1 data_out[5] 0.000350129
2 *1392:X 0.000350129
*RES
1 *1392:X data_out[5] 20.6929 
*END

*D_NET *18 0.000859804
*CONN
*P data_out[6] O
*I *1393:X O *D sky130_fd_sc_hd__clkbuf_4
*CAP
1 data_out[6] 0.000368676
2 *1393:X 0.000368676
3 data_out[6] *249:31 0.000122453
*RES
1 *1393:X data_out[6] 22.0693 
*END

*D_NET *19 0.000936006
*CONN
*P data_out[7] O
*I *1394:X O *D sky130_fd_sc_hd__buf_2
*CAP
1 data_out[7] 0.000468003
2 *1394:X 0.000468003
3 data_out[7] *1291:RESET_B 0
*RES
1 *1394:X data_out[7] 21.2306 
*END

*D_NET *20 0.00141488
*CONN
*P data_ready O
*I *1395:X O *D sky130_fd_sc_hd__clkbuf_4
*CAP
1 data_ready 0.00061969
2 *1395:X 0.00061969
3 data_ready *114:25 0.000175502
*RES
1 *1395:X data_ready 24.9607 
*END

*D_NET *21 0.00165703
*CONN
*P data_valid I
*I *1385:A I *D sky130_fd_sc_hd__buf_1
*CAP
1 data_valid 0.000770252
2 *1385:A 0.000770252
3 *1385:A *1088:A 5.30637e-06
4 *1385:A *114:6 5.41609e-05
5 *1385:A *114:12 7.48301e-06
6 *1385:A *312:8 4.95742e-05
*RES
1 data_valid *1385:A 27.1036 
*END

*D_NET *22 0.000826486
*CONN
*P rst_n I
*I *1376:A I *D sky130_fd_sc_hd__buf_1
*CAP
1 rst_n 0.000413243
2 *1376:A 0.000413243
3 *1376:A *250:20 0
*RES
1 rst_n *1376:A 21.9607 
*END

*D_NET *23 0.000661936
*CONN
*P rx_in I
*I *1377:A I *D sky130_fd_sc_hd__clkbuf_1
*CAP
1 rx_in 0.000315204
2 *1377:A 0.000315204
3 *1377:A *1297:D 3.15282e-05
*RES
1 rx_in *1377:A 19.5377 
*END

*D_NET *24 0.0015817
*CONN
*P tx_busy O
*I *1396:X O *D sky130_fd_sc_hd__clkbuf_4
*CAP
1 tx_busy 0.000790848
2 *1396:X 0.000790848
*RES
1 *1396:X tx_busy 27.9964 
*END

*D_NET *25 0.000748599
*CONN
*P tx_out O
*I *1397:X O *D sky130_fd_sc_hd__buf_2
*CAP
1 tx_out 0.000344327
2 *1397:X 0.000344327
3 tx_out *248:25 5.99442e-05
*RES
1 *1397:X tx_out 19.4813 
*END

*D_NET *26 0.00616891
*CONN
*I *1254:D I *D sky130_fd_sc_hd__dfrtp_1
*I *1086:Y O *D sky130_fd_sc_hd__inv_2
*CAP
1 *1254:D 0.000468842
2 *1086:Y 0.00124955
3 *26:16 0.00171839
4 *1254:D *1090:A3 0
5 *1254:D *1240:A0 0
6 *1254:D *1240:S 9.586e-05
7 *1254:D *1250:A1 0
8 *1254:D *1310:D 0.000293092
9 *1254:D *114:44 7.63766e-05
10 *1254:D *260:72 0.00127979
11 *1254:D *349:23 0.000162572
12 *26:16 *1086:A 4.85049e-06
13 *26:16 *1301:CLK 0
14 *26:16 *1301:D 5.33882e-05
15 *26:16 *1304:RESET_B 0
16 *26:16 *1328:A 0
17 *26:16 *1363:A 9.37018e-05
18 *26:16 *230:20 0.000165157
19 *26:16 *230:90 0.000250239
20 *26:16 *250:28 0
21 *26:16 *259:12 0
22 *26:16 *259:26 0
23 *26:16 *260:72 0.000202955
24 *26:16 *311:20 0
25 *26:16 *349:23 5.4148e-05
*RES
1 *1086:Y *26:16 39.8982 
2 *26:16 *1254:D 30.4696 
*END

*D_NET *27 0.00289533
*CONN
*I *1284:D I *D sky130_fd_sc_hd__dfrtp_4
*I *1096:Y O *D sky130_fd_sc_hd__nor2_1
*CAP
1 *1284:D 0.00116345
2 *1096:Y 0.00116345
3 *1284:D *1096:A 3.11088e-05
4 *1284:D *1105:A 9.11048e-06
5 *1284:D *1286:RESET_B 7.90692e-05
6 *1284:D *1294:RESET_B 6.63763e-05
7 *1284:D *1365:A 5.11115e-05
8 *1284:D *237:25 3.69047e-06
9 *1284:D *260:14 0.000257347
10 *1284:D *339:23 7.06123e-05
*RES
1 *1096:Y *1284:D 43.9393 
*END

*D_NET *28 0.000551065
*CONN
*I *1285:D I *D sky130_fd_sc_hd__dfrtp_2
*I *1101:X O *D sky130_fd_sc_hd__clkbuf_1
*CAP
1 *1285:D 0.000186676
2 *1101:X 0.000186676
3 *1285:D *96:14 7.74068e-05
4 *1285:D *340:8 0.000100307
*RES
1 *1101:X *1285:D 30.4616 
*END

*D_NET *29 0.000700714
*CONN
*I *1286:D I *D sky130_fd_sc_hd__dfrtp_1
*I *1105:X O *D sky130_fd_sc_hd__clkbuf_1
*CAP
1 *1286:D 0.000317791
2 *1105:X 0.000317791
3 *1286:D *1105:A 6.51316e-05
*RES
1 *1105:X *1286:D 32.3679 
*END

*D_NET *30 0.00130951
*CONN
*I *1287:D I *D sky130_fd_sc_hd__dfrtp_1
*I *1109:Y O *D sky130_fd_sc_hd__a21oi_1
*CAP
1 *1287:D 0.000564618
2 *1109:Y 0.000564618
3 *1287:D *1109:A1 0.000104956
4 *1287:D *1109:A2 5.33433e-05
5 *1287:D *1109:B1 0
6 *1287:D *229:20 0
7 *1287:D *257:44 2.19778e-05
8 *1287:D *342:10 0
*RES
1 *1109:Y *1287:D 37.7071 
*END

*D_NET *31 0.00015824
*CONN
*I *1288:D I *D sky130_fd_sc_hd__dfrtp_1
*I *1113:X O *D sky130_fd_sc_hd__clkbuf_1
*CAP
1 *1288:D 6.22389e-05
2 *1113:X 6.22389e-05
3 *1288:D *1113:A 3.37618e-05
*RES
1 *1113:X *1288:D 28.9393 
*END

*D_NET *32 0.000582705
*CONN
*I *1289:D I *D sky130_fd_sc_hd__dfrtp_1
*I *1117:X O *D sky130_fd_sc_hd__clkbuf_1
*CAP
1 *1289:D 0.000237385
2 *1117:X 0.000237385
3 *1289:D *1289:RESET_B 9.39141e-05
4 *1289:D *257:58 1.21258e-05
5 *1289:D *343:25 1.89507e-06
*RES
1 *1117:X *1289:D 31.725 
*END

*D_NET *33 0.0007807
*CONN
*I *1290:D I *D sky130_fd_sc_hd__dfrtp_1
*I *1120:X O *D sky130_fd_sc_hd__o21a_1
*CAP
1 *1290:D 0.000317377
2 *1120:X 0.000317377
3 *1290:D *1120:A2 8.98117e-05
4 *1290:D *1120:B1 3.77673e-05
5 *1290:D *1290:CLK 1.83663e-05
*RES
1 *1120:X *1290:D 33.2429 
*END

*D_NET *34 0.00033554
*CONN
*I *1291:D I *D sky130_fd_sc_hd__dfrtp_1
*I *1122:X O *D sky130_fd_sc_hd__o21ba_1
*CAP
1 *1291:D 0.00016777
2 *1122:X 0.00016777
3 *1291:D *1291:RESET_B 0
*RES
1 *1122:X *1291:D 29.8857 
*END

*D_NET *35 0.000745071
*CONN
*I *1292:D I *D sky130_fd_sc_hd__dfrtp_1
*I *1126:X O *D sky130_fd_sc_hd__clkbuf_1
*CAP
1 *1292:D 0.000174721
2 *1126:X 0.000174721
3 *1292:D *1125:C 6.05161e-06
4 *1292:D *1126:A 0.000140488
5 *1292:D *136:42 0.000123359
6 *1292:D *260:121 0.000125731
*RES
1 *1126:X *1292:D 31.8321 
*END

*D_NET *36 0.000423347
*CONN
*I *1299:D I *D sky130_fd_sc_hd__dfstp_1
*I *1060:X O *D sky130_fd_sc_hd__a22o_1
*CAP
1 *1299:D 0.00012942
2 *1060:X 0.00012942
3 *1299:D *1060:A2 5.38444e-06
4 *1299:D *1299:CLK 2.84026e-05
5 *1299:D *258:60 0.00013072
*RES
1 *1060:X *1299:D 21.5107 
*END

*D_NET *37 0.00110941
*CONN
*I *1300:D I *D sky130_fd_sc_hd__dfrtp_4
*I *1063:Y O *D sky130_fd_sc_hd__o21ai_1
*CAP
1 *1300:D 0.000394971
2 *1063:Y 0.000394971
3 *1300:D *1063:A1 0.000142856
4 *1300:D *1063:B1 7.00702e-06
5 *1300:D *1211:S 6.09925e-05
6 *1300:D *1300:CLK 0.000108615
7 *1300:D *93:12 0
8 *1300:D *93:14 0
9 *1300:D *232:14 0
*RES
1 *1063:Y *1300:D 34.2652 
*END

*D_NET *38 0.000403292
*CONN
*I *1301:D I *D sky130_fd_sc_hd__dfrtp_4
*I *1076:X O *D sky130_fd_sc_hd__clkbuf_1
*CAP
1 *1301:D 0.000124472
2 *1076:X 0.000124472
3 *1301:D *259:12 0.00010096
4 *26:16 *1301:D 5.33882e-05
*RES
1 *1076:X *1301:D 29.8857 
*END

*D_NET *39 0.00152977
*CONN
*I *1302:D I *D sky130_fd_sc_hd__dfrtp_4
*I *1084:X O *D sky130_fd_sc_hd__a22o_1
*CAP
1 *1302:D 0.000350501
2 *1084:X 0.000350501
3 *1302:D *1198:A 9.15842e-06
4 *1302:D *1302:RESET_B 4.70821e-05
5 *1302:D *108:44 0.000262834
6 *1302:D *112:86 0.000347607
7 *1302:D *257:28 0.000148998
8 *1302:D *311:20 1.30914e-05
*RES
1 *1084:X *1302:D 36.7607 
*END

*D_NET *40 0.00148769
*CONN
*I *1311:D I *D sky130_fd_sc_hd__dfstp_1
*I *1069:X O *D sky130_fd_sc_hd__a21bo_1
*CAP
1 *1311:D 0.000435234
2 *1069:X 0.000435234
3 *1311:D *1374:A 0.000230207
4 *1311:D *238:86 5.52238e-05
5 *1311:D *238:97 0.000103283
6 *1311:D *305:18 0.000228508
*RES
1 *1069:X *1311:D 36.9214 
*END

*D_NET *41 0.00119051
*CONN
*I *1346:A I *D sky130_fd_sc_hd__dlygate4sd3_1
*I *1072:X O *D sky130_fd_sc_hd__a22o_1
*CAP
1 *1346:A 0.000476618
2 *1072:X 0.000476618
3 *1346:A *1121:A1 1.20417e-05
4 *1346:A *1121:A2 3.18676e-05
5 *1346:A *1121:B1 0.000193361
6 *1346:A *1122:B1_N 0
*RES
1 *1072:X *1346:A 34.2964 
*END

*D_NET *42 0.00150284
*CONN
*I *1313:D I *D sky130_fd_sc_hd__dfrtp_1
*I *1089:Y O *D sky130_fd_sc_hd__o21ai_1
*CAP
1 *1313:D 0.000719703
2 *1089:Y 0.000719703
3 *1313:D *1089:B1 3.18676e-05
4 *1313:D *1313:CLK 1.83136e-05
5 *1313:D *99:79 1.32552e-05
*RES
1 *1089:Y *1313:D 27.9214 
*END

*D_NET *43 0.00109543
*CONN
*I *1314:D I *D sky130_fd_sc_hd__dfrtp_1
*I *1079:Y O *D sky130_fd_sc_hd__o21bai_1
*CAP
1 *1314:D 0.000481344
2 *1079:Y 0.000481344
3 *1314:D *1079:A1 2.85234e-05
4 *1314:D *1079:A2 6.21538e-05
5 *1314:D *1079:B1_N 4.3304e-06
6 *1314:D *100:10 8.67814e-06
7 *1314:D *359:19 2.90582e-05
*RES
1 *1079:Y *1314:D 33.9929 
*END

*D_NET *44 0.00040854
*CONN
*I *1255:D I *D sky130_fd_sc_hd__dfrtp_1
*I *1128:X O *D sky130_fd_sc_hd__clkbuf_1
*CAP
1 *1255:D 7.70166e-05
2 *1128:X 7.70166e-05
3 *1255:D *1127:S 6.74911e-05
4 *1255:D *1372:A 0.000129868
5 *1255:D *1373:A 5.71472e-05
*RES
1 *1128:X *1255:D 29.7786 
*END

*D_NET *45 0.000481136
*CONN
*I *1256:D I *D sky130_fd_sc_hd__dfrtp_1
*I *1130:X O *D sky130_fd_sc_hd__clkbuf_1
*CAP
1 *1256:D 0.000240568
2 *1130:X 0.000240568
3 *1256:D *1130:A 0
4 *1256:D *1256:CLK 0
*RES
1 *1130:X *1256:D 30.8321 
*END

*D_NET *46 0.000532972
*CONN
*I *1257:D I *D sky130_fd_sc_hd__dfrtp_1
*I *1132:X O *D sky130_fd_sc_hd__clkbuf_1
*CAP
1 *1257:D 0.000266486
2 *1132:X 0.000266486
*RES
1 *1132:X *1257:D 31.1179 
*END

*D_NET *47 0.00045124
*CONN
*I *1258:D I *D sky130_fd_sc_hd__dfrtp_1
*I *1134:X O *D sky130_fd_sc_hd__clkbuf_1
*CAP
1 *1258:D 0.000173133
2 *1134:X 0.000173133
3 *1258:D *1134:A 0
4 *1258:D *261:12 0.000104974
*RES
1 *1134:X *1258:D 30.2964 
*END

*D_NET *48 0.000362619
*CONN
*I *1259:D I *D sky130_fd_sc_hd__dfrtp_1
*I *1136:X O *D sky130_fd_sc_hd__clkbuf_1
*CAP
1 *1259:D 7.5121e-05
2 *1136:X 7.5121e-05
3 *1259:D *1136:A 3.57366e-05
4 *1259:D *1259:CLK 3.18676e-05
5 *1259:D *1259:RESET_B 0.000144773
*RES
1 *1136:X *1259:D 20.7964 
*END

*D_NET *49 0.00027939
*CONN
*I *1260:D I *D sky130_fd_sc_hd__dfrtp_1
*I *1138:X O *D sky130_fd_sc_hd__clkbuf_1
*CAP
1 *1260:D 0.000128324
2 *1138:X 0.000128324
3 *1260:D *1138:A 0
4 *1260:D *93:18 0
5 *1260:D *255:40 2.27416e-05
*RES
1 *1138:X *1260:D 29.475 
*END

*D_NET *50 0.000754151
*CONN
*I *1261:D I *D sky130_fd_sc_hd__dfrtp_1
*I *1140:X O *D sky130_fd_sc_hd__clkbuf_1
*CAP
1 *1261:D 0.000160997
2 *1140:X 0.000160997
3 *1261:D *1140:A 0.00014789
4 *1261:D *1261:CLK 0.000215151
5 *1261:D *236:25 6.91157e-05
*RES
1 *1140:X *1261:D 31.9259 
*END

*D_NET *51 0.000828526
*CONN
*I *1262:D I *D sky130_fd_sc_hd__dfrtp_1
*I *1142:X O *D sky130_fd_sc_hd__clkbuf_1
*CAP
1 *1262:D 0.000115017
2 *1142:X 0.000115017
3 *1262:D *1141:A1 0.000265445
4 *1262:D *1142:A 9.96487e-05
5 *1262:D *1302:CLK 0.000139337
6 *1262:D *1335:A 2.90501e-05
7 *1262:D *236:27 6.50098e-05
*RES
1 *1142:X *1262:D 31.5286 
*END

*D_NET *52 0.00046991
*CONN
*I *1263:D I *D sky130_fd_sc_hd__dfrtp_2
*I *1148:X O *D sky130_fd_sc_hd__clkbuf_1
*CAP
1 *1263:D 0.000218574
2 *1148:X 0.000218574
3 *1263:D *1263:CLK 3.27612e-05
*RES
1 *1148:X *1263:D 30.5464 
*END

*D_NET *53 0.00102685
*CONN
*I *1264:D I *D sky130_fd_sc_hd__dfrtp_2
*I *1153:X O *D sky130_fd_sc_hd__a32o_1
*CAP
1 *1264:D 0.000293718
2 *1153:X 0.000293718
3 *1264:D *1152:A 0.000184503
4 *1264:D *1153:A2 0.000143633
5 *1264:D *234:10 0.000100006
6 *1264:D *314:55 1.12713e-05
*RES
1 *1153:X *1264:D 32.35 
*END

*D_NET *54 0.000952058
*CONN
*I *1265:D I *D sky130_fd_sc_hd__dfrtp_1
*I *1157:X O *D sky130_fd_sc_hd__o211a_1
*CAP
1 *1265:D 0.0003872
2 *1157:X 0.0003872
3 *1265:D *1364:A 5.20669e-05
4 *1265:D *104:81 9.4725e-05
5 *1265:D *315:10 3.08664e-05
*RES
1 *1157:X *1265:D 25.7071 
*END

*D_NET *55 0.0014206
*CONN
*I *1266:D I *D sky130_fd_sc_hd__dfrtp_1
*I *1162:Y O *D sky130_fd_sc_hd__a31oi_1
*CAP
1 *1266:D 0.000552398
2 *1162:Y 0.000552398
3 *1266:D *1162:A1 9.71197e-05
4 *1266:D *316:8 0.000218685
*RES
1 *1162:Y *1266:D 27.9036 
*END

*D_NET *56 0.00218066
*CONN
*I *1267:D I *D sky130_fd_sc_hd__dfrtp_2
*I *1166:X O *D sky130_fd_sc_hd__a32o_1
*CAP
1 *1267:D 0.00101367
2 *1166:X 0.00101367
3 *1267:D *1267:RESET_B 4.84658e-05
4 *1267:D *1269:RESET_B 4.77128e-05
5 *1267:D *1318:A 5.71472e-05
*RES
1 *1166:X *1267:D 39.9929 
*END

*D_NET *57 0.0014786
*CONN
*I *1268:D I *D sky130_fd_sc_hd__dfrtp_1
*I *1174:X O *D sky130_fd_sc_hd__o211a_1
*CAP
1 *1268:D 0.000668114
2 *1174:X 0.000668114
3 *1268:D *1133:S 3.6692e-07
4 *1268:D *1268:CLK 3.40405e-05
5 *1268:D *1358:A 0
6 *1268:D *112:16 1.32418e-05
7 *1268:D *231:12 7.85137e-05
8 *1268:D *319:38 1.62054e-05
*RES
1 *1174:X *1268:D 37.4571 
*END

*D_NET *58 0.00236398
*CONN
*I *1269:D I *D sky130_fd_sc_hd__dfrtp_4
*I *1178:X O *D sky130_fd_sc_hd__a2bb2o_1
*CAP
1 *1269:D 0.0009565
2 *1178:X 0.0009565
3 *1269:D *1175:A 0.00025877
4 *1269:D *1269:RESET_B 5.048e-05
5 *1269:D *319:6 0.000141729
*RES
1 *1178:X *1269:D 30.6536 
*END

*D_NET *59 0.00126066
*CONN
*I *1270:D I *D sky130_fd_sc_hd__dfrtp_2
*I *1181:X O *D sky130_fd_sc_hd__a32o_1
*CAP
1 *1270:D 0.00038918
2 *1181:X 0.00038918
3 *1270:D *261:16 3.5707e-05
4 *1270:D *272:14 0.000446597
5 *1380:A *1270:D 0
*RES
1 *1181:X *1270:D 33.5821 
*END

*D_NET *60 0.00170499
*CONN
*I *1271:D I *D sky130_fd_sc_hd__dfrtp_1
*I *1185:X O *D sky130_fd_sc_hd__a31o_1
*CAP
1 *1271:D 0.000550409
2 *1185:X 0.000550409
3 *1271:D *1183:A3 4.60153e-05
4 *1271:D *1183:B1 5.65955e-05
5 *1271:D *1185:A3 5.49544e-05
6 *1271:D *319:32 0.000312152
7 *1271:D *321:8 4.7812e-05
8 *1271:D *321:37 8.6642e-05
*RES
1 *1185:X *1271:D 29.9571 
*END

*D_NET *61 0.00159192
*CONN
*I *1272:D I *D sky130_fd_sc_hd__dfrtp_2
*I *1190:Y O *D sky130_fd_sc_hd__a21oi_1
*CAP
1 *1272:D 0.000679362
2 *1190:Y 0.000679362
3 *1272:D *1190:B1 0.000107267
4 *1272:D *235:27 2.84183e-05
5 *1272:D *240:29 8.00806e-05
6 *1272:D *322:8 1.74352e-05
*RES
1 *1190:Y *1272:D 36.2071 
*END

*D_NET *62 0.00171219
*CONN
*I *1273:D I *D sky130_fd_sc_hd__dfrtp_1
*I *1194:X O *D sky130_fd_sc_hd__clkbuf_1
*CAP
1 *1273:D 0.000271336
2 *1194:X 0.000271336
3 *1273:D *1220:S 0.000611302
4 *1273:D *311:8 0.000245911
5 *1273:D *323:10 0.00031231
*RES
1 *1194:X *1273:D 28.725 
*END

*D_NET *63 0.00104407
*CONN
*I *1274:D I *D sky130_fd_sc_hd__dfrtp_2
*I *1197:Y O *D sky130_fd_sc_hd__a21oi_1
*CAP
1 *1274:D 0.000389225
2 *1197:Y 0.000389225
3 *1274:D *1278:RESET_B 5.23735e-05
4 *1274:D *1279:RESET_B 0
5 *1274:D *232:14 3.79467e-05
6 *1274:D *255:85 4.7201e-05
7 *1274:D *255:89 0.000128094
8 *1274:D *334:8 0
*RES
1 *1197:Y *1274:D 36.2786 
*END

*D_NET *64 0.000284905
*CONN
*I *1276:D I *D sky130_fd_sc_hd__dfrtp_1
*I *1201:X O *D sky130_fd_sc_hd__clkbuf_1
*CAP
1 *1276:D 0.000110252
2 *1201:X 0.000110252
3 *1276:D *1200:S 3.2534e-05
4 *1276:D *1201:A 3.18676e-05
5 *1276:D *1356:A 0
*RES
1 *1201:X *1276:D 29.475 
*END

*D_NET *65 0.000470612
*CONN
*I *1277:D I *D sky130_fd_sc_hd__dfrtp_1
*I *1205:X O *D sky130_fd_sc_hd__clkbuf_1
*CAP
1 *1277:D 0.000169302
2 *1205:X 0.000169302
3 *1277:D *1204:A1 7.83659e-05
4 *1277:D *1256:RESET_B 5.36426e-05
*RES
1 *1205:X *1277:D 30.4214 
*END

*D_NET *66 0.000541148
*CONN
*I *1278:D I *D sky130_fd_sc_hd__dfrtp_1
*I *1209:X O *D sky130_fd_sc_hd__clkbuf_1
*CAP
1 *1278:D 0.0001478
2 *1209:X 0.0001478
3 *1278:D *1208:A1 0.000143633
4 *1278:D *289:12 0.000101915
*RES
1 *1209:X *1278:D 30.2964 
*END

*D_NET *67 0.000469251
*CONN
*I *1279:D I *D sky130_fd_sc_hd__dfrtp_1
*I *1212:X O *D sky130_fd_sc_hd__clkbuf_1
*CAP
1 *1279:D 0.000203397
2 *1212:X 0.000203397
3 *1279:D *1258:RESET_B 0
4 *1279:D *112:31 6.24558e-05
*RES
1 *1212:X *1279:D 30.6 
*END

*D_NET *68 0.000323151
*CONN
*I *1280:D I *D sky130_fd_sc_hd__dfrtp_1
*I *1215:X O *D sky130_fd_sc_hd__clkbuf_1
*CAP
1 *1280:D 0.000139122
2 *1215:X 0.000139122
3 *1280:D *1215:A 1.24368e-05
4 *1280:D *1280:CLK 3.24707e-05
*RES
1 *1215:X *1280:D 20.7964 
*END

*D_NET *69 0.000270161
*CONN
*I *1281:D I *D sky130_fd_sc_hd__dfrtp_1
*I *1218:X O *D sky130_fd_sc_hd__clkbuf_1
*CAP
1 *1281:D 0.000135081
2 *1218:X 0.000135081
3 *1281:D *1218:A 0
4 *1281:D *1392:A 0
*RES
1 *1218:X *1281:D 29.9036 
*END

*D_NET *70 0.000330048
*CONN
*I *1282:D I *D sky130_fd_sc_hd__dfrtp_1
*I *1221:X O *D sky130_fd_sc_hd__clkbuf_1
*CAP
1 *1282:D 0.000124964
2 *1221:X 0.000124964
3 *1282:D *256:68 8.01197e-05
*RES
1 *1221:X *1282:D 20.7964 
*END

*D_NET *71 0.000288937
*CONN
*I *1283:D I *D sky130_fd_sc_hd__dfrtp_1
*I *1224:X O *D sky130_fd_sc_hd__clkbuf_1
*CAP
1 *1283:D 0.000106357
2 *1224:X 0.000106357
3 *1283:D *1283:CLK 7.62237e-05
*RES
1 *1224:X *1283:D 20.7964 
*END

*D_NET *72 0.00064062
*CONN
*I *1293:D I *D sky130_fd_sc_hd__dfrtp_1
*I *1227:X O *D sky130_fd_sc_hd__o22a_1
*CAP
1 *1293:D 0.000257374
2 *1227:X 0.000257374
3 *1293:D *1293:CLK 0.000125872
*RES
1 *1227:X *1293:D 23.3857 
*END

*D_NET *73 0.000334103
*CONN
*I *1294:D I *D sky130_fd_sc_hd__dfrtp_4
*I *1232:X O *D sky130_fd_sc_hd__o21a_1
*CAP
1 *1294:D 0.000119706
2 *1232:X 0.000119706
3 *1294:D *237:57 3.9733e-05
4 *1294:D *260:52 5.4959e-05
*RES
1 *1232:X *1294:D 30.0107 
*END

*D_NET *74 0.000364897
*CONN
*I *1295:D I *D sky130_fd_sc_hd__dfrtp_2
*I *1235:Y O *D sky130_fd_sc_hd__a21oi_1
*CAP
1 *1295:D 0.000145333
2 *1235:Y 0.000145333
3 *1295:D *1235:A2 1.3701e-05
4 *1295:D *1235:B1 5.30637e-06
5 *1295:D *1295:CLK 5.52238e-05
*RES
1 *1235:Y *1295:D 21.2071 
*END

*D_NET *75 0.000563056
*CONN
*I *1296:D I *D sky130_fd_sc_hd__dfrtp_1
*I *1237:Y O *D sky130_fd_sc_hd__nor3b_1
*CAP
1 *1296:D 0.000142811
2 *1237:Y 0.000142811
3 *1296:D *1091:B 0.00014183
4 *1296:D *1296:CLK 0.000100831
5 *1296:D *263:40 3.47737e-05
*RES
1 *1237:Y *1296:D 30.2964 
*END

*D_NET *76 0.000377313
*CONN
*I *1303:D I *D sky130_fd_sc_hd__dfrtp_1
*I *1239:X O *D sky130_fd_sc_hd__clkbuf_1
*CAP
1 *1303:D 0.000129555
2 *1239:X 0.000129555
3 *1303:D *1303:CLK 2.89114e-05
4 *1303:D *1307:CLK 6.01956e-05
5 *1303:D *233:97 2.90958e-05
*RES
1 *1239:X *1303:D 30.3857 
*END

*D_NET *77 0.00121457
*CONN
*I *1304:D I *D sky130_fd_sc_hd__dfrtp_1
*I *1241:X O *D sky130_fd_sc_hd__clkbuf_1
*CAP
1 *1304:D 0.000299568
2 *1241:X 0.000299568
3 *1304:D *1090:A1 5.58005e-05
4 *1304:D *1241:A 0.000142575
5 *1304:D *1304:RESET_B 4.88515e-05
6 *1304:D *1352:A 0.000368209
7 *1304:D *1353:A 0
*RES
1 *1241:X *1304:D 26.5464 
*END

*D_NET *78 0.000270633
*CONN
*I *1305:D I *D sky130_fd_sc_hd__dfrtp_1
*I *1243:X O *D sky130_fd_sc_hd__clkbuf_1
*CAP
1 *1305:D 0.000117468
2 *1243:X 0.000117468
3 *1305:D *1243:A 3.56976e-05
*RES
1 *1243:X *1305:D 29.475 
*END

*D_NET *79 0.000426939
*CONN
*I *1306:D I *D sky130_fd_sc_hd__dfrtp_1
*I *1245:X O *D sky130_fd_sc_hd__clkbuf_1
*CAP
1 *1306:D 0.000123375
2 *1245:X 0.000123375
3 *1306:D *1245:A 0.000149904
4 *1306:D *1306:RESET_B 0
5 *1306:D *234:36 3.0285e-05
*RES
1 *1245:X *1306:D 30.0821 
*END

*D_NET *80 0.000183595
*CONN
*I *1307:D I *D sky130_fd_sc_hd__dfrtp_1
*I *1247:X O *D sky130_fd_sc_hd__clkbuf_1
*CAP
1 *1307:D 9.17976e-05
2 *1247:X 9.17976e-05
3 *1307:D *1246:S 0
4 *1307:D *239:12 0
*RES
1 *1247:X *1307:D 29.2429 
*END

*D_NET *81 0.000258554
*CONN
*I *1308:D I *D sky130_fd_sc_hd__dfrtp_1
*I *1249:X O *D sky130_fd_sc_hd__clkbuf_1
*CAP
1 *1308:D 4.39668e-05
2 *1249:X 4.39668e-05
3 *1308:D *1092:A0 0.000127939
4 *1308:D *1361:A 4.26814e-05
*RES
1 *1249:X *1308:D 29.2429 
*END

*D_NET *82 0.000468036
*CONN
*I *1309:D I *D sky130_fd_sc_hd__dfrtp_1
*I *1251:X O *D sky130_fd_sc_hd__clkbuf_1
*CAP
1 *1309:D 0.000197446
2 *1251:X 0.000197446
3 *1309:D *1254:CLK 1.83053e-05
4 *1309:D *1307:RESET_B 5.4839e-05
*RES
1 *1251:X *1309:D 30.725 
*END

*D_NET *83 0.000714423
*CONN
*I *1310:D I *D sky130_fd_sc_hd__dfrtp_1
*I *1253:X O *D sky130_fd_sc_hd__clkbuf_1
*CAP
1 *1310:D 0.000134582
2 *1253:X 0.000134582
3 *1310:D *1240:S 0.000152168
4 *1254:D *1310:D 0.000293092
*RES
1 *1253:X *1310:D 31.9036 
*END

*D_NET *84 0.00607839
*CONN
*I *1159:A1 I *D sky130_fd_sc_hd__o31a_1
*I *1057:B I *D sky130_fd_sc_hd__or4_2
*I *1080:A I *D sky130_fd_sc_hd__or3_2
*I *1186:A1 I *D sky130_fd_sc_hd__o31a_2
*I *1053:A I *D sky130_fd_sc_hd__nor3_1
*I *1073:A1 I *D sky130_fd_sc_hd__o31a_1
*I *1050:X O *D sky130_fd_sc_hd__or3b_2
*CAP
1 *1159:A1 2.76557e-05
2 *1057:B 0
3 *1080:A 0
4 *1186:A1 0.000282715
5 *1053:A 0.000190429
6 *1073:A1 7.41838e-05
7 *1050:X 0.000471893
8 *84:37 0.00049366
9 *84:33 0.000309766
10 *84:18 0.00040249
11 *84:16 9.24533e-05
12 *84:14 0.000552946
13 *1053:A *1080:B 1.34741e-05
14 *1053:A *1168:B1 0.000181107
15 *1053:A *1184:A2 9.96553e-05
16 *1053:A *1186:A3 3.51971e-05
17 *1073:A1 *1057:C 9.41642e-05
18 *1073:A1 *1057:D 9.60939e-05
19 *1073:A1 *103:50 2.04825e-05
20 *1159:A1 *103:50 2.89016e-05
21 *1186:A1 *1167:A_N 0.000173665
22 *1186:A1 *1168:B1 0.000146074
23 *1186:A1 *91:43 0.000160137
24 *1186:A1 *333:37 8.25098e-05
25 *1186:A1 *333:54 0.000252022
26 *84:14 *1050:C_N 2.85321e-05
27 *84:14 *1146:A1 0.000123847
28 *84:14 *1146:B1 0
29 *84:14 *1153:A3 4.45502e-05
30 *84:14 *1163:B 7.58841e-05
31 *84:14 *1163:C 7.54369e-05
32 *84:14 *1163:D 0
33 *84:14 *1301:CLK 4.45307e-05
34 *84:14 *316:18 6.06412e-05
35 *84:16 *1146:A1 0.000150625
36 *84:16 *1153:A3 2.60251e-05
37 *84:16 *103:50 3.57844e-05
38 *84:18 *1146:A1 1.02504e-05
39 *84:18 *103:50 3.48235e-05
40 *84:18 *152:8 0
41 *84:18 *335:106 3.48282e-05
42 *84:33 *1153:A3 3.56119e-05
43 *84:33 *1168:A2 0.000129379
44 *84:33 *1184:B1 0.000216769
45 *84:33 *86:27 0.000134044
46 *84:33 *103:50 1.62539e-05
47 *84:33 *155:39 0.000119035
48 *84:33 *335:57 2.37944e-05
49 *84:33 *335:89 9.89175e-05
50 *84:33 *335:106 0.000156723
51 *84:37 *1184:B1 5.51716e-05
52 *84:37 *1186:A3 5.51716e-05
53 *84:37 *86:27 1.00887e-05
*RES
1 *1050:X *84:14 22.7286 
2 *84:14 *84:16 1.94643 
3 *84:16 *84:18 1.1875 
4 *84:18 *1073:A1 15.5589 
5 *84:18 *84:33 9.6875 
6 *84:33 *84:37 5.23214 
7 *84:37 *1053:A 21.7107 
8 *84:37 *1186:A1 24.8536 
9 *84:33 *1080:A 13.8 
10 *84:16 *1057:B 13.8 
11 *84:14 *1159:A1 14.3357 
*END

*D_NET *85 0.00306741
*CONN
*I *1186:A2 I *D sky130_fd_sc_hd__o31a_2
*I *1053:B I *D sky130_fd_sc_hd__nor3_1
*I *1080:B I *D sky130_fd_sc_hd__or3_2
*I *1051:Y O *D sky130_fd_sc_hd__nand2_1
*CAP
1 *1186:A2 0.000222727
2 *1053:B 0
3 *1080:B 0.000366198
4 *1051:Y 8.29798e-05
5 *85:6 0.000671904
6 *1080:B *1053:C 9.63347e-05
7 *1080:B *1151:A1 8.62302e-05
8 *1080:B *1184:A2 0.000217361
9 *1080:B *1186:A3 0
10 *1080:B *108:8 6.15436e-05
11 *1080:B *108:44 9.41642e-05
12 *1080:B *318:8 0
13 *1186:A2 *1167:B 0.000152296
14 *1186:A2 *1167:C 0.000268042
15 *1186:A2 *1186:B1 5.52238e-05
16 *1186:A2 *1386:A 9.41642e-05
17 *1186:A2 *87:6 0.000226266
18 *1186:A2 *91:43 0.000130542
19 *1186:A2 *104:30 1.65169e-05
20 *1186:A2 *258:60 5.33005e-05
21 *85:6 *1167:C 0.000141935
22 *85:6 *318:14 1.62025e-05
23 *1053:A *1080:B 1.34741e-05
*RES
1 *1051:Y *85:6 11.0679 
2 *85:6 *1080:B 24.6571 
3 *85:6 *1053:B 9.3 
4 *85:6 *1186:A2 25.1571 
*END

*D_NET *86 0.00346298
*CONN
*I *1080:C I *D sky130_fd_sc_hd__or3_2
*I *1186:A3 I *D sky130_fd_sc_hd__o31a_2
*I *1053:C I *D sky130_fd_sc_hd__nor3_1
*I *1052:X O *D sky130_fd_sc_hd__or4bb_1
*CAP
1 *1080:C 6.26728e-05
2 *1186:A3 0.000319153
3 *1053:C 0.000217626
4 *1052:X 3.92662e-05
5 *86:27 0.000678867
6 *86:6 0.000553933
7 *1053:C *1151:A1 0.000101908
8 *1053:C *1167:C 3.65727e-05
9 *1053:C *1174:A1 5.50052e-05
10 *1053:C *318:14 1.87331e-05
11 *1080:C *1168:B1 0.000103374
12 *1080:C *108:8 1.02301e-05
13 *1080:C *108:44 0.000136733
14 *1186:A3 *1167:B 4.60534e-05
15 *1186:A3 *1168:A2 1.00887e-05
16 *1186:A3 *1184:B1 0.000152792
17 *1186:A3 *258:60 0.00018372
18 *86:6 *1185:B1 5.49995e-05
19 *86:27 *1168:A2 0.000134044
20 *86:27 *1184:A1 0.000156433
21 *86:27 *1184:B1 6.64265e-06
22 *86:27 *1185:B1 5.33005e-05
23 *1053:A *1186:A3 3.51971e-05
24 *1080:B *1053:C 9.63347e-05
25 *1080:B *1186:A3 0
26 *84:33 *86:27 0.000134044
27 *84:37 *1186:A3 5.51716e-05
28 *84:37 *86:27 1.00887e-05
*RES
1 *1052:X *86:6 9.83571 
2 *86:6 *1053:C 23.0321 
3 *86:6 *86:27 9.44643 
4 *86:27 *1186:A3 19.9429 
5 *86:27 *1080:C 16.0143 
*END

*D_NET *87 0.00260429
*CONN
*I *1386:A I *D sky130_fd_sc_hd__clkbuf_2
*I *1184:B1 I *D sky130_fd_sc_hd__a32o_1
*I *1053:Y O *D sky130_fd_sc_hd__nor3_1
*CAP
1 *1386:A 0.000285576
2 *1184:B1 0.00034441
3 *1053:Y 0.000151554
4 *87:6 0.00078154
5 *1184:B1 *1167:B 5.14314e-05
6 *1184:B1 *1168:B1 3.03791e-05
7 *1184:B1 *1184:A1 0
8 *1184:B1 *1184:A2 0
9 *1184:B1 *1184:B2 2.59355e-05
10 *1184:B1 *91:43 0.000145615
11 *1184:B1 *335:57 2.37713e-05
12 *1386:A *1060:B2 0
13 *1386:A *104:30 1.22751e-05
14 *1186:A2 *1386:A 9.41642e-05
15 *1186:A2 *87:6 0.000226266
16 *1186:A3 *1184:B1 0.000152792
17 *84:33 *1184:B1 0.000216769
18 *84:37 *1184:B1 5.51716e-05
19 *86:27 *1184:B1 6.64265e-06
*RES
1 *1053:Y *87:6 11.4786 
2 *87:6 *1184:B1 26.4339 
3 *87:6 *1386:A 12.925 
*END

*D_NET *88 0.000333822
*CONN
*I *1057:A I *D sky130_fd_sc_hd__or4_2
*I *1054:Y O *D sky130_fd_sc_hd__inv_2
*CAP
1 *1057:A 0.000107291
2 *1054:Y 0.000107291
3 *1057:A *1054:A 0.000119241
*RES
1 *1054:Y *1057:A 20.7786 
*END

*D_NET *89 0.0015223
*CONN
*I *1159:A2 I *D sky130_fd_sc_hd__o31a_1
*I *1057:C I *D sky130_fd_sc_hd__or4_2
*I *1073:A2 I *D sky130_fd_sc_hd__o31a_1
*I *1055:Y O *D sky130_fd_sc_hd__nand2_1
*CAP
1 *1159:A2 4.38508e-05
2 *1057:C 6.83441e-05
3 *1073:A2 0
4 *1055:Y 8.53417e-05
5 *89:14 0.000138642
6 *89:6 0.000199491
7 *1057:C *1057:D 4.43157e-05
8 *1057:C *1073:B1 0.000221641
9 *1159:A2 *1159:A3 1.98839e-05
10 *1159:A2 *1159:B1 1.33343e-05
11 *1159:A2 *103:50 1.33343e-05
12 *1159:A2 *316:18 1.39726e-05
13 *89:6 *1159:A3 2.59355e-05
14 *89:6 *1159:B1 5.71472e-05
15 *89:6 *1177:A2 9.7659e-05
16 *89:6 *316:18 6.62898e-05
17 *89:14 *1055:B 0
18 *89:14 *1153:A3 0.000148196
19 *89:14 *1159:A3 0.000170757
20 *1073:A1 *1057:C 9.41642e-05
*RES
1 *1055:Y *89:6 11.8893 
2 *89:6 *89:14 11.375 
3 *89:14 *1073:A2 9.3 
4 *89:14 *1057:C 11.4786 
5 *89:6 *1159:A2 10.2464 
*END

*D_NET *90 0.00244273
*CONN
*I *1159:A3 I *D sky130_fd_sc_hd__o31a_1
*I *1073:A3 I *D sky130_fd_sc_hd__o31a_1
*I *1057:D I *D sky130_fd_sc_hd__or4_2
*I *1056:X O *D sky130_fd_sc_hd__or4bb_1
*CAP
1 *1159:A3 0.000175013
2 *1073:A3 0
3 *1057:D 0.000100577
4 *1056:X 0.000341507
5 *90:12 0.000100577
6 *90:10 0.000516519
7 *1057:D *1073:B1 2.44073e-05
8 *1057:D *1177:A1 5.33005e-05
9 *1057:D *103:6 5.52302e-05
10 *1057:D *103:8 9.41642e-05
11 *1159:A3 *1052:A 0
12 *1159:A3 *1055:B 0
13 *1159:A3 *1153:A3 1.41029e-05
14 *1159:A3 *1177:A2 0.000140368
15 *1159:A3 *103:50 3.57366e-05
16 *90:10 *1052:A 0
17 *90:10 *1151:A1 7.83659e-05
18 *90:10 *1151:B1 0.00012401
19 *90:10 *1153:A3 5.95282e-05
20 *90:10 *1177:A2 0.000150625
21 *90:10 *338:27 2.17149e-05
22 *1057:C *1057:D 4.43157e-05
23 *1073:A1 *1057:D 9.60939e-05
24 *1159:A2 *1159:A3 1.98839e-05
25 *89:6 *1159:A3 2.59355e-05
26 *89:14 *1159:A3 0.000170757
*RES
1 *1056:X *90:10 20.05 
2 *90:10 *90:12 4.5 
3 *90:12 *1057:D 11.9071 
4 *90:12 *1073:A3 9.3 
5 *90:10 *1159:A3 17.8536 
*END

*D_NET *91 0.007229
*CONN
*I *1058:B_N I *D sky130_fd_sc_hd__or2b_1
*I *1063:A2 I *D sky130_fd_sc_hd__o21ai_1
*I *1146:A1 I *D sky130_fd_sc_hd__a21oi_1
*I *1057:X O *D sky130_fd_sc_hd__or4_2
*CAP
1 *1058:B_N 0.000257179
2 *1063:A2 0.000691135
3 *1146:A1 0.000457789
4 *1057:X 0
5 *91:43 0.00195506
6 *91:4 0.00146454
7 *1058:B_N *1186:B1 3.99614e-06
8 *1058:B_N *112:16 5.94433e-06
9 *1058:B_N *184:6 2.84109e-05
10 *1058:B_N *258:60 5.65955e-05
11 *1058:B_N *333:22 3.42509e-05
12 *1058:B_N *333:37 4.93964e-05
13 *1063:A2 *1167:B 0
14 *1063:A2 *1211:A1 0
15 *1063:A2 *1316:A 0
16 *1063:A2 *112:16 4.79321e-05
17 *1063:A2 *232:14 0
18 *1063:A2 *318:8 0
19 *1146:A1 *1054:A 0.000140933
20 *1146:A1 *1073:B1 5.52238e-05
21 *1146:A1 *1146:B1 0.0001399
22 *1146:A1 *151:41 2.61099e-05
23 *1146:A1 *152:8 0
24 *91:43 *1054:A 4.08637e-05
25 *91:43 *1167:A_N 0.000169971
26 *91:43 *1167:B 5.19597e-05
27 *91:43 *1168:B1 0.00012249
28 *91:43 *1186:B1 7.83659e-05
29 *91:43 *152:8 0.000389861
30 *91:43 *333:37 1.81709e-05
31 *91:43 *333:54 0.000207432
32 *91:43 *335:55 1.44773e-05
33 *91:43 *335:89 0
34 *1184:B1 *91:43 0.000145615
35 *1186:A1 *91:43 0.000160137
36 *1186:A2 *91:43 0.000130542
37 *84:14 *1146:A1 0.000123847
38 *84:16 *1146:A1 0.000150625
39 *84:18 *1146:A1 1.02504e-05
*RES
1 *1057:X *91:4 9.3 
2 *91:4 *1146:A1 25.7107 
3 *91:4 *91:43 38.875 
4 *91:43 *1063:A2 28.1214 
5 *91:43 *1058:B_N 22.3714 
*END

*D_NET *92 0.000764907
*CONN
*I *1060:B1 I *D sky130_fd_sc_hd__a22o_1
*I *1058:X O *D sky130_fd_sc_hd__or2b_1
*CAP
1 *1060:B1 0.000185312
2 *1058:X 0.000185312
3 *1060:B1 *1060:A1 1.6806e-05
4 *1060:B1 *1060:A2 2.84109e-05
5 *1060:B1 *1085:C 1.49019e-05
6 *1060:B1 *1299:CLK 0.000111842
7 *1060:B1 *104:30 9.58181e-05
8 *1060:B1 *254:6 1.47872e-05
9 *1060:B1 *258:60 0.000111716
*RES
1 *1058:X *1060:B1 31.7429 
*END

*D_NET *93 0.017653
*CONN
*I *1060:B2 I *D sky130_fd_sc_hd__a22o_1
*I *1063:A1 I *D sky130_fd_sc_hd__o21ai_1
*I *1211:A0 I *D sky130_fd_sc_hd__mux2_1
*I *1208:A0 I *D sky130_fd_sc_hd__mux2_1
*I *1214:A0 I *D sky130_fd_sc_hd__mux2_1
*I *1223:A0 I *D sky130_fd_sc_hd__mux2_1
*I *1220:A0 I *D sky130_fd_sc_hd__mux2_1
*I *1200:A0 I *D sky130_fd_sc_hd__mux2_1
*I *1217:A0 I *D sky130_fd_sc_hd__mux2_1
*I *1204:A0 I *D sky130_fd_sc_hd__mux2_1
*I *1059:X O *D sky130_fd_sc_hd__buf_2
*CAP
1 *1060:B2 0.00132701
2 *1063:A1 0.000125861
3 *1211:A0 0
4 *1208:A0 0
5 *1214:A0 1.94669e-05
6 *1223:A0 0.000542921
7 *1220:A0 3.28219e-05
8 *1200:A0 3.39848e-05
9 *1217:A0 0
10 *1204:A0 0.000195247
11 *1059:X 0.000162548
12 *93:107 0.000155065
13 *93:65 0.00106834
14 *93:57 0.00117977
15 *93:40 0.00124168
16 *93:33 0.00168699
17 *93:18 0.00157695
18 *93:14 0.00077095
19 *93:12 0.00110847
20 *93:8 0.00203257
21 *1060:B2 *1060:A2 2.74752e-06
22 *1060:B2 *1085:C 1.90936e-05
23 *1060:B2 *104:30 1.83053e-05
24 *1060:B2 *254:6 5.65955e-05
25 *1060:B2 *318:8 4.36699e-05
26 *1063:A1 *1211:S 0.000273269
27 *1063:A1 *1279:RESET_B 4.88546e-05
28 *1200:A0 *1200:S 7.83587e-05
29 *1200:A0 *240:10 3.92757e-05
30 *1204:A0 *1204:A1 2.27416e-05
31 *1204:A0 *1204:S 5.41494e-05
32 *1214:A0 *1214:S 5.49544e-05
33 *1220:A0 *1220:S 0.000139208
34 *1220:A0 *235:6 5.33005e-05
35 *1220:A0 *235:66 9.83442e-05
36 *1223:A0 *1220:S 2.27129e-05
37 *1223:A0 *1221:A 0.000147582
38 *1223:A0 *1223:A1 2.84026e-05
39 *1223:A0 *1223:S 1.59373e-05
40 *1223:A0 *1273:RESET_B 0
41 *1223:A0 *1321:A 0.000101363
42 *1223:A0 *235:10 0.00019408
43 *1223:A0 *235:21 0.000107454
44 *1223:A0 *235:27 0
45 *93:8 *1051:A 6.7085e-05
46 *93:8 *1174:A1 4.3304e-06
47 *93:12 *1211:A1 9.24299e-05
48 *93:12 *1268:RESET_B 0
49 *93:12 *1357:A 0
50 *93:12 *258:77 0
51 *93:12 *318:8 0.000269863
52 *93:14 *1212:A 0
53 *93:14 *232:25 0
54 *93:18 *1138:A 0
55 *93:18 *232:27 0
56 *93:33 *1204:S 4.50757e-05
57 *93:33 *1260:CLK 0.000130718
58 *93:33 *1260:RESET_B 0.000142368
59 *93:33 *1276:CLK 0.000578447
60 *93:33 *1338:A 7.83725e-05
61 *93:40 *1276:CLK 0.00021081
62 *93:57 *1214:S 5.49489e-05
63 *93:57 *1327:A 0.000183035
64 *93:57 *1372:A 0.000133123
65 *93:65 *1214:S 0.000307535
66 *93:65 *1220:S 0.000240435
67 *93:65 *235:10 3.12359e-05
68 *93:107 *1279:RESET_B 5.92219e-05
69 *1260:D *93:18 0
70 *1300:D *1063:A1 0.000142856
71 *1300:D *93:12 0
72 *1300:D *93:14 0
73 *1386:A *1060:B2 0
*RES
1 *1059:X *93:8 15.9786 
2 *93:8 *93:12 10.0714 
3 *93:12 *93:14 9.23214 
4 *93:14 *93:18 7.96429 
5 *93:18 *1204:A0 11.8893 
6 *93:18 *93:33 17.9464 
7 *93:33 *1217:A0 9.3 
8 *93:33 *93:40 6.69643 
9 *93:40 *1200:A0 19.3357 
10 *93:40 *93:57 10.0179 
11 *93:57 *93:65 15 
12 *93:65 *1220:A0 15.1571 
13 *93:65 *1223:A0 24.6393 
14 *93:57 *1214:A0 9.83571 
15 *93:14 *1208:A0 13.8 
16 *93:12 *93:107 5.23214 
17 *93:107 *1211:A0 9.3 
18 *93:107 *1063:A1 13.1214 
19 *93:8 *1060:B2 24.9699 
*END

*D_NET *94 0.00223634
*CONN
*I *1062:B1 I *D sky130_fd_sc_hd__a41o_1
*I *1167:B I *D sky130_fd_sc_hd__and4b_1
*I *1061:Y O *D sky130_fd_sc_hd__inv_2
*CAP
1 *1062:B1 8.21253e-05
2 *1167:B 0.000525761
3 *1061:Y 8.96098e-05
4 *94:6 0.000697496
5 *1062:B1 *334:8 6.74815e-05
6 *1167:B *1186:B1 0
7 *1167:B *1197:B1 0.000146486
8 *1167:B *1299:CLK 4.72818e-05
9 *1167:B *1316:A 0.000164959
10 *1167:B *232:14 1.19309e-05
11 *1167:B *334:10 0
12 *94:6 *1197:B1 0.000101468
13 *1063:A2 *1167:B 0
14 *1184:B1 *1167:B 5.14314e-05
15 *1186:A2 *1167:B 0.000152296
16 *1186:A3 *1167:B 4.60534e-05
17 *91:43 *1167:B 5.19597e-05
*RES
1 *1061:Y *94:6 10.6571 
2 *94:6 *1167:B 29.2821 
3 *94:6 *1062:B1 19.9429 
*END

*D_NET *95 0.000780145
*CONN
*I *1197:A1 I *D sky130_fd_sc_hd__a21oi_1
*I *1063:B1 I *D sky130_fd_sc_hd__o21ai_1
*I *1062:X O *D sky130_fd_sc_hd__a41o_1
*CAP
1 *1197:A1 1.67212e-05
2 *1063:B1 9.71013e-05
3 *1062:X 3.46513e-05
4 *95:6 0.000148474
5 *1063:B1 *1197:B1 4.01768e-05
6 *1063:B1 *1211:S 0.000334581
7 *1197:A1 *1197:A2 1.04232e-05
8 *95:6 *1197:B1 5.30637e-06
9 *95:6 *1211:S 8.57023e-05
10 *1300:D *1063:B1 7.00702e-06
*RES
1 *1062:X *95:6 10.2464 
2 *95:6 *1063:B1 12.7464 
3 *95:6 *1197:A1 9.72857 
*END

*D_NET *96 0.00331359
*CONN
*I *1066:B I *D sky130_fd_sc_hd__and3_1
*I *1230:A3 I *D sky130_fd_sc_hd__a41o_1
*I *1228:C I *D sky130_fd_sc_hd__and4_1
*I *1064:X O *D sky130_fd_sc_hd__and4bb_1
*CAP
1 *1066:B 1.91209e-05
2 *1230:A3 5.13613e-05
3 *1228:C 0.000181328
4 *1064:X 0.000798397
5 *96:16 0.000370535
6 *96:14 0.000955364
7 *1228:C *1228:D 0.000182803
8 *1228:C *216:16 0.000229456
9 *1230:A3 *1228:D 0.000104809
10 *1230:A3 *1230:A4 3.99614e-06
11 *96:14 *1066:A 0
12 *96:14 *1067:A 5.80706e-06
13 *96:14 *1097:A 0
14 *96:14 *1108:A 7.99046e-05
15 *96:14 *97:14 4.46595e-05
16 *96:14 *97:18 3.29362e-06
17 *96:14 *119:18 0
18 *96:14 *128:8 0
19 *96:14 *229:20 0
20 *96:16 *1066:A 1.58163e-05
21 *96:16 *1228:D 1.74352e-05
22 *96:16 *97:18 1.74137e-05
23 *1285:D *96:14 7.74068e-05
24 *1315:A *96:14 0.000154686
*RES
1 *1064:X *96:14 32.7643 
2 *96:14 *96:16 2.58929 
3 *96:16 *1228:C 13.8536 
4 *96:16 *1230:A3 10.9786 
5 *96:14 *1066:B 9.72857 
*END

*D_NET *97 0.00416624
*CONN
*I *1066:C I *D sky130_fd_sc_hd__and3_1
*I *1230:A4 I *D sky130_fd_sc_hd__a41o_1
*I *1228:D I *D sky130_fd_sc_hd__and4_1
*I *1065:X O *D sky130_fd_sc_hd__and4bb_1
*CAP
1 *1066:C 0
2 *1230:A4 5.68409e-06
3 *1228:D 0.000241339
4 *1065:X 0.00097294
5 *97:18 0.000379744
6 *97:14 0.00110566
7 *1228:D *1228:B 0.00025495
8 *1228:D *216:16 1.32552e-05
9 *1230:A4 *1066:A 1.97695e-05
10 *97:14 *1065:B_N 1.35553e-05
11 *97:14 *1123:A 9.51412e-05
12 *97:14 *1125:A 4.08637e-05
13 *97:14 *1125:B 3.42301e-05
14 *97:14 *1125:C 0.000124118
15 *97:14 *1292:CLK 3.12534e-05
16 *97:14 *120:6 0.00022367
17 *97:14 *346:54 0.000176586
18 *97:18 *1066:A 5.90666e-05
19 *1228:C *1228:D 0.000182803
20 *1230:A3 *1228:D 0.000104809
21 *1230:A3 *1230:A4 3.99614e-06
22 *96:14 *97:14 4.46595e-05
23 *96:14 *97:18 3.29362e-06
24 *96:16 *1228:D 1.74352e-05
25 *96:16 *97:18 1.74137e-05
*RES
1 *1065:X *97:14 32.0768 
2 *97:14 *97:18 1.90179 
3 *97:18 *1228:D 16.3 
4 *97:18 *1230:A4 9.72857 
5 *97:14 *1066:C 9.3 
*END

*D_NET *98 0.000230759
*CONN
*I *1067:A I *D sky130_fd_sc_hd__buf_2
*I *1066:X O *D sky130_fd_sc_hd__and3_1
*CAP
1 *1067:A 0.000112476
2 *1066:X 0.000112476
3 *1067:A *1097:A 0
4 *1067:A *229:20 0
5 *96:14 *1067:A 5.80706e-06
*RES
1 *1066:X *1067:A 29.5464 
*END

*D_NET *99 0.0100099
*CONN
*I *1121:C1 I *D sky130_fd_sc_hd__a211o_1
*I *1072:A2 I *D sky130_fd_sc_hd__a22o_1
*I *1097:A I *D sky130_fd_sc_hd__nor2_1
*I *1071:A I *D sky130_fd_sc_hd__nand2_1
*I *1089:A2 I *D sky130_fd_sc_hd__o21ai_1
*I *1069:A2 I *D sky130_fd_sc_hd__a21bo_1
*I *1226:A2 I *D sky130_fd_sc_hd__a21boi_1
*I *1079:A2 I *D sky130_fd_sc_hd__o21bai_1
*I *1078:B I *D sky130_fd_sc_hd__and3_1
*I *1067:X O *D sky130_fd_sc_hd__buf_2
*CAP
1 *1121:C1 0.0002463
2 *1072:A2 0
3 *1097:A 0.000186635
4 *1071:A 0
5 *1089:A2 0
6 *1069:A2 0.000411773
7 *1226:A2 0.000135577
8 *1079:A2 0.000120584
9 *1078:B 0.000397067
10 *1067:X 0.000111332
11 *99:114 0.000592153
12 *99:79 0.000675485
13 *99:53 0.000607266
14 *99:47 0.000885697
15 *99:30 0.000765972
16 *99:22 0.0004057
17 *99:10 0.000578226
18 *1069:A2 *1089:B1 7.74135e-05
19 *1069:A2 *1094:B1 0.00028518
20 *1069:A2 *1368:A 0.000115971
21 *1069:A2 *238:86 0.000219627
22 *1069:A2 *309:8 0.000443463
23 *1078:B *1078:A 0
24 *1078:B *1079:B1_N 0
25 *1078:B *107:8 0
26 *1078:B *215:10 0.000193833
27 *1078:B *262:54 0.000274288
28 *1079:A2 *1079:A1 5.66971e-05
29 *1079:A2 *1079:B1_N 2.85234e-05
30 *1097:A *1072:A1 1.19402e-05
31 *1097:A *119:12 9.9784e-05
32 *1097:A *119:14 0.000103993
33 *1097:A *119:18 5.80706e-06
34 *1121:C1 *1121:A1 8.29398e-06
35 *1121:C1 *1121:B1 0.000190333
36 *1226:A2 *1079:A1 7.87601e-05
37 *1226:A2 *1226:A1 7.22686e-05
38 *1226:A2 *1314:CLK 1.6806e-05
39 *1226:A2 *100:10 6.94441e-06
40 *1226:A2 *305:18 0.000139338
41 *99:10 *1072:A1 2.8833e-05
42 *99:10 *229:20 0
43 *99:22 *1072:A1 0
44 *99:22 *1072:B1 0.000230475
45 *99:22 *229:20 0.000150618
46 *99:22 *262:54 0.000199137
47 *99:30 *1071:B 6.10501e-05
48 *99:30 *1078:A 1.24368e-05
49 *99:30 *215:10 7.6644e-05
50 *99:30 *229:20 0
51 *99:30 *262:54 2.14658e-05
52 *99:30 *360:56 0.00010326
53 *99:47 *1079:B1_N 0
54 *99:47 *1094:A3 0
55 *99:47 *1094:B1 0.000246995
56 *99:47 *229:20 0
57 *99:53 *1079:A1 4.27842e-06
58 *99:79 *1089:B1 2.85234e-05
59 *99:114 *1072:A1 1.69175e-05
60 *99:114 *1072:B1 0.000190783
61 *99:114 *1121:B1 1.40034e-05
62 *1067:A *1097:A 0
63 *1313:D *99:79 1.32552e-05
64 *1314:D *1079:A2 6.21538e-05
65 *96:14 *1097:A 0
*RES
1 *1067:X *99:10 20.55 
2 *99:10 *99:22 15.7321 
3 *99:22 *99:30 7.25893 
4 *99:30 *1078:B 20.3446 
5 *99:30 *99:47 10.5446 
6 *99:47 *99:53 9.03571 
7 *99:53 *1079:A2 16.8357 
8 *99:53 *1226:A2 17.4071 
9 *99:47 *99:79 3 
10 *99:79 *1069:A2 38.3179 
11 *99:79 *1089:A2 9.3 
12 *99:22 *1071:A 9.3 
13 *99:10 *99:114 3.32143 
14 *99:114 *1097:A 23.2821 
15 *99:114 *1072:A2 9.3 
16 *99:114 *1121:C1 14.1036 
*END

*D_NET *100 0.00269787
*CONN
*I *1069:B1_N I *D sky130_fd_sc_hd__a21bo_1
*I *1226:A1 I *D sky130_fd_sc_hd__a21boi_1
*I *1068:X O *D sky130_fd_sc_hd__or2b_1
*CAP
1 *1069:B1_N 0.000666829
2 *1226:A1 0.000223093
3 *1068:X 0.000129759
4 *100:10 0.00101968
5 *1069:B1_N *1077:A 0.000207657
6 *1069:B1_N *1314:CLK 1.24368e-05
7 *1069:B1_N *1314:RESET_B 2.48941e-05
8 *1069:B1_N *305:18 1.42905e-05
9 *1069:B1_N *362:6 3.73361e-05
10 *1226:A1 *1077:A 2.38501e-05
11 *1226:A1 *1314:CLK 5.49995e-05
12 *1226:A1 *305:18 2.60673e-05
13 *100:10 *1314:CLK 0.000169083
14 *100:10 *359:19 0
15 *1226:A2 *1226:A1 7.22686e-05
16 *1226:A2 *100:10 6.94441e-06
17 *1314:D *100:10 8.67814e-06
*RES
1 *1068:X *100:10 20.8536 
2 *100:10 *1226:A1 12.3 
3 *100:10 *1069:B1_N 18.05 
*END

*D_NET *101 0.00105198
*CONN
*I *1071:B I *D sky130_fd_sc_hd__nand2_1
*I *1078:C I *D sky130_fd_sc_hd__and3_1
*I *1070:X O *D sky130_fd_sc_hd__and3_1
*CAP
1 *1071:B 0.000255849
2 *1078:C 0
3 *1070:X 0.000126085
4 *101:6 0.000381934
5 *1071:B *1078:A 8.37104e-05
6 *1071:B *262:54 2.62223e-05
7 *101:6 *1237:A 9.60875e-05
8 *101:6 *262:54 2.10373e-05
9 *99:30 *1071:B 6.10501e-05
*RES
1 *1070:X *101:6 10.9518 
2 *101:6 *1078:C 9.3 
3 *101:6 *1071:B 13.1482 
*END

*D_NET *102 0.0015146
*CONN
*I *1072:B1 I *D sky130_fd_sc_hd__a22o_1
*I *1071:Y O *D sky130_fd_sc_hd__nand2_1
*CAP
1 *1072:B1 0.000331438
2 *1071:Y 0.000331438
3 *1072:B1 *1072:A1 2.84109e-05
4 *1072:B1 *1072:B2 5.71472e-05
5 *1072:B1 *1345:A 0.000184745
6 *1072:B1 *215:10 8.00806e-05
7 *1072:B1 *360:10 8.00806e-05
8 *99:22 *1072:B1 0.000230475
9 *99:114 *1072:B1 0.000190783
*RES
1 *1071:Y *1072:B1 36.0821 
*END

*D_NET *103 0.00464261
*CONN
*I *1075:A I *D sky130_fd_sc_hd__or2b_1
*I *1158:A1 I *D sky130_fd_sc_hd__o21bai_1
*I *1151:B1 I *D sky130_fd_sc_hd__a21o_1
*I *1177:A1 I *D sky130_fd_sc_hd__o22a_1
*I *1073:X O *D sky130_fd_sc_hd__o31a_1
*CAP
1 *1075:A 0.000129701
2 *1158:A1 1.90348e-05
3 *1151:B1 7.40644e-05
4 *1177:A1 0.0005441
5 *1073:X 3.01226e-05
6 *103:50 0.000772003
7 *103:8 0.000685292
8 *103:6 0.000720517
9 *1075:A *104:81 0.000128154
10 *1075:A *151:29 0.000128154
11 *1151:B1 *1151:A1 1.33343e-05
12 *1151:B1 *1153:A3 0.00012401
13 *1151:B1 *1177:A2 5.33005e-05
14 *1177:A1 *1052:A 0
15 *1177:A1 *1073:B1 8.25843e-06
16 *1177:A1 *157:23 8.2731e-05
17 *103:50 *1153:A3 0.000191403
18 *103:50 *1158:A2 0.000141734
19 *103:50 *1158:B1_N 0.000226867
20 *103:50 *1160:A 2.89016e-05
21 *103:50 *1160:B 2.89114e-05
22 *1057:D *1177:A1 5.33005e-05
23 *1057:D *103:6 5.52302e-05
24 *1057:D *103:8 9.41642e-05
25 *1073:A1 *103:50 2.04825e-05
26 *1159:A1 *103:50 2.89016e-05
27 *1159:A2 *103:50 1.33343e-05
28 *1159:A3 *103:50 3.57366e-05
29 *84:16 *103:50 3.57844e-05
30 *84:18 *103:50 3.48235e-05
31 *84:33 *103:50 1.62539e-05
32 *90:10 *1151:B1 0.00012401
*RES
1 *1073:X *103:6 9.83571 
2 *103:6 *103:8 0.946429 
3 *103:8 *1177:A1 26.1214 
4 *103:8 *1151:B1 20.4786 
5 *103:6 *103:50 21.2857 
6 *103:50 *1158:A1 9.72857 
7 *103:50 *1075:A 21.3 
*END

*D_NET *104 0.0102082
*CONN
*I *1157:A1 I *D sky130_fd_sc_hd__o211a_1
*I *1153:A2 I *D sky130_fd_sc_hd__a32o_1
*I *1075:B_N I *D sky130_fd_sc_hd__or2b_1
*I *1167:D I *D sky130_fd_sc_hd__and4b_1
*I *1184:A2 I *D sky130_fd_sc_hd__a32o_1
*I *1074:X O *D sky130_fd_sc_hd__or2b_2
*CAP
1 *1157:A1 3.47497e-05
2 *1153:A2 0.000407835
3 *1075:B_N 0
4 *1167:D 0
5 *1184:A2 0.000432207
6 *1074:X 0.000105217
7 *104:81 0.00129655
8 *104:64 0.00101981
9 *104:30 0.0015434
10 *104:10 0.00138226
11 *1153:A2 *1153:A3 5.49995e-05
12 *1153:A2 *1156:A3 7.92229e-06
13 *1153:A2 *1156:B1 0.000323207
14 *1153:A2 *1157:B1 3.31014e-05
15 *1153:A2 *314:55 0.000105302
16 *1157:A1 *1157:B1 5.38444e-06
17 *1184:A2 *1151:A1 0.000101304
18 *1184:A2 *1167:C 9.46705e-05
19 *1184:A2 *1168:A2 5.11174e-05
20 *1184:A2 *1174:A1 9.58689e-05
21 *1184:A2 *1184:A1 3.94344e-05
22 *1184:A2 *1184:A3 4.24939e-05
23 *104:10 *1085:B 0.000128523
24 *104:10 *1145:A2 0.000311206
25 *104:10 *338:38 9.83442e-05
26 *104:30 *1060:A1 7.58841e-05
27 *104:30 *1085:B 0.000103372
28 *104:30 *1085:C 3.52915e-05
29 *104:30 *1167:C 1.54209e-05
30 *104:30 *112:16 9.15842e-06
31 *104:30 *151:8 7.36697e-05
32 *104:30 *151:29 3.46701e-05
33 *104:30 *155:10 0.000172091
34 *104:30 *254:6 3.07955e-05
35 *104:30 *334:48 0
36 *104:30 *335:55 0.000140685
37 *104:64 *151:29 0.000176096
38 *104:81 *1157:B1 1.35465e-05
39 *104:81 *1158:B1_N 6.55399e-05
40 *104:81 *1162:A1 0.000196262
41 *104:81 *1162:B1 7.65336e-06
42 *104:81 *1240:A0 0
43 *104:81 *1364:A 3.92821e-05
44 *104:81 *151:29 0.000438248
45 *104:81 *151:89 0
46 *104:81 *151:93 0
47 *104:81 *159:10 3.23634e-05
48 *104:81 *315:10 6.78202e-06
49 *1053:A *1184:A2 9.96553e-05
50 *1060:B1 *104:30 9.58181e-05
51 *1060:B2 *104:30 1.83053e-05
52 *1075:A *104:81 0.000128154
53 *1080:B *1184:A2 0.000217361
54 *1184:B1 *1184:A2 0
55 *1186:A2 *104:30 1.65169e-05
56 *1264:D *1153:A2 0.000143633
57 *1265:D *104:81 9.4725e-05
58 *1386:A *104:30 1.22751e-05
*RES
1 *1074:X *104:10 17.2286 
2 *104:10 *104:30 31.1116 
3 *104:30 *1184:A2 27.9562 
4 *104:30 *1167:D 9.3 
5 *104:10 *104:64 4.07143 
6 *104:64 *1075:B_N 13.8 
7 *104:64 *104:81 22.1607 
8 *104:81 *1153:A2 16.55 
9 *104:81 *1157:A1 10.0321 
*END

*D_NET *105 0.000392237
*CONN
*I *1076:A I *D sky130_fd_sc_hd__clkbuf_1
*I *1075:X O *D sky130_fd_sc_hd__or2b_1
*CAP
1 *1076:A 0.000118731
2 *1075:X 0.000118731
3 *1076:A *250:28 8.00806e-05
4 *1076:A *259:12 7.46952e-05
*RES
1 *1075:X *1076:A 30.3143 
*END

*D_NET *106 0.00111486
*CONN
*I *1227:B2 I *D sky130_fd_sc_hd__o22a_1
*I *1079:A1 I *D sky130_fd_sc_hd__o21bai_1
*I *1077:Y O *D sky130_fd_sc_hd__inv_2
*CAP
1 *1227:B2 8.11056e-05
2 *1079:A1 0.000180395
3 *1077:Y 7.24426e-05
4 *106:8 0.000333943
5 *1079:A1 *1227:B1 3.14003e-05
6 *1227:B2 *1227:A2 1.99099e-05
7 *1227:B2 *1227:B1 0.000150253
8 *106:8 *1227:B1 5.33005e-05
9 *106:8 *305:18 2.38501e-05
10 *1079:A2 *1079:A1 5.66971e-05
11 *1226:A2 *1079:A1 7.87601e-05
12 *1314:D *1079:A1 2.85234e-05
13 *99:53 *1079:A1 4.27842e-06
*RES
1 *1077:Y *106:8 14.7464 
2 *106:8 *1079:A1 17.4964 
3 *106:8 *1227:B2 15.7464 
*END

*D_NET *107 0.00316777
*CONN
*I *1079:B1_N I *D sky130_fd_sc_hd__o21bai_1
*I *1237:A I *D sky130_fd_sc_hd__nor3b_1
*I *1078:X O *D sky130_fd_sc_hd__and3_1
*CAP
1 *1079:B1_N 0.000627425
2 *1237:A 0.000435918
3 *1078:X 6.41749e-05
4 *107:8 0.00112752
5 *1079:B1_N *1094:A3 0
6 *1079:B1_N *262:54 0.000114045
7 *1237:A *1070:A 5.20751e-05
8 *1237:A *1070:C 7.74483e-05
9 *1237:A *1091:B 0.000212274
10 *1237:A *1236:A1 1.46148e-05
11 *1237:A *1237:B 2.44318e-05
12 *1237:A *1237:C_N 0.000144074
13 *1237:A *262:54 1.58163e-05
14 *1237:A *348:53 1.13883e-05
15 *1237:A *348:67 3.61168e-05
16 *107:8 *262:54 8.15095e-05
17 *1078:B *1079:B1_N 0
18 *1078:B *107:8 0
19 *1079:A2 *1079:B1_N 2.85234e-05
20 *1314:D *1079:B1_N 4.3304e-06
21 *99:47 *1079:B1_N 0
22 *101:6 *1237:A 9.60875e-05
*RES
1 *1078:X *107:8 15.1393 
2 *107:8 *1237:A 22.3179 
3 *107:8 *1079:B1_N 24.1929 
*END

*D_NET *108 0.00774228
*CONN
*I *1084:A2 I *D sky130_fd_sc_hd__a22o_1
*I *1083:B I *D sky130_fd_sc_hd__nor3_1
*I *1151:A1 I *D sky130_fd_sc_hd__a21o_1
*I *1168:A1 I *D sky130_fd_sc_hd__a21o_1
*I *1080:X O *D sky130_fd_sc_hd__or3_2
*CAP
1 *1084:A2 0.000167487
2 *1083:B 0.000113997
3 *1151:A1 0.000485449
4 *1168:A1 1.72139e-05
5 *1080:X 0
6 *108:44 0.00119632
7 *108:8 0.000546038
8 *108:4 0.000958213
9 *1083:B *1084:B1 0.000173015
10 *1083:B *1198:C 5.80494e-05
11 *1083:B *1302:RESET_B 5.51649e-05
12 *1083:B *1326:A 1.50223e-05
13 *1083:B *240:29 2.16573e-05
14 *1084:A2 *1084:B1 0.000457525
15 *1084:A2 *1302:RESET_B 9.96553e-05
16 *1084:A2 *112:80 2.24718e-05
17 *1084:A2 *335:43 0.000308014
18 *1151:A1 *1052:A 2.43447e-05
19 *1151:A1 *1153:A3 6.98302e-05
20 *1151:A1 *1168:B1 2.6913e-05
21 *1151:A1 *1177:A2 2.14658e-05
22 *1151:A1 *1184:A3 0.000251207
23 *1151:A1 *155:35 1.04232e-05
24 *1168:A1 *1168:B1 5.46383e-06
25 *108:8 *1168:B1 7.62323e-05
26 *108:44 *1167:A_N 0.000289564
27 *108:44 *1168:B1 7.30125e-05
28 *108:44 *112:86 0.000221058
29 *108:44 *155:10 9.74665e-05
30 *108:44 *336:6 0.000227024
31 *108:44 *336:8 0.000227179
32 *108:44 *336:12 0.000479154
33 *1053:C *1151:A1 0.000101908
34 *1080:B *1151:A1 8.62302e-05
35 *1080:B *108:8 6.15436e-05
36 *1080:B *108:44 9.41642e-05
37 *1080:C *108:8 1.02301e-05
38 *1080:C *108:44 0.000136733
39 *1151:B1 *1151:A1 1.33343e-05
40 *1184:A2 *1151:A1 0.000101304
41 *1302:D *108:44 0.000262834
42 *90:10 *1151:A1 7.83659e-05
*RES
1 *1080:X *108:4 9.3 
2 *108:4 *108:8 1.78571 
3 *108:8 *1168:A1 9.72857 
4 *108:8 *1151:A1 29.05 
5 *108:4 *108:44 23.9286 
6 *108:44 *1083:B 16.6571 
7 *108:44 *1084:A2 19.5857 
*END

*D_NET *109 0.00695351
*CONN
*I *1213:A I *D sky130_fd_sc_hd__or4_1
*I *1083:A I *D sky130_fd_sc_hd__nor3_1
*I *1222:A I *D sky130_fd_sc_hd__or4_1
*I *1196:B1 I *D sky130_fd_sc_hd__o31a_1
*I *1219:A I *D sky130_fd_sc_hd__or4_1
*I *1216:A I *D sky130_fd_sc_hd__or4_1
*I *1081:Y O *D sky130_fd_sc_hd__inv_2
*CAP
1 *1213:A 0.000197819
2 *1083:A 0.000173538
3 *1222:A 0
4 *1196:B1 1.69531e-05
5 *1219:A 3.39029e-05
6 *1216:A 0.000172272
7 *1081:Y 0
8 *109:51 0.000651531
9 *109:32 0.000675767
10 *109:21 0.000264307
11 *109:8 0.000407133
12 *109:4 0.000383097
13 *1083:A *1083:C 0.000233753
14 *1083:A *1198:C 7.15503e-05
15 *1083:A *1223:S 6.05161e-06
16 *1083:A *110:55 3.69047e-06
17 *1083:A *240:29 0.000189729
18 *1083:A *258:46 0.000226272
19 *1083:A *311:12 3.32091e-05
20 *1196:B1 *1189:A2 5.33005e-05
21 *1196:B1 *1196:A3 5.33005e-05
22 *1213:A *184:51 0.000182806
23 *1216:A *1203:B 5.30637e-06
24 *1216:A *184:26 0.000100165
25 *1216:A *193:40 2.22419e-05
26 *1216:A *193:52 0.000373696
27 *1216:A *250:28 0.00023961
28 *1219:A *322:32 2.59355e-05
29 *109:8 *1207:B 5.33005e-05
30 *109:8 *184:51 0.000110622
31 *109:21 *1210:C 6.94399e-05
32 *109:21 *193:40 7.74135e-05
33 *109:21 *250:28 0.000137695
34 *109:32 *1192:A 6.8646e-06
35 *109:32 *1196:A1 7.15591e-05
36 *109:32 *1210:C 0.00036438
37 *109:32 *250:28 0.000540534
38 *109:32 *334:78 6.8646e-06
39 *109:51 *1084:B2 7.15962e-05
40 *109:51 *1196:A1 1.9964e-05
41 *109:51 *1222:D 2.59355e-05
42 *109:51 *110:55 8.70873e-05
43 *109:51 *184:96 0.00016344
44 *109:51 *250:28 0.000154548
45 *109:51 *334:78 0.000195334
*RES
1 *1081:Y *109:4 9.3 
2 *109:4 *109:8 7.08929 
3 *109:8 *1216:A 19.1393 
4 *109:8 *109:21 1.94643 
5 *109:21 *1219:A 14.3357 
6 *109:21 *109:32 7.10714 
7 *109:32 *1196:B1 14.3357 
8 *109:32 *109:51 15.1964 
9 *109:51 *1222:A 9.3 
10 *109:51 *1083:A 23.9786 
11 *109:4 *1213:A 13.05 
*END

*D_NET *110 0.00525073
*CONN
*I *1083:C I *D sky130_fd_sc_hd__nor3_1
*I *1222:B I *D sky130_fd_sc_hd__or4_1
*I *1192:B I *D sky130_fd_sc_hd__and3_1
*I *1196:A1 I *D sky130_fd_sc_hd__o31a_1
*I *1210:B I *D sky130_fd_sc_hd__or4_1
*I *1082:Y O *D sky130_fd_sc_hd__nand2_1
*CAP
1 *1083:C 0.000137748
2 *1222:B 0
3 *1192:B 4.46593e-05
4 *1196:A1 0.000323284
5 *1210:B 0.000244902
6 *1082:Y 0.000134387
7 *110:55 0.000731556
8 *110:14 0.000702609
9 *110:12 0.000179082
10 *110:10 0.000728195
11 *1083:C *1198:C 0.000139344
12 *1083:C *240:29 1.12578e-05
13 *1083:C *258:46 1.98839e-05
14 *1083:C *311:12 0.000144526
15 *1192:B *1062:A3 3.06878e-06
16 *1192:B *1192:C 2.51343e-06
17 *1196:A1 *1189:A1 0
18 *1196:A1 *1189:A2 2.95726e-05
19 *1196:A1 *1192:A 0.000100823
20 *1196:A1 *1196:A3 0.00015865
21 *1196:A1 *1210:C 5.66157e-05
22 *1210:B *1062:A3 3.06878e-06
23 *1210:B *1210:C 0.000137427
24 *110:10 *1192:C 7.6644e-05
25 *110:10 *1210:C 0
26 *110:10 *323:20 1.58163e-05
27 *110:10 *323:24 1.92789e-05
28 *110:14 *1062:A3 7.62368e-06
29 *110:14 *1192:A 3.05446e-05
30 *110:55 *1084:B2 9.25014e-06
31 *110:55 *1188:A 2.78497e-05
32 *110:55 *1192:A 3.93986e-05
33 *110:55 *1192:C 0.000108118
34 *110:55 *1320:A 0
35 *110:55 *185:10 0.000148196
36 *110:55 *250:28 0
37 *110:55 *333:14 0.000242657
38 *110:55 *334:78 7.61258e-05
39 *1083:A *1083:C 0.000233753
40 *1083:A *110:55 3.69047e-06
41 *109:32 *1196:A1 7.15591e-05
42 *109:51 *1196:A1 1.9964e-05
43 *109:51 *110:55 8.70873e-05
*RES
1 *1082:Y *110:10 15.7821 
2 *110:10 *110:12 4.5 
3 *110:12 *110:14 1.76786 
4 *110:14 *1210:B 12.3 
5 *110:14 *1196:A1 24.3 
6 *110:12 *1192:B 9.83571 
7 *110:10 *110:55 16.6786 
8 *110:55 *1222:B 9.3 
9 *110:55 *1083:C 22.1393 
*END

*D_NET *111 0.00165649
*CONN
*I *1084:B1 I *D sky130_fd_sc_hd__a22o_1
*I *1083:Y O *D sky130_fd_sc_hd__nor3_1
*CAP
1 *1084:B1 0.000289147
2 *1083:Y 0.000289147
3 *1084:B1 *1084:A1 3.09893e-05
4 *1084:B1 *112:80 1.12713e-05
5 *1084:B1 *240:29 0.000263512
6 *1084:B1 *335:43 0.000141885
7 *1083:B *1084:B1 0.000173015
8 *1084:A2 *1084:B1 0.000457525
*RES
1 *1083:Y *1084:B1 36.0464 
*END

*D_NET *112 0.0256801
*CONN
*I *1086:A I *D sky130_fd_sc_hd__inv_2
*I *1139:S I *D sky130_fd_sc_hd__mux2_1
*I *1135:S I *D sky130_fd_sc_hd__mux2_1
*I *1127:S I *D sky130_fd_sc_hd__mux2_1
*I *1141:S I *D sky130_fd_sc_hd__mux2_1
*I *1131:S I *D sky130_fd_sc_hd__mux2_1
*I *1137:S I *D sky130_fd_sc_hd__mux2_1
*I *1129:S I *D sky130_fd_sc_hd__mux2_1
*I *1133:S I *D sky130_fd_sc_hd__mux2_1
*I *1085:Y O *D sky130_fd_sc_hd__nand3_4
*CAP
1 *1086:A 0.000247376
2 *1139:S 0.000117256
3 *1135:S 0
4 *1127:S 0.000602863
5 *1141:S 3.64069e-05
6 *1131:S 9.56343e-05
7 *1137:S 0.000892232
8 *1129:S 0.000170592
9 *1133:S 0.000175266
10 *1085:Y 0
11 *112:103 0.00125103
12 *112:99 0.00172826
13 *112:86 0.00198598
14 *112:80 0.00166466
15 *112:33 0.00130858
16 *112:31 0.00104547
17 *112:16 0.00337975
18 *112:4 0.00293095
19 *1086:A *311:20 3.75959e-05
20 *1127:S *1127:A0 5.49489e-05
21 *1127:S *1127:A1 2.36643e-05
22 *1127:S *1136:A 3.47737e-05
23 *1127:S *1214:A1 0.000318107
24 *1127:S *1372:A 3.87848e-05
25 *1127:S *1373:A 0.000367788
26 *1127:S *1387:A 0.000301509
27 *1127:S *256:31 3.69697e-05
28 *1127:S *256:53 4.25619e-05
29 *1127:S *270:6 0.000182605
30 *1129:S *1129:A0 9.46571e-05
31 *1129:S *1389:A 0.000180554
32 *1131:S *1131:A0 8.25843e-06
33 *1131:S *1131:A1 4.63618e-05
34 *1133:S *1268:CLK 2.37e-05
35 *1133:S *231:31 7.57312e-05
36 *1137:S *1137:A0 5.62995e-05
37 *1137:S *1256:RESET_B 0.000338919
38 *1137:S *232:35 1.21289e-05
39 *1137:S *255:40 0.000784196
40 *1139:S *1140:A 5.33433e-05
41 *1139:S *256:102 0.000359997
42 *112:16 *1085:A 9.67754e-05
43 *112:16 *1085:B 7.65336e-06
44 *112:16 *1143:B 7.72292e-05
45 *112:16 *151:8 0.000170618
46 *112:16 *184:10 8.9163e-05
47 *112:16 *250:28 5.23566e-05
48 *112:16 *333:22 0.000370768
49 *112:16 *334:37 5.93363e-05
50 *112:16 *334:48 0.000101268
51 *112:16 *335:55 1.98839e-05
52 *112:31 *1277:CLK 3.60839e-05
53 *112:31 *1279:CLK 0.000142482
54 *112:31 *244:10 0.000135444
55 *112:33 *1389:A 0.000422361
56 *112:33 *244:10 1.00332e-05
57 *112:80 *1084:A1 0.000371047
58 *112:80 *1085:A 0.000101249
59 *112:80 *335:43 9.67754e-05
60 *112:86 *1302:CLK 0.000129867
61 *112:86 *311:20 9.34992e-05
62 *112:86 *335:43 3.54498e-05
63 *112:99 *1140:A 0
64 *112:99 *1220:A1 0
65 *112:99 *1261:CLK 0.000298273
66 *112:99 *1302:CLK 0.00013136
67 *112:99 *1341:A 0
68 *112:99 *236:25 0.000530771
69 *112:99 *236:27 7.22686e-05
70 *112:99 *236:51 2.59355e-05
71 *112:99 *257:44 1.50223e-05
72 *112:99 *282:10 0
73 *112:103 *1140:A 0
74 *112:103 *1220:A1 0
75 *112:103 *256:53 0
76 *112:103 *256:62 0
77 *112:103 *284:10 6.75007e-05
78 *1058:B_N *112:16 5.94433e-06
79 *1063:A2 *112:16 4.79321e-05
80 *1084:A2 *112:80 2.24718e-05
81 *1084:B1 *112:80 1.12713e-05
82 *1255:D *1127:S 6.74911e-05
83 *1268:D *1133:S 3.6692e-07
84 *1268:D *112:16 1.32418e-05
85 *1279:D *112:31 6.24558e-05
86 *1302:D *112:86 0.000347607
87 *26:16 *1086:A 4.85049e-06
88 *104:30 *112:16 9.15842e-06
89 *108:44 *112:86 0.000221058
*RES
1 *1085:Y *112:4 9.3 
2 *112:4 *112:16 45.0714 
3 *112:16 *1133:S 12.3357 
4 *112:16 *112:31 18.5893 
5 *112:31 *112:33 5.58929 
6 *112:33 *1129:S 17.6214 
7 *112:33 *1137:S 29.6929 
8 *112:31 *1131:S 15.6036 
9 *112:4 *112:80 11.3393 
10 *112:80 *112:86 18.6786 
11 *112:86 *1141:S 10.0321 
12 *112:86 *112:99 23.1429 
13 *112:99 *112:103 16.4643 
14 *112:103 *1127:S 33.8357 
15 *112:103 *1135:S 9.3 
16 *112:99 *1139:S 17.2107 
17 *112:80 *1086:A 18.1571 
*END

*D_NET *113 0.00119402
*CONN
*I *1089:A1 I *D sky130_fd_sc_hd__o21ai_1
*I *1087:Y O *D sky130_fd_sc_hd__inv_2
*CAP
1 *1089:A1 0.000493302
2 *1087:Y 0.000493302
3 *1089:A1 *1087:A 3.18676e-05
4 *1089:A1 *1095:C 1.69115e-05
5 *1089:A1 *359:19 0
6 *1089:A1 *361:12 0.000127229
7 *1089:A1 *361:23 3.14048e-05
*RES
1 *1087:Y *1089:A1 34.2964 
*END

*D_NET *114 0.0139298
*CONN
*I *1089:B1 I *D sky130_fd_sc_hd__o21ai_1
*I *1250:S I *D sky130_fd_sc_hd__mux2_1
*I *1248:S I *D sky130_fd_sc_hd__mux2_1
*I *1246:S I *D sky130_fd_sc_hd__mux2_1
*I *1238:S I *D sky130_fd_sc_hd__mux2_1
*I *1244:S I *D sky130_fd_sc_hd__mux2_1
*I *1242:S I *D sky130_fd_sc_hd__mux2_1
*I *1240:S I *D sky130_fd_sc_hd__mux2_1
*I *1252:S I *D sky130_fd_sc_hd__mux2_1
*I *1225:A I *D sky130_fd_sc_hd__inv_2
*I *1088:Y O *D sky130_fd_sc_hd__nand2_4
*CAP
1 *1089:B1 0.000482534
2 *1250:S 0
3 *1248:S 2.22847e-05
4 *1246:S 0.000260939
5 *1238:S 0
6 *1244:S 0.000215314
7 *1242:S 2.39345e-05
8 *1240:S 0.000337238
9 *1252:S 0.000223259
10 *1225:A 0
11 *1088:Y 5.93748e-05
12 *114:71 0.000734777
13 *114:65 0.000732058
14 *114:63 0.000848126
15 *114:59 0.000846455
16 *114:44 0.000920117
17 *114:40 0.000394574
18 *114:25 0.00121432
19 *114:12 0.00120926
20 *114:6 0.00104532
21 *1089:B1 *1068:A 0
22 *1089:B1 *1088:A 5.72433e-05
23 *1089:B1 *1311:SET_B 0
24 *1089:B1 *359:19 0.00018652
25 *1240:S *263:56 0
26 *1242:S *1244:A0 3.18676e-05
27 *1244:S *1244:A0 0.000264212
28 *1244:S *1244:A1 2.27416e-05
29 *1244:S *1245:A 5.33433e-05
30 *1246:S *1246:A1 1.21258e-05
31 *1246:S *234:62 0.000347835
32 *1252:S *1252:A1 0.000182799
33 *1252:S *1340:A 9.15842e-06
34 *1252:S *311:20 7.80059e-05
35 *114:12 *1088:A 9.90431e-05
36 *114:12 *1227:A1 1.24368e-05
37 *114:12 *1227:A2 5.33005e-05
38 *114:12 *312:8 0
39 *114:25 *1092:A2 0
40 *114:25 *1227:A1 1.44719e-05
41 *114:25 *1347:A 0
42 *114:25 *252:12 0
43 *114:25 *252:14 0.000117621
44 *114:25 *252:23 0.000535051
45 *114:40 *1250:A0 0.000371822
46 *114:44 *1250:A1 1.90223e-05
47 *114:59 *1248:A1 7.85696e-05
48 *114:63 *1248:A0 2.62426e-05
49 *114:63 *1248:A1 5.45307e-05
50 *114:63 *1249:A 7.62237e-05
51 *114:65 *1238:A1 0.000315812
52 *114:71 *1242:A1 9.96238e-05
53 *114:71 *1303:RESET_B 0.000540931
54 *114:71 *233:97 0
55 *114:71 *234:23 0
56 data_ready *114:25 0.000175502
57 *1069:A2 *1089:B1 7.74135e-05
58 *1254:D *1240:S 9.586e-05
59 *1254:D *114:44 7.63766e-05
60 *1307:D *1246:S 0
61 *1310:D *1240:S 0.000152168
62 *1313:D *1089:B1 3.18676e-05
63 *1385:A *114:6 5.41609e-05
64 *1385:A *114:12 7.48301e-06
65 *99:79 *1089:B1 2.85234e-05
*RES
1 *1088:Y *114:6 10.6571 
2 *114:6 *114:12 8.375 
3 *114:12 *1225:A 9.3 
4 *114:12 *114:25 19.8929 
5 *114:25 *1252:S 18.425 
6 *114:25 *114:40 11.1964 
7 *114:40 *114:44 7.35714 
8 *114:44 *1240:S 20.9071 
9 *114:44 *114:59 12.0357 
10 *114:59 *114:63 5.6875 
11 *114:63 *114:65 5.25893 
12 *114:65 *114:71 20.9643 
13 *114:71 *1242:S 9.83571 
14 *114:71 *1244:S 14.7643 
15 *114:65 *1238:S 9.3 
16 *114:63 *1246:S 24.2732 
17 *114:59 *1248:S 9.72857 
18 *114:40 *1250:S 9.3 
19 *114:6 *1089:B1 28.3714 
*END

*D_NET *115 0.00225105
*CONN
*I *1091:B I *D sky130_fd_sc_hd__or2_1
*I *1090:X O *D sky130_fd_sc_hd__mux4_1
*CAP
1 *1091:B 0.000758916
2 *1090:X 0.000758916
3 *1091:B *1091:A 5.49544e-05
4 *1091:B *1237:B 1.74352e-05
5 *1091:B *1296:CLK 0
6 *1091:B *1296:RESET_B 9.58126e-05
7 *1091:B *262:54 5.47047e-05
8 *1091:B *348:67 7.6997e-05
9 *1091:B *349:32 5.03772e-05
10 *1091:B *350:8 8.25843e-06
11 *1091:B *350:12 2.05695e-05
12 *1237:A *1091:B 0.000212274
13 *1296:D *1091:B 0.00014183
*RES
1 *1090:X *1091:B 41.2607 
*END

*D_NET *116 0.00101813
*CONN
*I *1094:A2 I *D sky130_fd_sc_hd__a311o_1
*I *1091:X O *D sky130_fd_sc_hd__or2_1
*CAP
1 *1094:A2 0.00019135
2 *1091:X 0.00019135
3 *1094:A2 *1094:A3 0.000227539
4 *1094:A2 *1094:C1 0
5 *1094:A2 *1229:A_N 0.000116237
6 *1094:A2 *1229:B 0.000272371
7 *1094:A2 *262:54 1.92789e-05
*RES
1 *1091:X *1094:A2 24.0821 
*END

*D_NET *117 0.00164359
*CONN
*I *1093:A I *D sky130_fd_sc_hd__or2b_1
*I *1092:X O *D sky130_fd_sc_hd__mux4_1
*CAP
1 *1093:A 0.000733427
2 *1092:X 0.000733427
3 *1093:A *1310:RESET_B 7.1709e-05
4 *1093:A *263:40 2.49484e-05
5 *1093:A *358:8 8.00806e-05
*RES
1 *1092:X *1093:A 37.3857 
*END

*D_NET *118 0.00131591
*CONN
*I *1094:A3 I *D sky130_fd_sc_hd__a311o_1
*I *1093:X O *D sky130_fd_sc_hd__or2b_1
*CAP
1 *1094:A3 0.000429457
2 *1093:X 0.000429457
3 *1094:A3 *1229:A_N 0.000229456
4 *1079:B1_N *1094:A3 0
5 *1094:A2 *1094:A3 0.000227539
6 *99:47 *1094:A3 0
*RES
1 *1093:X *1094:A3 34.725 
*END

*D_NET *119 0.00616578
*CONN
*I *1121:B1 I *D sky130_fd_sc_hd__a211o_1
*I *1369:A I *D sky130_fd_sc_hd__dlygate4sd3_1
*I *1097:B I *D sky130_fd_sc_hd__nor2_1
*I *1119:A I *D sky130_fd_sc_hd__nor2_1
*I *1108:A I *D sky130_fd_sc_hd__or2_1
*I *1104:A_N I *D sky130_fd_sc_hd__and3b_1
*I *1095:Y O *D sky130_fd_sc_hd__nor3_2
*CAP
1 *1121:B1 0.000116784
2 *1369:A 0.000212224
3 *1097:B 0
4 *1119:A 0.00010038
5 *1108:A 0.000129158
6 *1104:A_N 0.000435287
7 *1095:Y 0.000379177
8 *119:20 0.0007182
9 *119:18 0.000773501
10 *119:14 0.000573921
11 *119:12 0.000382429
12 *119:10 0.000611612
13 *1104:A_N *1107:A 5.52238e-05
14 *1104:A_N *1107:B 0.000127028
15 *1104:A_N *1107:C 5.52302e-05
16 *1104:A_N *1107:D 1.56e-05
17 *1108:A *1064:C 5.52302e-05
18 *1108:A *128:8 0
19 *1108:A *128:14 0
20 *1108:A *128:34 5.71472e-05
21 *1119:A *1119:B 0
22 *1121:B1 *1121:A1 5.38444e-06
23 *1121:B1 *1121:A2 8.29398e-06
24 *1369:A *260:103 0.00026261
25 *119:10 *1072:A1 0
26 *119:10 *238:49 0
27 *119:10 *238:60 0
28 *119:12 *1285:RESET_B 5.66157e-05
29 *119:12 *238:49 0
30 *119:14 *1285:RESET_B 0.000202835
31 *119:18 *1285:RESET_B 0.000144719
32 *119:18 *120:16 0
33 *1097:A *119:12 9.9784e-05
34 *1097:A *119:14 0.000103993
35 *1097:A *119:18 5.80706e-06
36 *1121:C1 *1121:B1 0.000190333
37 *1346:A *1121:B1 0.000193361
38 *96:14 *1108:A 7.99046e-05
39 *96:14 *119:18 0
40 *99:114 *1121:B1 1.40034e-05
*RES
1 *1095:Y *119:10 19.5321 
2 *119:10 *119:12 2.55357 
3 *119:12 *119:14 2.55357 
4 *119:14 *119:18 14.0357 
5 *119:18 *119:20 2.58929 
6 *119:20 *1104:A_N 17.2286 
7 *119:20 *1108:A 21.0857 
8 *119:18 *1119:A 11.0857 
9 *119:14 *1097:B 13.8 
10 *119:12 *1369:A 18.4429 
11 *119:10 *1121:B1 18.0679 
*END

*D_NET *120 0.00483342
*CONN
*I *1125:A I *D sky130_fd_sc_hd__and3_1
*I *1100:A I *D sky130_fd_sc_hd__and3_1
*I *1116:B I *D sky130_fd_sc_hd__and3b_1
*I *1112:A I *D sky130_fd_sc_hd__and3_1
*I *1097:Y O *D sky130_fd_sc_hd__nor2_1
*CAP
1 *1125:A 2.49663e-05
2 *1100:A 0.000429787
3 *1116:B 0.000122576
4 *1112:A 0.000242657
5 *1097:Y 9.44618e-05
6 *120:16 0.000841112
7 *120:10 0.0010748
8 *120:6 0.000288558
9 *1100:A *1066:A 5.84997e-05
10 *1100:A *1100:B 2.38501e-05
11 *1100:A *1100:C 4.77369e-05
12 *1100:A *1101:A 0.000141036
13 *1100:A *1102:A2 1.19813e-05
14 *1112:A *257:58 0.000186662
15 *1112:A *344:38 0
16 *1116:B *344:38 0.000185124
17 *1125:A *1292:CLK 6.05161e-06
18 *120:10 *1285:RESET_B 3.37842e-05
19 *120:10 *1290:CLK 0.000244721
20 *120:10 *238:38 8.91326e-05
21 *120:16 *1119:B 3.19595e-05
22 *120:16 *1290:CLK 0.00038943
23 *120:16 *344:38 0
24 *97:14 *1125:A 4.08637e-05
25 *97:14 *120:6 0.00022367
26 *119:18 *120:16 0
*RES
1 *1097:Y *120:6 11.4786 
2 *120:6 *120:10 8.875 
3 *120:10 *120:16 9.89286 
4 *120:16 *1112:A 18.425 
5 *120:16 *1116:B 15.5679 
6 *120:10 *1100:A 22.05 
7 *120:6 *1125:A 9.83571 
*END

*D_NET *121 0.00120761
*CONN
*I *1100:B I *D sky130_fd_sc_hd__and3_1
*I *1098:Y O *D sky130_fd_sc_hd__nand2_1
*CAP
1 *1100:B 0.000403898
2 *1098:Y 0.000403898
3 *1100:B *1066:A 0.000177591
4 *1100:B *1096:B 3.75959e-05
5 *1100:B *1104:B 5.66971e-05
6 *1100:B *339:23 0.000104082
7 *1100:A *1100:B 2.38501e-05
*RES
1 *1098:Y *1100:B 33.2786 
*END

*D_NET *122 0.000987794
*CONN
*I *1100:C I *D sky130_fd_sc_hd__and3_1
*I *1099:X O *D sky130_fd_sc_hd__or2_1
*CAP
1 *1100:C 0.000269694
2 *1099:X 0.000269694
3 *1100:C *1066:A 1.04766e-05
4 *1100:C *229:20 0.000170893
5 *1100:C *238:12 0.000170893
6 *1100:C *340:8 4.84073e-05
7 *1100:A *1100:C 4.77369e-05
*RES
1 *1099:X *1100:C 32.6536 
*END

*D_NET *123 0.000330343
*CONN
*I *1101:A I *D sky130_fd_sc_hd__clkbuf_1
*I *1100:X O *D sky130_fd_sc_hd__and3_1
*CAP
1 *1101:A 9.46538e-05
2 *1100:X 9.46538e-05
3 *1100:A *1101:A 0.000141036
*RES
1 *1100:X *1101:A 20.6893 
*END

*D_NET *124 0.00116903
*CONN
*I *1104:B I *D sky130_fd_sc_hd__and3b_1
*I *1102:X O *D sky130_fd_sc_hd__a21o_1
*CAP
1 *1104:B 0.000354695
2 *1102:X 0.000354695
3 *1104:B *1102:B1 0
4 *1104:B *339:10 0.000113832
5 *1104:B *339:23 0.000272344
6 *1104:B *339:59 1.67642e-05
7 *1100:B *1104:B 5.66971e-05
*RES
1 *1102:X *1104:B 35.5286 
*END

*D_NET *125 0.00147809
*CONN
*I *1104:C I *D sky130_fd_sc_hd__and3b_1
*I *1109:A2 I *D sky130_fd_sc_hd__a21oi_1
*I *1103:Y O *D sky130_fd_sc_hd__nand3_1
*CAP
1 *1104:C 5.41003e-05
2 *1109:A2 0.000362226
3 *1103:Y 0.000197101
4 *125:8 0.000613428
5 *1104:C *1103:B 2.56694e-05
6 *1109:A2 *1102:B1 0
7 *1109:A2 *1103:B 1.19309e-05
8 *125:8 *1103:B 0.000142856
9 *125:8 *341:6 1.74352e-05
10 *1287:D *1109:A2 5.33433e-05
*RES
1 *1103:Y *125:8 16.3893 
2 *125:8 *1109:A2 20.3893 
3 *125:8 *1104:C 14.8357 
*END

*D_NET *126 0.00108269
*CONN
*I *1105:A I *D sky130_fd_sc_hd__clkbuf_1
*I *1104:X O *D sky130_fd_sc_hd__and3b_1
*CAP
1 *1105:A 0.000468939
2 *1104:X 0.000468939
3 *1105:A *1286:RESET_B 4.52563e-05
4 *1105:A *260:14 3.69047e-06
5 *1105:A *339:6 2.1625e-05
6 *1284:D *1105:A 9.11048e-06
7 *1286:D *1105:A 6.51316e-05
*RES
1 *1104:X *1105:A 35.225 
*END

*D_NET *127 0.000889914
*CONN
*I *1109:A1 I *D sky130_fd_sc_hd__a21oi_1
*I *1106:Y O *D sky130_fd_sc_hd__inv_2
*CAP
1 *1109:A1 0.000337255
2 *1106:Y 0.000337255
3 *1109:A1 *1106:A 5.52238e-05
4 *1109:A1 *1109:B1 5.52238e-05
5 *1287:D *1109:A1 0.000104956
*RES
1 *1106:Y *1109:A1 24.4929 
*END

*D_NET *128 0.00419657
*CONN
*I *1118:D I *D sky130_fd_sc_hd__and4_2
*I *1115:A2 I *D sky130_fd_sc_hd__a21o_1
*I *1114:C I *D sky130_fd_sc_hd__and3_1
*I *1108:B I *D sky130_fd_sc_hd__or2_1
*I *1111:B I *D sky130_fd_sc_hd__or2_1
*I *1110:B I *D sky130_fd_sc_hd__nand2_1
*I *1107:X O *D sky130_fd_sc_hd__and4_1
*CAP
1 *1118:D 0
2 *1115:A2 0.000158876
3 *1114:C 4.31708e-05
4 *1108:B 0
5 *1111:B 2.96824e-05
6 *1110:B 2.06112e-05
7 *1107:X 5.2607e-05
8 *128:52 0.000284679
9 *128:41 0.000214799
10 *128:34 0.000158936
11 *128:14 0.000296383
12 *128:8 0.000411808
13 *1110:B *257:58 3.99614e-06
14 *1111:B *1111:A 5.52302e-05
15 *1111:B *1112:B 1.74352e-05
16 *1111:B *257:58 0.00014183
17 *1114:C *1064:C 1.04232e-05
18 *1115:A2 *1116:A_N 0.000151496
19 *1115:A2 *1116:C 5.68713e-05
20 *1115:A2 *1117:A 5.52238e-05
21 *1115:A2 *1118:A 9.00185e-05
22 *1115:A2 *1118:B 5.33005e-05
23 *1115:A2 *1120:A2 3.17148e-05
24 *1115:A2 *133:8 9.87617e-05
25 *1115:A2 *136:29 3.95807e-05
26 *1115:A2 *343:27 1.98839e-05
27 *1115:A2 *344:24 7.7591e-05
28 *128:8 *229:20 9.4724e-05
29 *128:14 *229:20 0.000389854
30 *128:14 *257:58 9.90431e-05
31 *128:14 *343:51 0
32 *128:34 *1064:C 0.000254445
33 *128:34 *1064:D 5.52238e-05
34 *128:34 *1109:B1 4.88546e-05
35 *128:34 *341:30 1.3701e-05
36 *128:34 *343:38 0.000145019
37 *128:41 *1064:C 7.77652e-05
38 *128:41 *343:38 9.31893e-05
39 *128:52 *133:8 0.000138716
40 *128:52 *136:29 9.99853e-05
41 *128:52 *343:27 2.95641e-05
42 *128:52 *343:38 2.44318e-05
43 *1108:A *128:8 0
44 *1108:A *128:14 0
45 *1108:A *128:34 5.71472e-05
46 *96:14 *128:8 0
*RES
1 *1107:X *128:8 15.1393 
2 *128:8 *128:14 10.4286 
3 *128:14 *1110:B 9.72857 
4 *128:14 *1111:B 10.6571 
5 *128:8 *128:34 9.16071 
6 *128:34 *1108:B 9.3 
7 *128:34 *128:41 1.76786 
8 *128:41 *1114:C 10.3357 
9 *128:41 *128:52 3.82143 
10 *128:52 *1115:A2 23.175 
11 *128:52 *1118:D 9.3 
*END

*D_NET *129 0.00141454
*CONN
*I *1109:B1 I *D sky130_fd_sc_hd__a21oi_1
*I *1108:X O *D sky130_fd_sc_hd__or2_1
*CAP
1 *1109:B1 0.000482276
2 *1108:X 0.000482276
3 *1109:B1 *1064:A_N 5.52302e-05
4 *1109:B1 *1064:D 2.28499e-05
5 *1109:B1 *341:30 1.98839e-05
6 *1109:B1 *342:10 9.25014e-06
7 *1109:B1 *342:19 0.000139653
8 *1109:B1 *343:38 9.90431e-05
9 *1109:A1 *1109:B1 5.52238e-05
10 *1287:D *1109:B1 0
11 *128:34 *1109:B1 4.88546e-05
*RES
1 *1108:X *1109:B1 34.725 
*END

*D_NET *130 0.000596544
*CONN
*I *1112:B I *D sky130_fd_sc_hd__and3_1
*I *1110:Y O *D sky130_fd_sc_hd__nand2_1
*CAP
1 *1112:B 0.000209872
2 *1110:Y 0.000209872
3 *1112:B *1111:A 8.07313e-05
4 *1112:B *1112:C 5.15476e-05
5 *1112:B *257:58 2.70868e-05
6 *1111:B *1112:B 1.74352e-05
*RES
1 *1110:Y *1112:B 22.85 
*END

*D_NET *131 0.000220347
*CONN
*I *1112:C I *D sky130_fd_sc_hd__and3_1
*I *1111:X O *D sky130_fd_sc_hd__or2_1
*CAP
1 *1112:C 1.96326e-05
2 *1111:X 1.96326e-05
3 *1112:C *257:58 0.000129534
4 *1112:B *1112:C 5.15476e-05
*RES
1 *1111:X *1112:C 19.8143 
*END

*D_NET *132 0.00054782
*CONN
*I *1113:A I *D sky130_fd_sc_hd__clkbuf_1
*I *1112:X O *D sky130_fd_sc_hd__and3_1
*CAP
1 *1113:A 0.000257029
2 *1112:X 0.000257029
3 *1288:D *1113:A 3.37618e-05
*RES
1 *1112:X *1113:A 32.3321 
*END

*D_NET *133 0.00249342
*CONN
*I *1120:A2 I *D sky130_fd_sc_hd__o21a_1
*I *1116:A_N I *D sky130_fd_sc_hd__and3b_1
*I *1114:X O *D sky130_fd_sc_hd__and3_1
*CAP
1 *1120:A2 0.0002991
2 *1116:A_N 0.00027608
3 *1114:X 6.85487e-05
4 *133:8 0.000643728
5 *1116:A_N *1116:C 0.000100262
6 *1116:A_N *1117:A 1.24368e-05
7 *1116:A_N *1289:CLK 0
8 *1116:A_N *344:38 0.000132832
9 *1120:A2 *1118:C 0
10 *1120:A2 *1120:A1 6.05161e-06
11 *1120:A2 *1120:B1 8.87698e-05
12 *1120:A2 *345:21 0
13 *133:8 *343:27 0.000355112
14 *1115:A2 *1116:A_N 0.000151496
15 *1115:A2 *1120:A2 3.17148e-05
16 *1115:A2 *133:8 9.87617e-05
17 *1290:D *1120:A2 8.98117e-05
18 *128:52 *133:8 0.000138716
*RES
1 *1114:X *133:8 17.2107 
2 *133:8 *1116:A_N 19.3 
3 *133:8 *1120:A2 19.0143 
*END

*D_NET *134 0.000700801
*CONN
*I *1116:C I *D sky130_fd_sc_hd__and3b_1
*I *1115:X O *D sky130_fd_sc_hd__a21o_1
*CAP
1 *1116:C 0.000136519
2 *1115:X 0.000136519
3 *1116:C *1117:A 3.34582e-05
4 *1116:C *343:25 9.63157e-05
5 *1116:C *344:18 8.59075e-05
6 *1116:C *344:24 5.49489e-05
7 *1115:A2 *1116:C 5.68713e-05
8 *1116:A_N *1116:C 0.000100262
*RES
1 *1115:X *1116:C 22.0107 
*END

*D_NET *135 0.00081829
*CONN
*I *1117:A I *D sky130_fd_sc_hd__clkbuf_1
*I *1116:X O *D sky130_fd_sc_hd__and3b_1
*CAP
1 *1117:A 0.00019384
2 *1116:X 0.00019384
3 *1117:A *344:18 0.000195717
4 *1117:A *344:24 5.33005e-05
5 *1117:A *344:38 8.04743e-05
6 *1115:A2 *1117:A 5.52238e-05
7 *1116:A_N *1117:A 1.24368e-05
8 *1116:C *1117:A 3.34582e-05
*RES
1 *1116:X *1117:A 23.2786 
*END

*D_NET *136 0.00538356
*CONN
*I *1122:A2 I *D sky130_fd_sc_hd__o21ba_1
*I *1121:A2 I *D sky130_fd_sc_hd__a211o_1
*I *1124:A2 I *D sky130_fd_sc_hd__a21o_1
*I *1123:C I *D sky130_fd_sc_hd__nand3_1
*I *1119:B I *D sky130_fd_sc_hd__nor2_1
*I *1118:X O *D sky130_fd_sc_hd__and4_2
*CAP
1 *1122:A2 7.61144e-05
2 *1121:A2 0.00015807
3 *1124:A2 0
4 *1123:C 0
5 *1119:B 0.000193658
6 *1118:X 0
7 *136:53 0.000318895
8 *136:42 0.000320641
9 *136:29 0.000735146
10 *136:4 0.000692874
11 *1119:B *1120:B1 3.56005e-05
12 *1121:A2 *1121:A1 1.76489e-05
13 *1121:A2 *1122:B1_N 7.8195e-05
14 *1121:A2 *346:35 0.00018187
15 *1122:A2 *1122:B1_N 8.46259e-06
16 *1122:A2 *1291:RESET_B 0.000224599
17 *1122:A2 *346:18 0.000186281
18 *136:29 *1065:B_N 0.000149966
19 *136:29 *1118:B 0.000141734
20 *136:29 *1118:C 0.000390178
21 *136:29 *1290:RESET_B 0.000347957
22 *136:29 *248:25 0
23 *136:29 *345:21 0.000270144
24 *136:42 *1124:B1 0
25 *136:42 *1290:RESET_B 0.000150321
26 *136:42 *260:121 5.9531e-05
27 *136:42 *346:54 0
28 *136:53 *1124:A1 0.000123359
29 *136:53 *1291:RESET_B 0.000143804
30 *136:53 *260:121 3.34295e-05
31 *136:53 *346:18 1.00332e-05
32 *136:53 *346:54 0
33 *1115:A2 *136:29 3.95807e-05
34 *1119:A *1119:B 0
35 *1121:B1 *1121:A2 8.29398e-06
36 *1292:D *136:42 0.000123359
37 *1346:A *1121:A2 3.18676e-05
38 *120:16 *1119:B 3.19595e-05
39 *128:52 *136:29 9.99853e-05
*RES
1 *1118:X *136:4 9.3 
2 *136:4 *1119:B 21.8536 
3 *136:4 *136:29 18.8036 
4 *136:29 *1123:C 13.8 
5 *136:29 *136:42 5.64286 
6 *136:42 *1124:A2 13.8 
7 *136:42 *136:53 2.78571 
8 *136:53 *1121:A2 18.0679 
9 *136:53 *1122:A2 16.6571 
*END

*D_NET *137 0.00119615
*CONN
*I *1120:B1 I *D sky130_fd_sc_hd__o21a_1
*I *1119:Y O *D sky130_fd_sc_hd__nor2_1
*CAP
1 *1120:B1 0.000489396
2 *1119:Y 0.000489396
3 *1120:B1 *1120:A1 5.52238e-05
4 *1119:B *1120:B1 3.56005e-05
5 *1120:A2 *1120:B1 8.87698e-05
6 *1290:D *1120:B1 3.77673e-05
*RES
1 *1119:Y *1120:B1 34.725 
*END

*D_NET *138 0.000519017
*CONN
*I *1122:B1_N I *D sky130_fd_sc_hd__o21ba_1
*I *1121:X O *D sky130_fd_sc_hd__a211o_1
*CAP
1 *1122:B1_N 0.000184952
2 *1121:X 0.000184952
3 *1122:B1_N *346:18 6.24558e-05
4 *1121:A2 *1122:B1_N 7.8195e-05
5 *1122:A2 *1122:B1_N 8.46259e-06
6 *1346:A *1122:B1_N 0
*RES
1 *1121:X *1122:B1_N 30.9036 
*END

*D_NET *139 0.0013037
*CONN
*I *1125:B I *D sky130_fd_sc_hd__and3_1
*I *1123:Y O *D sky130_fd_sc_hd__nand3_1
*CAP
1 *1125:B 0.000425494
2 *1123:Y 0.000425494
3 *1125:B *1065:B_N 8.71725e-05
4 *1125:B *1124:B1 5.49544e-05
5 *1125:B *1290:CLK 2.38651e-06
6 *1125:B *1292:CLK 5.49489e-05
7 *1125:B *238:38 3.97863e-05
8 *1125:B *238:49 1.00477e-05
9 *1125:B *346:54 2.58081e-05
10 *1125:B *347:12 0.000143375
11 *97:14 *1125:B 3.42301e-05
*RES
1 *1123:Y *1125:B 34.225 
*END

*D_NET *140 0.000827181
*CONN
*I *1125:C I *D sky130_fd_sc_hd__and3_1
*I *1124:X O *D sky130_fd_sc_hd__a21o_1
*CAP
1 *1125:C 0.000215971
2 *1124:X 0.000215971
3 *1125:C *1124:B1 0.000175519
4 *1125:C *1126:A 2.33546e-05
5 *1125:C *1292:CLK 6.61951e-05
6 *1292:D *1125:C 6.05161e-06
7 *97:14 *1125:C 0.000124118
*RES
1 *1124:X *1125:C 32.2964 
*END

*D_NET *141 0.001337
*CONN
*I *1126:A I *D sky130_fd_sc_hd__clkbuf_1
*I *1125:X O *D sky130_fd_sc_hd__and3_1
*CAP
1 *1126:A 0.000494621
2 *1125:X 0.000494621
3 *1126:A *1292:CLK 3.08664e-05
4 *1126:A *249:31 0
5 *1126:A *260:121 0.000153047
6 *1125:C *1126:A 2.33546e-05
7 *1292:D *1126:A 0.000140488
*RES
1 *1125:X *1126:A 34.6 
*END

*D_NET *142 0.00143214
*CONN
*I *1373:A I *D sky130_fd_sc_hd__dlygate4sd3_1
*I *1127:X O *D sky130_fd_sc_hd__mux2_1
*CAP
1 *1373:A 0.000384694
2 *1127:X 0.000384694
3 *1373:A *1128:A 5.62995e-05
4 *1373:A *1387:A 0.00018152
5 *1127:S *1373:A 0.000367788
6 *1255:D *1373:A 5.71472e-05
*RES
1 *1127:X *1373:A 26.9571 
*END

*D_NET *143 0.000126601
*CONN
*I *1351:A I *D sky130_fd_sc_hd__dlygate4sd3_1
*I *1129:X O *D sky130_fd_sc_hd__mux2_1
*CAP
1 *1351:A 4.73665e-05
2 *1129:X 4.73665e-05
3 *1351:A *1388:A 3.18676e-05
*RES
1 *1129:X *1351:A 19.5643 
*END

*D_NET *144 0.000911746
*CONN
*I *1349:A I *D sky130_fd_sc_hd__dlygate4sd3_1
*I *1131:X O *D sky130_fd_sc_hd__mux2_1
*CAP
1 *1349:A 0.000313007
2 *1131:X 0.000313007
3 *1349:A *1132:A 0.000267893
4 *1349:A *1258:RESET_B 1.78393e-05
*RES
1 *1131:X *1349:A 33.85 
*END

*D_NET *145 0.000677036
*CONN
*I *1358:A I *D sky130_fd_sc_hd__dlygate4sd3_1
*I *1133:X O *D sky130_fd_sc_hd__mux2_1
*CAP
1 *1358:A 0.000193453
2 *1133:X 0.000193453
3 *1358:A *1134:A 0
4 *1358:A *1390:A 9.22948e-05
5 *1358:A *231:31 0.000188586
6 *1358:A *245:14 9.25014e-06
7 *1268:D *1358:A 0
*RES
1 *1133:X *1358:A 31.0107 
*END

*D_NET *146 0.000445605
*CONN
*I *1344:A I *D sky130_fd_sc_hd__dlygate4sd3_1
*I *1135:X O *D sky130_fd_sc_hd__mux2_1
*CAP
1 *1344:A 0.000171666
2 *1135:X 0.000171666
3 *1344:A *1135:A1 7.95313e-05
4 *1344:A *1136:A 2.27416e-05
*RES
1 *1135:X *1344:A 22.0286 
*END

*D_NET *147 0.00100074
*CONN
*I *1339:A I *D sky130_fd_sc_hd__dlygate4sd3_1
*I *1137:X O *D sky130_fd_sc_hd__mux2_1
*CAP
1 *1339:A 0.000343216
2 *1137:X 0.000343216
3 *1339:A *1392:A 0
4 *1339:A *232:27 0
5 *1339:A *232:35 0.000188586
6 *1339:A *255:40 0.000125724
7 *1339:A *255:83 0
*RES
1 *1137:X *1339:A 33.4393 
*END

*D_NET *148 0.00149362
*CONN
*I *1140:A I *D sky130_fd_sc_hd__clkbuf_1
*I *1139:X O *D sky130_fd_sc_hd__mux2_1
*CAP
1 *1140:A 0.000579049
2 *1139:X 0.000579049
3 *1140:A *1261:CLK 4.01501e-05
4 *1140:A *1282:RESET_B 2.89114e-05
5 *1140:A *236:25 2.00751e-05
6 *1140:A *256:62 0
7 *1140:A *256:102 4.51526e-05
8 *1139:S *1140:A 5.33433e-05
9 *1261:D *1140:A 0.00014789
10 *112:99 *1140:A 0
11 *112:103 *1140:A 0
*RES
1 *1139:X *1140:A 38.2071 
*END

*D_NET *149 0.000666851
*CONN
*I *1142:A I *D sky130_fd_sc_hd__clkbuf_1
*I *1141:X O *D sky130_fd_sc_hd__mux2_1
*CAP
1 *1142:A 0.000179693
2 *1141:X 0.000179693
3 *1142:A *257:44 0.000207817
4 *1262:D *1142:A 9.96487e-05
*RES
1 *1141:X *1142:A 31.9393 
*END

*D_NET *150 0.000478593
*CONN
*I *1144:A I *D sky130_fd_sc_hd__buf_2
*I *1143:X O *D sky130_fd_sc_hd__or3_1
*CAP
1 *1144:A 8.13181e-05
2 *1143:X 8.13181e-05
3 *1144:A *1060:A1 5.50052e-05
4 *1144:A *250:28 0.000146261
5 *1144:A *336:12 5.33005e-05
6 *1144:A *336:38 6.13903e-05
*RES
1 *1143:X *1144:A 30.0821 
*END

*D_NET *151 0.0138796
*CONN
*I *1161:A1 I *D sky130_fd_sc_hd__a21oi_1
*I *1155:A I *D sky130_fd_sc_hd__nand2_1
*I *1157:A2 I *D sky130_fd_sc_hd__o211a_1
*I *1156:A3 I *D sky130_fd_sc_hd__a31o_1
*I *1146:A2 I *D sky130_fd_sc_hd__a21oi_1
*I *1147:A0 I *D sky130_fd_sc_hd__mux2_1
*I *1173:A I *D sky130_fd_sc_hd__nand2_1
*I *1159:B1 I *D sky130_fd_sc_hd__o31a_1
*I *1145:A2 I *D sky130_fd_sc_hd__o21ba_1
*I *1144:X O *D sky130_fd_sc_hd__buf_2
*CAP
1 *1161:A1 0
2 *1155:A 0
3 *1157:A2 4.59923e-05
4 *1156:A3 7.11913e-05
5 *1146:A2 0
6 *1147:A0 4.64027e-05
7 *1173:A 0.000803882
8 *1159:B1 0.000118675
9 *1145:A2 0.000201358
10 *1144:X 0.00012901
11 *151:93 0.000317104
12 *151:89 0.000324742
13 *151:60 0.00175192
14 *151:43 0.00102031
15 *151:41 0.000387457
16 *151:33 0.000623884
17 *151:29 0.000589161
18 *151:8 0.000807923
19 *1145:A2 *1074:B_N 0.000312898
20 *1145:A2 *333:54 3.73546e-05
21 *1145:A2 *338:38 0.000112178
22 *1147:A0 *1147:S 1.19813e-05
23 *1156:A3 *1156:A2 3.50746e-05
24 *1156:A3 *1156:B1 2.70242e-05
25 *1156:A3 *1157:B1 5.49489e-05
26 *1156:A3 *1157:C1 5.97532e-05
27 *1156:A3 *314:49 2.84109e-05
28 *1156:A3 *315:10 0.000268762
29 *1157:A2 *1157:B1 1.46689e-05
30 *1159:B1 *1052:A 0
31 *1159:B1 *1153:A3 0.000166419
32 *1159:B1 *316:18 2.89114e-05
33 *1173:A *1166:A2 6.44965e-05
34 *1173:A *1170:A 5.66971e-05
35 *1173:A *1170:B 2.85321e-05
36 *1173:A *1172:A 0.000100831
37 *1173:A *1178:A2_N 6.95699e-05
38 *1173:A *174:19 0.000137269
39 *1173:A *174:21 5.54817e-06
40 *1173:A *174:68 0.000131247
41 *1173:A *338:10 0.000382314
42 *151:8 *250:28 0.000155832
43 *151:29 *1161:A2 2.12005e-05
44 *151:29 *1161:B1 5.52238e-05
45 *151:29 *1240:A0 1.00375e-05
46 *151:29 *1370:A 0.000128154
47 *151:29 *250:28 0.000458422
48 *151:33 *1161:A2 3.08664e-05
49 *151:41 *1146:B1 0.000170955
50 *151:41 *1162:A3 0.000361171
51 *151:41 *1163:D 0
52 *151:41 *153:8 0.000136958
53 *151:41 *316:8 0.000378802
54 *151:60 *1147:S 0.000404439
55 *151:60 *1153:A3 0.000375697
56 *151:60 *1153:B1 0
57 *151:60 *234:10 3.54498e-05
58 *151:60 *313:25 0.000297383
59 *151:89 *1163:A 0
60 *151:93 *1157:B1 4.79773e-05
61 *151:93 *314:16 0
62 *1075:A *151:29 0.000128154
63 *1146:A1 *151:41 2.61099e-05
64 *1153:A2 *1156:A3 7.92229e-06
65 *1159:A2 *1159:B1 1.33343e-05
66 *89:6 *1159:B1 5.71472e-05
67 *104:10 *1145:A2 0.000311206
68 *104:30 *151:8 7.36697e-05
69 *104:30 *151:29 3.46701e-05
70 *104:64 *151:29 0.000176096
71 *104:81 *151:29 0.000438248
72 *104:81 *151:89 0
73 *104:81 *151:93 0
74 *112:16 *151:8 0.000170618
*RES
1 *1144:X *151:8 17.8714 
2 *151:8 *1145:A2 20.1214 
3 *151:8 *151:29 19.6786 
4 *151:29 *151:33 6.26786 
5 *151:33 *151:41 15.7143 
6 *151:41 *151:43 4.5 
7 *151:43 *1159:B1 16.5857 
8 *151:43 *151:60 19.2321 
9 *151:60 *1173:A 36.7107 
10 *151:60 *1147:A0 10.3357 
11 *151:41 *1146:A2 9.3 
12 *151:33 *151:89 1.94643 
13 *151:89 *151:93 3.19643 
14 *151:93 *1156:A3 16.8179 
15 *151:93 *1157:A2 14.5321 
16 *151:89 *1155:A 13.8 
17 *151:29 *1161:A1 9.3 
*END

*D_NET *152 0.00200906
*CONN
*I *1146:B1 I *D sky130_fd_sc_hd__a21oi_1
*I *1160:A I *D sky130_fd_sc_hd__or2_1
*I *1145:X O *D sky130_fd_sc_hd__o21ba_1
*CAP
1 *1146:B1 0.000219165
2 *1160:A 2.76557e-05
3 *1145:X 0.000243121
4 *152:8 0.000489943
5 *1146:B1 *1162:A3 1.1594e-05
6 *1146:B1 *164:8 0.000113778
7 *152:8 *1158:A2 0
8 *152:8 *164:8 3.34295e-05
9 *152:8 *335:89 4.1331e-06
10 *152:8 *335:106 0.00013662
11 *1146:A1 *1146:B1 0.0001399
12 *1146:A1 *152:8 0
13 *84:14 *1146:B1 0
14 *84:18 *152:8 0
15 *91:43 *152:8 0.000389861
16 *103:50 *1160:A 2.89016e-05
17 *151:41 *1146:B1 0.000170955
*RES
1 *1145:X *152:8 20.6036 
2 *152:8 *1160:A 14.3357 
3 *152:8 *1146:B1 18.7464 
*END

*D_NET *153 0.00604688
*CONN
*I *1147:A1 I *D sky130_fd_sc_hd__mux2_1
*I *1166:B1 I *D sky130_fd_sc_hd__a32o_1
*I *1181:B1 I *D sky130_fd_sc_hd__a32o_1
*I *1146:Y O *D sky130_fd_sc_hd__a21oi_1
*CAP
1 *1147:A1 0.000172562
2 *1166:B1 7.62888e-06
3 *1181:B1 0.000913438
4 *1146:Y 0.000538428
5 *153:29 0.000245636
6 *153:8 0.00151731
7 *1147:A1 *1166:B2 2.07809e-05
8 *1147:A1 *317:30 0.000147306
9 *1147:A1 *338:10 0.000349376
10 *1166:B1 *1166:A1 2.39852e-05
11 *1166:B1 *1318:A 2.39852e-05
12 *1181:B1 *1178:B1 0.000214984
13 *1181:B1 *1179:B1 0.000129023
14 *1181:B1 *1180:C 1.51489e-05
15 *1181:B1 *1181:A1 1.19021e-05
16 *1181:B1 *1181:A2 3.3254e-05
17 *1181:B1 *174:17 5.33005e-05
18 *1181:B1 *317:36 3.34687e-05
19 *1181:B1 *317:38 0.000103032
20 *1181:B1 *319:32 6.32633e-05
21 *1181:B1 *320:8 0.000140088
22 *1181:B1 *320:18 3.13656e-05
23 *1181:B1 *320:83 0.000164859
24 *1181:B1 *338:10 0.000481292
25 *153:8 *1175:A 2.14658e-05
26 *153:8 *1178:A1_N 0.000139913
27 *153:8 *316:8 5.52302e-05
28 *153:29 *317:30 4.29471e-05
29 *153:29 *317:36 5.03909e-05
30 *153:29 *338:10 0.000164554
31 *151:41 *153:8 0.000136958
*RES
1 *1146:Y *153:8 22.55 
2 *153:8 *1181:B1 38.4875 
3 *153:8 *153:29 2.25 
4 *153:29 *1166:B1 14.0411 
5 *153:29 *1147:A1 18.4786 
*END

*D_NET *154 0.000134789
*CONN
*I *1148:A I *D sky130_fd_sc_hd__clkbuf_1
*I *1147:X O *D sky130_fd_sc_hd__mux2_1
*CAP
1 *1148:A 6.73946e-05
2 *1147:X 6.73946e-05
*RES
1 *1147:X *1148:A 19.8679 
*END

*D_NET *155 0.00667165
*CONN
*I *1158:A2 I *D sky130_fd_sc_hd__o21bai_1
*I *1151:A2 I *D sky130_fd_sc_hd__a21o_1
*I *1150:B I *D sky130_fd_sc_hd__nor2_1
*I *1168:A2 I *D sky130_fd_sc_hd__a21o_1
*I *1177:A2 I *D sky130_fd_sc_hd__o22a_1
*I *1149:X O *D sky130_fd_sc_hd__or2_2
*CAP
1 *1158:A2 0.000327334
2 *1151:A2 0
3 *1150:B 1.83187e-05
4 *1168:A2 0.000322254
5 *1177:A2 0.000543396
6 *1149:X 0.00040426
7 *155:39 0.000413578
8 *155:35 9.2991e-05
9 *155:18 0.00106663
10 *155:10 0.00123484
11 *1150:B *156:8 1.84865e-05
12 *1150:B *338:27 2.85321e-05
13 *1158:A2 *1162:A2 5.20751e-05
14 *1168:A2 *1184:A3 0.000163931
15 *1177:A2 *1052:A 0.000106488
16 *1177:A2 *1055:B 0.000185643
17 *155:10 *1085:C 6.11331e-05
18 *155:10 *335:55 8.02652e-05
19 *155:39 *1153:A3 0.000150625
20 *155:39 *1184:A3 7.20671e-05
21 *1151:A1 *1177:A2 2.14658e-05
22 *1151:A1 *155:35 1.04232e-05
23 *1151:B1 *1177:A2 5.33005e-05
24 *1159:A3 *1177:A2 0.000140368
25 *1184:A2 *1168:A2 5.11174e-05
26 *1186:A3 *1168:A2 1.00887e-05
27 *84:33 *1168:A2 0.000129379
28 *84:33 *155:39 0.000119035
29 *86:27 *1168:A2 0.000134044
30 *89:6 *1177:A2 9.7659e-05
31 *90:10 *1177:A2 0.000150625
32 *103:50 *1158:A2 0.000141734
33 *104:30 *155:10 0.000172091
34 *108:44 *155:10 9.74665e-05
35 *152:8 *1158:A2 0
*RES
1 *1149:X *155:10 21.7018 
2 *155:10 *155:18 11.5982 
3 *155:18 *1177:A2 27.6571 
4 *155:18 *155:35 0.428571 
5 *155:35 *155:39 7.35714 
6 *155:39 *1168:A2 20.8268 
7 *155:39 *1150:B 14.3357 
8 *155:35 *1151:A2 9.3 
9 *155:10 *1158:A2 19.9875 
*END

*D_NET *156 0.00457768
*CONN
*I *1153:A3 I *D sky130_fd_sc_hd__a32o_1
*I *1184:A3 I *D sky130_fd_sc_hd__a32o_1
*I *1150:Y O *D sky130_fd_sc_hd__nor2_1
*CAP
1 *1153:A3 0.0007641
2 *1184:A3 0.000147661
3 *1150:Y 8.44521e-05
4 *156:8 0.000996212
5 *1153:A3 *1052:A 0
6 *1153:A3 *1163:B 2.11419e-05
7 *1153:A3 *1163:C 0.000140368
8 *1153:A3 *313:29 9.16818e-05
9 *1153:A3 *313:31 7.07976e-05
10 *1153:A3 *314:55 5.49995e-05
11 *1153:A3 *316:18 0.00019252
12 *1184:A3 *1184:A1 1.49628e-06
13 *156:8 *338:27 3.06878e-06
14 *1150:B *156:8 1.84865e-05
15 *1151:A1 *1153:A3 6.98302e-05
16 *1151:A1 *1184:A3 0.000251207
17 *1151:B1 *1153:A3 0.00012401
18 *1153:A2 *1153:A3 5.49995e-05
19 *1159:A3 *1153:A3 1.41029e-05
20 *1159:B1 *1153:A3 0.000166419
21 *1168:A2 *1184:A3 0.000163931
22 *1184:A2 *1184:A3 4.24939e-05
23 *84:14 *1153:A3 4.45502e-05
24 *84:16 *1153:A3 2.60251e-05
25 *84:33 *1153:A3 3.56119e-05
26 *89:14 *1153:A3 0.000148196
27 *90:10 *1153:A3 5.95282e-05
28 *103:50 *1153:A3 0.000191403
29 *151:60 *1153:A3 0.000375697
30 *155:39 *1153:A3 0.000150625
31 *155:39 *1184:A3 7.20671e-05
*RES
1 *1150:Y *156:8 14.7464 
2 *156:8 *1184:A3 18.4964 
3 *156:8 *1153:A3 32.9964 
*END

*D_NET *157 0.00657258
*CONN
*I *1153:B1 I *D sky130_fd_sc_hd__a32o_1
*I *1166:A1 I *D sky130_fd_sc_hd__a32o_1
*I *1181:A1 I *D sky130_fd_sc_hd__a32o_1
*I *1151:X O *D sky130_fd_sc_hd__a21o_1
*CAP
1 *1153:B1 0.000494951
2 *1166:A1 0.000119285
3 *1181:A1 0.000913277
4 *1151:X 0.000364366
5 *157:23 0.00105934
6 *157:6 0.00172275
7 *1153:B1 *1152:A 0.000248013
8 *1153:B1 *1153:B2 9.84673e-05
9 *1153:B1 *1318:A 7.43578e-06
10 *1153:B1 *166:8 0.000101149
11 *1153:B1 *313:12 3.45899e-05
12 *1153:B1 *313:25 7.95289e-05
13 *1166:A1 *1165:B 5.52302e-05
14 *1166:A1 *1166:A3 0.000242429
15 *1166:A1 *1318:A 0.000116738
16 *1181:A1 *1171:A 3.18747e-05
17 *1181:A1 *1179:A3 1.92789e-05
18 *1181:A1 *1181:A2 2.90642e-05
19 *1181:A1 *1181:A3 5.7661e-06
20 *1181:A1 *1181:B2 2.976e-05
21 *1181:A1 *1334:A 4.60235e-05
22 *1181:A1 *166:27 0.000153161
23 *1181:A1 *320:18 7.18552e-05
24 *157:23 *1052:A 0
25 *157:23 *1169:A2 3.17163e-05
26 *157:23 *166:12 0.000377908
27 *157:23 *316:18 0
28 *1166:B1 *1166:A1 2.39852e-05
29 *1177:A1 *157:23 8.2731e-05
30 *1181:B1 *1181:A1 1.19021e-05
31 *151:60 *1153:B1 0
*RES
1 *1151:X *157:6 13.5321 
2 *157:6 *1181:A1 21.1393 
3 *157:6 *157:23 19.5714 
4 *157:23 *1166:A1 12.7286 
5 *157:23 *1153:B1 28.5589 
*END

*D_NET *158 0.000230558
*CONN
*I *1153:B2 I *D sky130_fd_sc_hd__a32o_1
*I *1152:X O *D sky130_fd_sc_hd__xor2_1
*CAP
1 *1153:B2 1.68118e-05
2 *1152:X 1.68118e-05
3 *1153:B2 *313:25 9.84673e-05
4 *1153:B1 *1153:B2 9.84673e-05
*RES
1 *1152:X *1153:B2 19.5464 
*END

*D_NET *159 0.00263583
*CONN
*I *1155:B I *D sky130_fd_sc_hd__nand2_1
*I *1161:A2 I *D sky130_fd_sc_hd__a21oi_1
*I *1158:B1_N I *D sky130_fd_sc_hd__o21bai_1
*I *1154:X O *D sky130_fd_sc_hd__and3_1
*CAP
1 *1155:B 5.85059e-05
2 *1161:A2 8.46802e-05
3 *1158:B1_N 0.000426746
4 *1154:X 0.000227854
5 *159:10 0.000648633
6 *159:6 0.000423567
7 *1155:B *1301:CLK 0.000143375
8 *1158:B1_N *1162:A1 1.30594e-05
9 *1158:B1_N *1162:B1 0.000145317
10 *159:6 *1301:CLK 5.88534e-05
11 *159:10 *1162:A1 2.84019e-05
12 *103:50 *1158:B1_N 0.000226867
13 *104:81 *1158:B1_N 6.55399e-05
14 *104:81 *159:10 3.23634e-05
15 *151:29 *1161:A2 2.12005e-05
16 *151:33 *1161:A2 3.08664e-05
*RES
1 *1154:X *159:6 12.3 
2 *159:6 *159:10 6.75 
3 *159:10 *1158:B1_N 22.2821 
4 *159:10 *1161:A2 15.6036 
5 *159:6 *1155:B 11.3893 
*END

*D_NET *160 0.000642366
*CONN
*I *1157:B1 I *D sky130_fd_sc_hd__o211a_1
*I *1155:Y O *D sky130_fd_sc_hd__nand2_1
*CAP
1 *1157:B1 0.000189833
2 *1155:Y 0.000189833
3 *1157:B1 *1157:C1 1.8461e-05
4 *1157:B1 *1301:CLK 3.08664e-05
5 *1157:B1 *315:10 4.37451e-05
6 *1153:A2 *1157:B1 3.31014e-05
7 *1156:A3 *1157:B1 5.49489e-05
8 *1157:A1 *1157:B1 5.38444e-06
9 *1157:A2 *1157:B1 1.46689e-05
10 *104:81 *1157:B1 1.35465e-05
11 *151:93 *1157:B1 4.79773e-05
*RES
1 *1155:Y *1157:B1 31.5643 
*END

*D_NET *161 0.00015675
*CONN
*I *1157:C1 I *D sky130_fd_sc_hd__o211a_1
*I *1156:X O *D sky130_fd_sc_hd__a31o_1
*CAP
1 *1157:C1 2.38346e-05
2 *1156:X 2.38346e-05
3 *1157:C1 *1156:B1 3.08664e-05
4 *1156:A3 *1157:C1 5.97532e-05
5 *1157:B1 *1157:C1 1.8461e-05
*RES
1 *1156:X *1157:C1 19.5643 
*END

*D_NET *162 0.000534751
*CONN
*I *1162:A2 I *D sky130_fd_sc_hd__a31oi_1
*I *1158:Y O *D sky130_fd_sc_hd__o21bai_1
*CAP
1 *1162:A2 0.00022551
2 *1158:Y 0.00022551
3 *1162:A2 *1162:A3 2.78576e-05
4 *1162:A2 *164:8 0
5 *1162:A2 *316:8 3.79877e-06
6 *1158:A2 *1162:A2 5.20751e-05
*RES
1 *1158:Y *1162:A2 30.5286 
*END

*D_NET *163 8.41812e-05
*CONN
*I *1160:B I *D sky130_fd_sc_hd__or2_1
*I *1159:X O *D sky130_fd_sc_hd__o31a_1
*CAP
1 *1160:B 2.76349e-05
2 *1159:X 2.76349e-05
3 *103:50 *1160:B 2.89114e-05
*RES
1 *1159:X *1160:B 19.1357 
*END

*D_NET *164 0.00374892
*CONN
*I *1162:A3 I *D sky130_fd_sc_hd__a31oi_1
*I *1178:A2_N I *D sky130_fd_sc_hd__a2bb2o_1
*I *1160:X O *D sky130_fd_sc_hd__or2_1
*CAP
1 *1162:A3 0.000199934
2 *1178:A2_N 0.00126327
3 *1160:X 7.77316e-05
4 *164:8 0.00154094
5 *1162:A3 *316:8 1.59373e-05
6 *1178:A2_N *230:96 0
7 *1178:A2_N *338:10 3.37e-05
8 *1146:B1 *1162:A3 1.1594e-05
9 *1146:B1 *164:8 0.000113778
10 *1162:A2 *1162:A3 2.78576e-05
11 *1162:A2 *164:8 0
12 *1173:A *1178:A2_N 6.95699e-05
13 *151:41 *1162:A3 0.000361171
14 *152:8 *164:8 3.34295e-05
*RES
1 *1160:X *164:8 15.5946 
2 *164:8 *1178:A2_N 23.8571 
3 *164:8 *1162:A3 18.6304 
*END

*D_NET *165 0.000454328
*CONN
*I *1162:B1 I *D sky130_fd_sc_hd__a31oi_1
*I *1161:Y O *D sky130_fd_sc_hd__a21oi_1
*CAP
1 *1162:B1 9.21393e-05
2 *1161:Y 9.21393e-05
3 *1162:B1 *1162:A1 0.000117079
4 *1158:B1_N *1162:B1 0.000145317
5 *104:81 *1162:B1 7.65336e-06
*RES
1 *1161:Y *1162:B1 30.2071 
*END

*D_NET *166 0.00634751
*CONN
*I *1164:B I *D sky130_fd_sc_hd__or2_1
*I *1165:B I *D sky130_fd_sc_hd__nand2_1
*I *1171:B I *D sky130_fd_sc_hd__and2_1
*I *1179:A3 I *D sky130_fd_sc_hd__a31o_1
*I *1169:A2 I *D sky130_fd_sc_hd__a21o_1
*I *1163:X O *D sky130_fd_sc_hd__and4_1
*CAP
1 *1164:B 0.000133065
2 *1165:B 1.16062e-05
3 *1171:B 0
4 *1179:A3 0.000376173
5 *1169:A2 0.000302316
6 *1163:X 0.000388944
7 *166:27 0.00060575
8 *166:12 0.000868186
9 *166:10 0.000377171
10 *166:8 0.000551281
11 *1164:B *1166:B2 4.02364e-05
12 *1164:B *1318:A 3.75959e-05
13 *1164:B *317:17 3.49456e-06
14 *1164:B *317:30 0
15 *1165:B *1318:A 5.52302e-05
16 *1169:A2 *1051:A 4.27842e-06
17 *1169:A2 *1052:A 0
18 *1169:A2 *1052:C_N 6.41902e-05
19 *1169:A2 *1056:B 0
20 *1169:A2 *1182:D 6.69038e-05
21 *1169:A2 *1185:B1 7.74068e-05
22 *1169:A2 *317:38 0.000112208
23 *1169:A2 *317:40 0.000135254
24 *1169:A2 *318:30 3.67279e-06
25 *1169:A2 *318:47 6.26079e-05
26 *1179:A3 *1177:B1 0
27 *1179:A3 *1179:A2 2.84026e-05
28 *1179:A3 *1179:B1 0.000218446
29 *1179:A3 *174:19 0.000148903
30 *1179:A3 *174:68 0.000213635
31 *1179:A3 *319:106 2.94548e-05
32 *166:8 *1318:A 9.71197e-05
33 *166:10 *1166:B2 2.45046e-05
34 *166:10 *1318:A 1.49929e-05
35 *166:12 *1165:A 4.46689e-05
36 *166:12 *1178:B2 7.57673e-05
37 *166:12 *317:36 0.000213764
38 *166:12 *317:38 0.000192931
39 *166:27 *1172:A 2.89016e-05
40 *1153:B1 *166:8 0.000101149
41 *1166:A1 *1165:B 5.52302e-05
42 *1181:A1 *1179:A3 1.92789e-05
43 *1181:A1 *166:27 0.000153161
44 *157:23 *1169:A2 3.17163e-05
45 *157:23 *166:12 0.000377908
*RES
1 *1163:X *166:8 18.8536 
2 *166:8 *166:10 0.732143 
3 *166:10 *166:12 10.1429 
4 *166:12 *1169:A2 21.2107 
5 *166:12 *166:27 9.16071 
6 *166:27 *1179:A3 26.1393 
7 *166:27 *1171:B 9.3 
8 *166:10 *1165:B 14.3357 
9 *166:8 *1164:B 16.3357 
*END

*D_NET *167 0.000282702
*CONN
*I *1166:A2 I *D sky130_fd_sc_hd__a32o_1
*I *1164:X O *D sky130_fd_sc_hd__or2_1
*CAP
1 *1166:A2 4.60098e-05
2 *1164:X 4.60098e-05
3 *1166:A2 *338:10 0.000126186
4 *1173:A *1166:A2 6.44965e-05
*RES
1 *1164:X *1166:A2 29.2429 
*END

*D_NET *168 0.000666148
*CONN
*I *1166:A3 I *D sky130_fd_sc_hd__a32o_1
*I *1165:Y O *D sky130_fd_sc_hd__nand2_1
*CAP
1 *1166:A3 0.000195347
2 *1165:Y 0.000195347
3 *1166:A3 *1318:A 3.30237e-05
4 *1166:A1 *1166:A3 0.000242429
*RES
1 *1165:Y *1166:A3 22.3321 
*END

*D_NET *169 0.00249342
*CONN
*I *1174:A1 I *D sky130_fd_sc_hd__o211a_1
*I *1167:X O *D sky130_fd_sc_hd__and4b_1
*CAP
1 *1174:A1 0.000917559
2 *1167:X 0.000917559
3 *1174:A1 *1051:A 0.000117872
4 *1174:A1 *1167:C 3.46826e-05
5 *1174:A1 *1185:A1 1.00887e-05
6 *1174:A1 *258:77 2.46444e-05
7 *1174:A1 *318:14 0.000315812
8 *1053:C *1174:A1 5.50052e-05
9 *1184:A2 *1174:A1 9.58689e-05
10 *93:8 *1174:A1 4.3304e-06
*RES
1 *1167:X *1174:A1 40.0464 
*END

*D_NET *170 0.00172802
*CONN
*I *1174:A2 I *D sky130_fd_sc_hd__o211a_1
*I *1185:A1 I *D sky130_fd_sc_hd__a31o_1
*I *1168:X O *D sky130_fd_sc_hd__a21o_1
*CAP
1 *1174:A2 0
2 *1185:A1 0.000186918
3 *1168:X 0.000455764
4 *170:8 0.000642682
5 *1185:A1 *1174:C1 9.78526e-05
6 *170:8 *1169:A1 5.50052e-05
7 *170:8 *1169:B1 0.000115287
8 *170:8 *1174:B1 5.53449e-05
9 *170:8 *1174:C1 5.66971e-05
10 *170:8 *319:38 1.16543e-05
11 *170:8 *319:57 4.07297e-05
12 *1174:A1 *1185:A1 1.00887e-05
*RES
1 *1168:X *170:8 17.6571 
2 *170:8 *1185:A1 21.3893 
3 *170:8 *1174:A2 9.3 
*END

*D_NET *171 0.00029678
*CONN
*I *1174:B1 I *D sky130_fd_sc_hd__o211a_1
*I *1169:X O *D sky130_fd_sc_hd__a21o_1
*CAP
1 *1174:B1 5.70809e-05
2 *1169:X 5.70809e-05
3 *1174:B1 *1174:C1 5.50052e-05
4 *1174:B1 *319:38 5.10039e-05
5 *1174:B1 *319:57 2.12647e-05
6 *170:8 *1174:B1 5.53449e-05
*RES
1 *1169:X *1174:B1 20.3857 
*END

*D_NET *172 0.00218357
*CONN
*I *1179:A2 I *D sky130_fd_sc_hd__a31o_1
*I *1171:A I *D sky130_fd_sc_hd__and2_1
*I *1170:X O *D sky130_fd_sc_hd__and2_1
*CAP
1 *1179:A2 0.000314249
2 *1171:A 9.24251e-05
3 *1170:X 0.000264198
4 *172:10 0.000670872
5 *1171:A *1181:A2 5.49544e-05
6 *1171:A *1181:A3 2.36643e-05
7 *1171:A *1334:A 9.83442e-05
8 *1171:A *320:18 9.66977e-05
9 *1179:A2 *1181:A2 0.000282718
10 *1179:A2 *1270:RESET_B 0
11 *1179:A2 *319:12 1.62621e-05
12 *1179:A2 *320:18 0.00013334
13 *172:10 *319:32 0
14 *172:10 *320:18 1.00332e-05
15 *172:10 *320:22 5.72546e-05
16 *172:10 *320:43 8.28223e-06
17 *1179:A3 *1179:A2 2.84026e-05
18 *1181:A1 *1171:A 3.18747e-05
*RES
1 *1170:X *172:10 17.5143 
2 *172:10 *1171:A 16.3893 
3 *172:10 *1179:A2 20.55 
*END

*D_NET *173 0.000408111
*CONN
*I *1172:A I *D sky130_fd_sc_hd__clkbuf_2
*I *1171:X O *D sky130_fd_sc_hd__and2_1
*CAP
1 *1172:A 8.41525e-05
2 *1171:X 8.41525e-05
3 *1172:A *174:19 0.000100823
4 *1172:A *174:68 9.25014e-06
5 *1173:A *1172:A 0.000100831
6 *166:27 *1172:A 2.89016e-05
*RES
1 *1171:X *1172:A 29.475 
*END

*D_NET *174 0.00461231
*CONN
*I *1176:B I *D sky130_fd_sc_hd__nand2_1
*I *1177:B1 I *D sky130_fd_sc_hd__o22a_1
*I *1173:B I *D sky130_fd_sc_hd__nand2_1
*I *1182:D I *D sky130_fd_sc_hd__nand4_1
*I *1183:A3 I *D sky130_fd_sc_hd__a31o_1
*I *1180:C I *D sky130_fd_sc_hd__nand3_1
*I *1172:X O *D sky130_fd_sc_hd__clkbuf_2
*CAP
1 *1176:B 8.3317e-06
2 *1177:B1 0.000193038
3 *1173:B 3.19862e-05
4 *1182:D 0.000464905
5 *1183:A3 0.000192836
6 *1180:C 6.78758e-05
7 *1172:X 0
8 *174:68 0.000341521
9 *174:21 0.00074942
10 *174:19 0.000307109
11 *174:17 0.000348736
12 *174:4 9.30168e-05
13 *1176:B *1176:A 7.82542e-06
14 *1176:B *319:106 3.44836e-05
15 *1177:B1 *1055:B 7.22537e-05
16 *1177:B1 *1176:A 1.04232e-05
17 *1177:B1 *1177:B2 0.000209041
18 *1177:B1 *1178:B1 9.41642e-05
19 *1177:B1 *319:106 1.57414e-05
20 *1180:C *1179:B1 5.49489e-05
21 *1182:D *317:40 6.69038e-05
22 *1183:A3 *1174:C1 0
23 *1183:A3 *1185:A3 5.49544e-05
24 *1183:A3 *320:43 5.19522e-06
25 *1183:A3 *321:37 0.000130552
26 *174:21 *320:43 6.32065e-05
27 *174:68 *319:106 6.58013e-05
28 *1169:A2 *1182:D 6.69038e-05
29 *1172:A *174:19 0.000100823
30 *1172:A *174:68 9.25014e-06
31 *1173:A *174:19 0.000137269
32 *1173:A *174:21 5.54817e-06
33 *1173:A *174:68 0.000131247
34 *1179:A3 *1177:B1 0
35 *1179:A3 *174:19 0.000148903
36 *1179:A3 *174:68 0.000213635
37 *1181:B1 *1180:C 1.51489e-05
38 *1181:B1 *174:17 5.33005e-05
39 *1271:D *1183:A3 4.60153e-05
*RES
1 *1172:X *174:4 9.3 
2 *174:4 *1180:C 10.675 
3 *174:4 *174:17 5.03571 
4 *174:17 *174:19 4.67857 
5 *174:19 *174:21 1.49107 
6 *174:21 *1183:A3 17.2375 
7 *174:21 *1182:D 22.1995 
8 *174:19 *1173:B 14.3357 
9 *174:17 *174:68 9.01786 
10 *174:68 *1177:B1 14.7286 
11 *174:68 *1176:B 10.175 
*END

*D_NET *175 0.00089092
*CONN
*I *1174:C1 I *D sky130_fd_sc_hd__o211a_1
*I *1173:Y O *D sky130_fd_sc_hd__nand2_1
*CAP
1 *1174:C1 0.000215826
2 *1173:Y 0.000215826
3 *1174:C1 *1059:A 9.56731e-05
4 *1174:C1 *1182:A 0.000121897
5 *1174:C1 *320:43 3.21438e-05
6 *1174:B1 *1174:C1 5.50052e-05
7 *1183:A3 *1174:C1 0
8 *1185:A1 *1174:C1 9.78526e-05
9 *170:8 *1174:C1 5.66971e-05
*RES
1 *1173:Y *1174:C1 32.5107 
*END

*D_NET *176 0.000636064
*CONN
*I *1178:A1_N I *D sky130_fd_sc_hd__a2bb2o_1
*I *1175:Y O *D sky130_fd_sc_hd__inv_2
*CAP
1 *1178:A1_N 0.000115614
2 *1175:Y 0.000115614
3 *1178:A1_N *1175:A 0.000264923
4 *153:8 *1178:A1_N 0.000139913
*RES
1 *1175:Y *1178:A1_N 21.6 
*END

*D_NET *177 0.000872318
*CONN
*I *1178:B1 I *D sky130_fd_sc_hd__a2bb2o_1
*I *1176:Y O *D sky130_fd_sc_hd__nand2_1
*CAP
1 *1178:B1 0.000174089
2 *1176:Y 0.000174089
3 *1178:B1 *317:36 0.000183277
4 *1178:B1 *317:38 3.17148e-05
5 *1177:B1 *1178:B1 9.41642e-05
6 *1181:B1 *1178:B1 0.000214984
*RES
1 *1176:Y *1178:B1 31.4036 
*END

*D_NET *178 0.000574571
*CONN
*I *1178:B2 I *D sky130_fd_sc_hd__a2bb2o_1
*I *1177:X O *D sky130_fd_sc_hd__o22a_1
*CAP
1 *1178:B2 0.000175784
2 *1177:X 0.000175784
3 *1178:B2 *1175:A 7.14693e-05
4 *1178:B2 *317:36 7.57673e-05
5 *166:12 *1178:B2 7.57673e-05
*RES
1 *1177:X *1178:B2 30.4214 
*END

*D_NET *179 0.00144121
*CONN
*I *1181:A2 I *D sky130_fd_sc_hd__a32o_1
*I *1179:X O *D sky130_fd_sc_hd__a31o_1
*CAP
1 *1181:A2 0.000221458
2 *1179:X 0.000221458
3 *1181:A2 *1181:A3 0.000516609
4 *1181:A2 *1181:B2 3.08664e-05
5 *1181:A2 *319:18 2.84749e-05
6 *1181:A2 *320:18 2.2351e-05
7 *1171:A *1181:A2 5.49544e-05
8 *1179:A2 *1181:A2 0.000282718
9 *1181:A1 *1181:A2 2.90642e-05
10 *1181:B1 *1181:A2 3.3254e-05
*RES
1 *1179:X *1181:A2 34.7786 
*END

*D_NET *180 0.00148856
*CONN
*I *1181:A3 I *D sky130_fd_sc_hd__a32o_1
*I *1180:Y O *D sky130_fd_sc_hd__nand3_1
*CAP
1 *1181:A3 0.000456596
2 *1180:Y 0.000456596
3 *1181:A3 *319:18 2.93304e-05
4 *1171:A *1181:A3 2.36643e-05
5 *1181:A1 *1181:A3 5.7661e-06
6 *1181:A2 *1181:A3 0.000516609
*RES
1 *1180:Y *1181:A3 34.8143 
*END

*D_NET *181 0.00052205
*CONN
*I *1185:A2 I *D sky130_fd_sc_hd__a31o_1
*I *1182:Y O *D sky130_fd_sc_hd__nand4_1
*CAP
1 *1185:A2 9.05047e-05
2 *1182:Y 9.05047e-05
3 *1185:A2 *1182:A 5.33005e-05
4 *1185:A2 *1185:A3 5.46383e-06
5 *1185:A2 *1185:B1 5.17548e-05
6 *1185:A2 *320:43 9.45048e-06
7 *1185:A2 *321:37 0.000221071
*RES
1 *1182:Y *1185:A2 21.2071 
*END

*D_NET *182 0.000312793
*CONN
*I *1185:A3 I *D sky130_fd_sc_hd__a31o_1
*I *1183:X O *D sky130_fd_sc_hd__a31o_1
*CAP
1 *1185:A3 4.61698e-05
2 *1183:X 4.61698e-05
3 *1185:A3 *1185:B1 5.46383e-06
4 *1185:A3 *321:37 9.96172e-05
5 *1183:A3 *1185:A3 5.49544e-05
6 *1185:A2 *1185:A3 5.46383e-06
7 *1271:D *1185:A3 5.49544e-05
*RES
1 *1183:X *1185:A3 20.6357 
*END

*D_NET *183 0.0020171
*CONN
*I *1185:B1 I *D sky130_fd_sc_hd__a31o_1
*I *1184:X O *D sky130_fd_sc_hd__a32o_1
*CAP
1 *1185:B1 0.000394345
2 *1184:X 0.000394345
3 *1185:B1 *1052:B 9.84729e-05
4 *1185:B1 *1052:C_N 0.000110164
5 *1185:B1 *1182:A 2.59355e-05
6 *1185:B1 *1184:A1 0.000356677
7 *1185:B1 *318:47 1.12669e-05
8 *1185:B1 *320:43 0.000225374
9 *1185:B1 *321:37 2.40478e-05
10 *1185:B1 *321:50 0.000133541
11 *1169:A2 *1185:B1 7.74068e-05
12 *1185:A2 *1185:B1 5.17548e-05
13 *1185:A3 *1185:B1 5.46383e-06
14 *86:6 *1185:B1 5.49995e-05
15 *86:27 *1185:B1 5.33005e-05
*RES
1 *1184:X *1185:B1 38.0643 
*END

*D_NET *184 0.00842547
*CONN
*I *1222:D I *D sky130_fd_sc_hd__or4_1
*I *1188:A I *D sky130_fd_sc_hd__nor2_1
*I *1196:A2 I *D sky130_fd_sc_hd__o31a_1
*I *1210:D I *D sky130_fd_sc_hd__or4_1
*I *1219:C I *D sky130_fd_sc_hd__or4_1
*I *1213:C I *D sky130_fd_sc_hd__or4_1
*I *1199:C I *D sky130_fd_sc_hd__or4_1
*I *1207:C I *D sky130_fd_sc_hd__or4_1
*I *1216:C I *D sky130_fd_sc_hd__or4_1
*I *1203:C I *D sky130_fd_sc_hd__or4_1
*I *1186:X O *D sky130_fd_sc_hd__o31a_2
*CAP
1 *1222:D 6.1282e-05
2 *1188:A 0.000121528
3 *1196:A2 0
4 *1210:D 1.99379e-05
5 *1219:C 6.62325e-05
6 *1213:C 0
7 *1199:C 0.000106404
8 *1207:C 0
9 *1216:C 0
10 *1203:C 9.69578e-05
11 *1186:X 0.000590543
12 *184:96 0.00059315
13 *184:51 0.000284989
14 *184:44 0.000178586
15 *184:26 0.000300492
16 *184:16 0.000325764
17 *184:14 0.000428522
18 *184:12 0.000379552
19 *184:10 0.000305522
20 *184:6 0.00118685
21 *1188:A *1320:A 3.34295e-05
22 *1188:A *185:10 7.17932e-05
23 *1188:A *230:24 0.000306622
24 *1188:A *333:14 0.000126439
25 *1199:C *1199:B 0.000115691
26 *1199:C *1199:D 4.76424e-05
27 *1199:C *188:8 8.67814e-06
28 *1203:C *1203:B 0.000144075
29 *1203:C *1203:D 7.85178e-05
30 *1203:C *193:52 1.97695e-05
31 *1210:D *1062:A3 9.90367e-05
32 *1210:D *1210:C 5.33334e-05
33 *1219:C *199:10 1.58163e-05
34 *1219:C *322:32 9.41642e-05
35 *184:6 *1367:A 3.67257e-05
36 *184:6 *258:60 0.000132979
37 *184:10 *250:28 0.000174835
38 *184:12 *250:28 7.50601e-05
39 *184:14 *1207:D 1.00887e-05
40 *184:14 *199:10 4.73355e-05
41 *184:14 *250:28 0.00018488
42 *184:16 *1207:D 0.000195126
43 *184:26 *1203:B 9.22103e-06
44 *184:26 *1207:D 3.2923e-05
45 *184:26 *250:28 5.79792e-05
46 *184:51 *1207:B 9.41642e-05
47 *184:51 *1207:D 5.33005e-05
48 *184:51 *1213:D 9.84729e-05
49 *184:51 *324:42 0.00022821
50 *184:96 *1084:B2 4.45768e-06
51 *1058:B_N *184:6 2.84109e-05
52 *1213:A *184:51 0.000182806
53 *1216:A *184:26 0.000100165
54 *109:8 *184:51 0.000110622
55 *109:51 *1222:D 2.59355e-05
56 *109:51 *184:96 0.00016344
57 *110:55 *1188:A 2.78497e-05
58 *112:16 *184:10 8.9163e-05
*RES
1 *1186:X *184:6 16.4071 
2 *184:6 *184:10 8.875 
3 *184:10 *184:12 1.94643 
4 *184:12 *184:14 5.28571 
5 *184:14 *184:16 2.55357 
6 *184:16 *184:26 8.66071 
7 *184:26 *1203:C 12.2286 
8 *184:26 *1216:C 9.3 
9 *184:16 *184:44 4.5 
10 *184:44 *1207:C 9.3 
11 *184:44 *184:51 5.46429 
12 *184:51 *1199:C 21.1571 
13 *184:51 *1213:C 9.3 
14 *184:14 *1219:C 15.175 
15 *184:12 *1210:D 14.7464 
16 *184:10 *1196:A2 13.8 
17 *184:6 *184:96 5.05357 
18 *184:96 *1188:A 22.675 
19 *184:96 *1222:D 10.2643 
*END

*D_NET *185 0.00130719
*CONN
*I *1188:B I *D sky130_fd_sc_hd__nor2_1
*I *1196:A3 I *D sky130_fd_sc_hd__o31a_1
*I *1187:Y O *D sky130_fd_sc_hd__nor2_1
*CAP
1 *1188:B 0
2 *1196:A3 0.000131728
3 *1187:Y 6.51885e-05
4 *185:10 0.000196916
5 *1196:A3 *1189:A1 4.27438e-05
6 *1196:A3 *1189:A2 6.01291e-05
7 *1196:A3 *1189:B1 0.00014183
8 *1196:A3 *230:41 0.000236712
9 *1188:A *185:10 7.17932e-05
10 *1196:A1 *1196:A3 0.00015865
11 *1196:B1 *1196:A3 5.33005e-05
12 *110:55 *185:10 0.000148196
*RES
1 *1187:Y *185:10 20.2464 
2 *185:10 *1196:A3 14.1036 
3 *185:10 *1188:B 9.3 
*END

*D_NET *186 0.00207397
*CONN
*I *1190:A2 I *D sky130_fd_sc_hd__a21oi_1
*I *1193:S I *D sky130_fd_sc_hd__mux2_1
*I *1188:Y O *D sky130_fd_sc_hd__nor2_1
*CAP
1 *1190:A2 3.7921e-05
2 *1193:S 0.000212874
3 *1188:Y 0.000238218
4 *186:8 0.000489014
5 *1190:A2 *1190:A1 0.000153047
6 *1190:A2 *311:12 0.000143797
7 *1193:S *1190:A1 8.07951e-05
8 *1193:S *1193:A0 7.94043e-05
9 *1193:S *240:29 0.000108314
10 *1193:S *311:12 0.000288571
11 *186:8 *1190:B1 0.00024201
*RES
1 *1188:Y *186:8 16.8 
2 *186:8 *1193:S 19.3536 
3 *186:8 *1190:A2 15.7464 
*END

*D_NET *187 0.0016915
*CONN
*I *1190:B1 I *D sky130_fd_sc_hd__a21oi_1
*I *1189:Y O *D sky130_fd_sc_hd__a21oi_1
*CAP
1 *1190:B1 0.000377432
2 *1189:Y 0.000377432
3 *1190:B1 *1190:A1 0.000101823
4 *1190:B1 *230:41 0.000265447
5 *1190:B1 *240:29 6.82179e-05
6 *1190:B1 *258:38 7.04538e-05
7 *1190:B1 *322:8 5.71472e-05
8 *1190:B1 *322:16 2.42662e-05
9 *1272:D *1190:B1 0.000107267
10 *186:8 *1190:B1 0.00024201
*RES
1 *1189:Y *1190:B1 37.1179 
*END

*D_NET *188 0.00193602
*CONN
*I *1192:C I *D sky130_fd_sc_hd__and3_1
*I *1213:D I *D sky130_fd_sc_hd__or4_1
*I *1199:D I *D sky130_fd_sc_hd__or4_1
*I *1191:X O *D sky130_fd_sc_hd__or2_1
*CAP
1 *1192:C 0.000198849
2 *1213:D 4.02457e-05
3 *1199:D 9.13395e-05
4 *1191:X 0
5 *188:8 0.000346587
6 *188:6 0.000413852
7 *1192:C *1062:A3 1.95435e-05
8 *1192:C *1193:A0 0.000139653
9 *1192:C *1210:C 0
10 *1192:C *1320:A 3.69865e-05
11 *1192:C *323:16 0.000127589
12 *1199:D *1199:A 0.000134636
13 *188:8 *322:32 1.0078e-05
14 *188:8 *323:16 3.45899e-05
15 *1192:B *1192:C 2.51343e-06
16 *1199:C *1199:D 4.76424e-05
17 *1199:C *188:8 8.67814e-06
18 *110:10 *1192:C 7.6644e-05
19 *110:55 *1192:C 0.000108118
20 *184:51 *1213:D 9.84729e-05
*RES
1 *1191:X *188:6 13.8 
2 *188:6 *188:8 3.46429 
3 *188:8 *1199:D 16.2821 
4 *188:8 *1213:D 14.7464 
5 *188:6 *1192:C 18.675 
*END

*D_NET *189 0.000425603
*CONN
*I *1193:A1 I *D sky130_fd_sc_hd__mux2_1
*I *1192:X O *D sky130_fd_sc_hd__and3_1
*CAP
1 *1193:A1 0.000144874
2 *1192:X 0.000144874
3 *1193:A1 *1062:A3 9.60875e-05
4 *1193:A1 *1193:A0 3.97677e-05
*RES
1 *1192:X *1193:A1 20.3679 
*END

*D_NET *190 0.00097063
*CONN
*I *1194:A I *D sky130_fd_sc_hd__clkbuf_1
*I *1193:X O *D sky130_fd_sc_hd__mux2_1
*CAP
1 *1194:A 0.000170309
2 *1193:X 0.000170309
3 *1194:A *240:29 0.000168629
4 *1194:A *258:38 0.000113443
5 *1194:A *311:8 0.000119969
6 *1194:A *323:10 0.000227971
*RES
1 *1193:X *1194:A 33.85 
*END

*D_NET *191 0.000301177
*CONN
*I *1197:A2 I *D sky130_fd_sc_hd__a21oi_1
*I *1195:X O *D sky130_fd_sc_hd__or2_1
*CAP
1 *1197:A2 5.93034e-05
2 *1195:X 5.93034e-05
3 *1197:A2 *1062:A1 0
4 *1197:A2 *1197:B1 9.20669e-05
5 *1197:A2 *334:8 8.00806e-05
6 *1197:A1 *1197:A2 1.04232e-05
*RES
1 *1195:X *1197:A2 29.3679 
*END

*D_NET *192 0.00202012
*CONN
*I *1197:B1 I *D sky130_fd_sc_hd__a21oi_1
*I *1196:X O *D sky130_fd_sc_hd__o31a_1
*CAP
1 *1197:B1 0.000495342
2 *1196:X 0.000495342
3 *1197:B1 *1061:A 5.68722e-05
4 *1197:B1 *1189:A2 0.0002416
5 *1197:B1 *1299:CLK 0.000322829
6 *1197:B1 *232:14 0
7 *1197:B1 *334:8 1.72148e-05
8 *1197:B1 *334:10 5.41797e-06
9 *1063:B1 *1197:B1 4.01768e-05
10 *1167:B *1197:B1 0.000146486
11 *1197:A2 *1197:B1 9.20669e-05
12 *94:6 *1197:B1 0.000101468
13 *95:6 *1197:B1 5.30637e-06
*RES
1 *1196:X *1197:B1 38.6893 
*END

*D_NET *193 0.00849326
*CONN
*I *1222:C I *D sky130_fd_sc_hd__or4_1
*I *1219:B I *D sky130_fd_sc_hd__or4_1
*I *1210:C I *D sky130_fd_sc_hd__or4_1
*I *1207:B I *D sky130_fd_sc_hd__or4_1
*I *1216:B I *D sky130_fd_sc_hd__or4_1
*I *1203:B I *D sky130_fd_sc_hd__or4_1
*I *1213:B I *D sky130_fd_sc_hd__or4_1
*I *1199:B I *D sky130_fd_sc_hd__or4_1
*I *1198:X O *D sky130_fd_sc_hd__or3_2
*CAP
1 *1222:C 0
2 *1219:B 0
3 *1210:C 0.000339445
4 *1207:B 6.3879e-05
5 *1216:B 0
6 *1203:B 0.000118389
7 *1213:B 0
8 *1199:B 0.000258279
9 *1198:X 0.000184642
10 *193:52 0.000392338
11 *193:40 0.000404064
12 *193:38 0.000405682
13 *193:36 0.00031942
14 *193:14 0.000322462
15 *193:12 0.000785638
16 *193:10 0.000586678
17 *1199:B *1199:A 5.30637e-06
18 *1199:B *1200:S 9.25014e-06
19 *1199:B *1356:A 0
20 *1199:B *240:29 0
21 *1210:C *1062:A3 7.12594e-05
22 *193:10 *230:24 5.58875e-06
23 *193:10 *258:46 0.000135028
24 *193:10 *311:12 0.000122439
25 *193:10 *333:14 0
26 *193:12 *1320:A 3.67452e-05
27 *193:12 *230:24 0.000200975
28 *193:12 *311:12 0.000910786
29 *193:12 *322:16 9.91086e-05
30 *193:12 *322:18 0.00022117
31 *193:12 *322:20 0.000199089
32 *193:12 *322:32 4.93834e-05
33 *193:36 *1220:S 0.000109739
34 *193:36 *322:32 0.000356682
35 *193:52 *1217:S 0.00018372
36 *193:52 *1356:A 0
37 *1192:C *1210:C 0
38 *1196:A1 *1210:C 5.66157e-05
39 *1199:C *1199:B 0.000115691
40 *1203:C *1203:B 0.000144075
41 *1203:C *193:52 1.97695e-05
42 *1210:B *1210:C 0.000137427
43 *1210:D *1210:C 5.33334e-05
44 *1216:A *1203:B 5.30637e-06
45 *1216:A *193:40 2.22419e-05
46 *1216:A *193:52 0.000373696
47 *109:8 *1207:B 5.33005e-05
48 *109:21 *1210:C 6.94399e-05
49 *109:21 *193:40 7.74135e-05
50 *109:32 *1210:C 0.00036438
51 *110:10 *1210:C 0
52 *184:26 *1203:B 9.22103e-06
53 *184:51 *1207:B 9.41642e-05
*RES
1 *1198:X *193:10 16.8 
2 *193:10 *193:12 13.1786 
3 *193:12 *193:14 1.03571 
4 *193:14 *1199:B 18.4071 
5 *193:14 *1213:B 13.8 
6 *193:12 *193:36 9.14286 
7 *193:36 *193:38 4.5 
8 *193:38 *193:40 1.33929 
9 *193:40 *193:52 11.2321 
10 *193:52 *1203:B 11.0679 
11 *193:52 *1216:B 9.3 
12 *193:40 *1207:B 15.175 
13 *193:38 *1210:C 22.3893 
14 *193:36 *1219:B 9.3 
15 *193:10 *1222:C 13.8 
*END

*D_NET *194 0.00079233
*CONN
*I *1200:S I *D sky130_fd_sc_hd__mux2_1
*I *1199:X O *D sky130_fd_sc_hd__or4_1
*CAP
1 *1200:S 0.000271467
2 *1199:X 0.000271467
3 *1200:S *1200:A1 2.97021e-05
4 *1200:S *1201:A 0
5 *1200:S *1324:A 2.65105e-05
6 *1200:S *1356:A 0
7 *1200:S *240:10 2.91887e-05
8 *1200:S *240:29 4.38511e-05
9 *1199:B *1200:S 9.25014e-06
10 *1200:A0 *1200:S 7.83587e-05
11 *1276:D *1200:S 3.2534e-05
*RES
1 *1199:X *1200:S 33.5821 
*END

*D_NET *195 0.000263187
*CONN
*I *1201:A I *D sky130_fd_sc_hd__clkbuf_1
*I *1200:X O *D sky130_fd_sc_hd__mux2_1
*CAP
1 *1201:A 7.59889e-05
2 *1200:X 7.59889e-05
3 *1201:A *1200:A1 0
4 *1201:A *1324:A 7.93411e-05
5 *1200:S *1201:A 0
6 *1276:D *1201:A 3.18676e-05
*RES
1 *1200:X *1201:A 20.6893 
*END

*D_NET *196 0.000442315
*CONN
*I *1216:D I *D sky130_fd_sc_hd__or4_1
*I *1203:D I *D sky130_fd_sc_hd__or4_1
*I *1202:X O *D sky130_fd_sc_hd__or2b_1
*CAP
1 *1216:D 0
2 *1203:D 0.000101267
3 *1202:X 7.89242e-05
4 *196:8 0.000180191
5 *1203:D *1203:A 3.41517e-06
6 *1203:C *1203:D 7.85178e-05
*RES
1 *1202:X *196:8 15.1393 
2 *196:8 *1203:D 15.4964 
3 *196:8 *1216:D 13.8 
*END

*D_NET *197 0.00284552
*CONN
*I *1204:S I *D sky130_fd_sc_hd__mux2_1
*I *1203:X O *D sky130_fd_sc_hd__or4_1
*CAP
1 *1204:S 0.00107792
2 *1203:X 0.00107792
3 *1204:S *1204:A1 0
4 *1204:S *1260:CLK 0.000195376
5 *1204:S *1260:RESET_B 6.25978e-05
6 *1204:S *1276:CLK 1.92905e-05
7 *1204:S *1338:A 0.000313197
8 *1204:A0 *1204:S 5.41494e-05
9 *93:33 *1204:S 4.50757e-05
*RES
1 *1203:X *1204:S 42.7607 
*END

*D_NET *198 0.000248224
*CONN
*I *1205:A I *D sky130_fd_sc_hd__clkbuf_1
*I *1204:X O *D sky130_fd_sc_hd__mux2_1
*CAP
1 *1205:A 7.36321e-05
2 *1204:X 7.36321e-05
3 *1205:A *1204:A1 0.00010096
*RES
1 *1204:X *1205:A 20.2786 
*END

*D_NET *199 0.0012695
*CONN
*I *1219:D I *D sky130_fd_sc_hd__or4_1
*I *1207:D I *D sky130_fd_sc_hd__or4_1
*I *1206:X O *D sky130_fd_sc_hd__or2b_1
*CAP
1 *1219:D 0
2 *1207:D 8.63514e-05
3 *1206:X 0.000183489
4 *199:10 0.000269841
5 *1207:D *250:28 0.000217368
6 *1207:D *324:42 5.49995e-05
7 *199:10 *250:28 5.74242e-05
8 *199:10 *322:32 4.54397e-05
9 *1219:C *199:10 1.58163e-05
10 *184:14 *1207:D 1.00887e-05
11 *184:14 *199:10 4.73355e-05
12 *184:16 *1207:D 0.000195126
13 *184:26 *1207:D 3.2923e-05
14 *184:51 *1207:D 5.33005e-05
*RES
1 *1206:X *199:10 16.7107 
2 *199:10 *1207:D 17.1929 
3 *199:10 *1219:D 13.8 
*END

*D_NET *200 0.00264262
*CONN
*I *1208:S I *D sky130_fd_sc_hd__mux2_1
*I *1207:X O *D sky130_fd_sc_hd__or4_1
*CAP
1 *1208:S 0.00109501
2 *1207:X 0.00109501
3 *1208:S *1138:A 5.33005e-05
4 *1208:S *1202:A 5.65955e-05
5 *1208:S *1202:B_N 0.000101859
6 *1208:S *1209:A 0
7 *1208:S *1274:RESET_B 1.28239e-05
8 *1208:S *255:83 0.000150096
9 *1208:S *324:29 7.79215e-05
*RES
1 *1207:X *1208:S 45.8321 
*END

*D_NET *201 0.000240178
*CONN
*I *1209:A I *D sky130_fd_sc_hd__clkbuf_1
*I *1208:X O *D sky130_fd_sc_hd__mux2_1
*CAP
1 *1209:A 7.00065e-05
2 *1208:X 7.00065e-05
3 *1209:A *1208:A1 0.000100165
4 *1208:S *1209:A 0
*RES
1 *1208:X *1209:A 20.2786 
*END

*D_NET *202 0.00244254
*CONN
*I *1211:S I *D sky130_fd_sc_hd__mux2_1
*I *1210:X O *D sky130_fd_sc_hd__or4_1
*CAP
1 *1211:S 0.000540651
2 *1210:X 0.000540651
3 *1211:S *1062:A1 4.7812e-05
4 *1211:S *1062:A3 0.000268929
5 *1211:S *1279:RESET_B 0.000289953
6 *1063:A1 *1211:S 0.000273269
7 *1063:B1 *1211:S 0.000334581
8 *1300:D *1211:S 6.09925e-05
9 *95:6 *1211:S 8.57023e-05
*RES
1 *1210:X *1211:S 31.6 
*END

*D_NET *203 0.000853971
*CONN
*I *1212:A I *D sky130_fd_sc_hd__clkbuf_1
*I *1211:X O *D sky130_fd_sc_hd__mux2_1
*CAP
1 *1212:A 0.000426986
2 *1211:X 0.000426986
3 *93:14 *1212:A 0
*RES
1 *1211:X *1212:A 34.725 
*END

*D_NET *204 0.00280842
*CONN
*I *1214:S I *D sky130_fd_sc_hd__mux2_1
*I *1213:X O *D sky130_fd_sc_hd__or4_1
*CAP
1 *1214:S 0.00100167
2 *1213:X 0.00100167
3 *1214:S *1214:A1 5.65955e-05
4 *1214:S *1215:A 0.000148449
5 *1214:S *1372:A 0.000182598
6 *1214:A0 *1214:S 5.49544e-05
7 *93:57 *1214:S 5.49489e-05
8 *93:65 *1214:S 0.000307535
*RES
1 *1213:X *1214:S 42.1893 
*END

*D_NET *205 0.000593962
*CONN
*I *1215:A I *D sky130_fd_sc_hd__clkbuf_1
*I *1214:X O *D sky130_fd_sc_hd__mux2_1
*CAP
1 *1215:A 0.000188241
2 *1214:X 0.000188241
3 *1215:A *1372:A 5.65955e-05
4 *1214:S *1215:A 0.000148449
5 *1280:D *1215:A 1.24368e-05
*RES
1 *1214:X *1215:A 31.0286 
*END

*D_NET *206 0.000686688
*CONN
*I *1217:S I *D sky130_fd_sc_hd__mux2_1
*I *1216:X O *D sky130_fd_sc_hd__or4_1
*CAP
1 *1217:S 0.000180675
2 *1216:X 0.000180675
3 *1217:S *1217:A1 0.000129821
4 *1217:S *1356:A 0
5 *1217:S *250:28 1.17968e-05
6 *193:52 *1217:S 0.00018372
*RES
1 *1216:X *1217:S 31.4393 
*END

*D_NET *207 0.000913528
*CONN
*I *1218:A I *D sky130_fd_sc_hd__clkbuf_1
*I *1217:X O *D sky130_fd_sc_hd__mux2_1
*CAP
1 *1218:A 0.000456764
2 *1217:X 0.000456764
3 *1218:A *1276:CLK 0
4 *1218:A *250:20 0
5 *1218:A *250:28 0
6 *1281:D *1218:A 0
*RES
1 *1217:X *1218:A 34.975 
*END

*D_NET *208 0.0038474
*CONN
*I *1220:S I *D sky130_fd_sc_hd__mux2_1
*I *1219:X O *D sky130_fd_sc_hd__or4_1
*CAP
1 *1220:S 0.0011137
2 *1219:X 0.0011137
3 *1220:S *1220:A1 5.65955e-05
4 *1220:S *1273:RESET_B 0
5 *1220:S *235:6 1.98839e-05
6 *1220:S *235:66 1.64621e-05
7 *1220:S *322:32 0.000143819
8 *1220:S *323:10 0.000203153
9 *1220:S *323:16 5.66971e-05
10 *1220:A0 *1220:S 0.000139208
11 *1223:A0 *1220:S 2.27129e-05
12 *1273:D *1220:S 0.000611302
13 *93:65 *1220:S 0.000240435
14 *193:36 *1220:S 0.000109739
*RES
1 *1219:X *1220:S 48.6536 
*END

*D_NET *209 0.000399347
*CONN
*I *1221:A I *D sky130_fd_sc_hd__clkbuf_1
*I *1220:X O *D sky130_fd_sc_hd__mux2_1
*CAP
1 *1221:A 0.000111681
2 *1220:X 0.000111681
3 *1221:A *1273:RESET_B 0
4 *1221:A *256:68 2.84026e-05
5 *1223:A0 *1221:A 0.000147582
*RES
1 *1220:X *1221:A 30.0821 
*END

*D_NET *210 0.00127081
*CONN
*I *1223:S I *D sky130_fd_sc_hd__mux2_1
*I *1222:X O *D sky130_fd_sc_hd__or4_1
*CAP
1 *1223:S 0.000458967
2 *1222:X 0.000458967
3 *1223:S *1223:A1 5.65955e-05
4 *1223:S *1224:A 0.000274288
5 *1083:A *1223:S 6.05161e-06
6 *1223:A0 *1223:S 1.59373e-05
*RES
1 *1222:X *1223:S 27.0821 
*END

*D_NET *211 0.000962828
*CONN
*I *1224:A I *D sky130_fd_sc_hd__clkbuf_1
*I *1223:X O *D sky130_fd_sc_hd__mux2_1
*CAP
1 *1224:A 0.00026438
2 *1223:X 0.00026438
3 *1224:A *1326:A 5.74309e-05
4 *1224:A *235:27 0
5 *1224:A *258:38 0.00010235
6 *1223:S *1224:A 0.000274288
*RES
1 *1223:X *1224:A 32.1357 
*END

*D_NET *212 0.000453644
*CONN
*I *1227:A2 I *D sky130_fd_sc_hd__o22a_1
*I *1225:Y O *D sky130_fd_sc_hd__inv_2
*CAP
1 *1227:A2 0.000130262
2 *1225:Y 0.000130262
3 *1227:A2 *1227:A1 0.00011991
4 *1227:A2 *1314:CLK 0
5 *1227:B2 *1227:A2 1.99099e-05
6 *114:12 *1227:A2 5.33005e-05
*RES
1 *1225:Y *1227:A2 30.0821 
*END

*D_NET *213 0.000847769
*CONN
*I *1227:B1 I *D sky130_fd_sc_hd__o22a_1
*I *1226:Y O *D sky130_fd_sc_hd__a21boi_1
*CAP
1 *1227:B1 0.000163646
2 *1226:Y 0.000163646
3 *1227:B1 *1314:CLK 5.75528e-05
4 *1227:B1 *305:18 0.000227971
5 *1079:A1 *1227:B1 3.14003e-05
6 *1227:B2 *1227:B1 0.000150253
7 *106:8 *1227:B1 5.33005e-05
*RES
1 *1226:Y *1227:B1 32.0286 
*END

*D_NET *214 0.0013635
*CONN
*I *1234:A3 I *D sky130_fd_sc_hd__a31o_1
*I *1232:A2 I *D sky130_fd_sc_hd__o21a_1
*I *1228:X O *D sky130_fd_sc_hd__and4_1
*CAP
1 *1234:A3 0.000106316
2 *1232:A2 3.38404e-05
3 *1228:X 0.000315615
4 *214:6 0.000455771
5 *1232:A2 *1232:A1 1.33343e-05
6 *1234:A3 *1232:B1 3.5707e-05
7 *1234:A3 *1235:A1 0
8 *1234:A3 *237:57 0
9 *1234:A3 *348:25 0
10 *214:6 *1232:A1 0.00025884
11 *214:6 *216:16 0.000144075
*RES
1 *1228:X *214:6 15.175 
2 *214:6 *1232:A2 9.83571 
3 *214:6 *1234:A3 20.2464 
*END

*D_NET *215 0.00463867
*CONN
*I *1234:B1 I *D sky130_fd_sc_hd__a31o_1
*I *1237:B I *D sky130_fd_sc_hd__nor3b_1
*I *1230:B1 I *D sky130_fd_sc_hd__a41o_1
*I *1229:X O *D sky130_fd_sc_hd__and2b_1
*CAP
1 *1234:B1 5.37718e-05
2 *1237:B 0.000360405
3 *1230:B1 0.00015723
4 *1229:X 0.000315264
5 *215:23 0.00118199
6 *215:10 0.0012403
7 *1230:B1 *1096:B 0.000125724
8 *1230:B1 *260:103 0
9 *1230:B1 *360:14 0.000163999
10 *1234:B1 *1234:A1 0.00012573
11 *1234:B1 *348:25 2.04098e-05
12 *1234:B1 *348:51 1.81469e-05
13 *1237:B *1234:A1 7.17189e-05
14 *1237:B *1237:C_N 5.71472e-05
15 *1237:B *1296:CLK 0
16 *1237:B *237:68 0
17 *1237:B *348:51 0
18 *1237:B *348:67 3.99614e-06
19 *1237:B *349:38 8.24593e-06
20 *1237:B *349:55 3.06878e-06
21 *215:10 *1078:A 2.04825e-05
22 *215:10 *1229:A_N 0.000183713
23 *215:10 *360:10 3.65015e-05
24 *215:10 *360:14 3.17163e-05
25 *215:10 *360:37 1.27529e-05
26 *215:10 *360:56 3.45894e-05
27 *215:23 *349:55 1.93501e-05
28 *1072:B1 *215:10 8.00806e-05
29 *1078:B *215:10 0.000193833
30 *1091:B *1237:B 1.74352e-05
31 *1237:A *1237:B 2.44318e-05
32 *99:30 *215:10 7.6644e-05
*RES
1 *1229:X *215:10 20.55 
2 *215:10 *1230:B1 17.8714 
3 *215:10 *215:23 13.25 
4 *215:23 *1237:B 24.425 
5 *215:23 *1234:B1 19.9429 
*END

*D_NET *216 0.0026289
*CONN
*I *1231:B I *D sky130_fd_sc_hd__nand2_1
*I *1236:A3 I *D sky130_fd_sc_hd__a31o_1
*I *1230:X O *D sky130_fd_sc_hd__a41o_1
*CAP
1 *1231:B 0
2 *1236:A3 0.000331266
3 *1230:X 0.000557008
4 *216:16 0.000888274
5 *1236:A3 *1236:A1 3.37756e-05
6 *1236:A3 *348:25 5.7119e-05
7 *1236:A3 *348:51 0.000264344
8 *1236:A3 *348:67 1.00332e-05
9 *1236:A3 *349:55 7.70035e-05
10 *216:16 *1234:A2 1.30765e-05
11 *216:16 *348:31 1.02132e-05
12 *1228:C *216:16 0.000229456
13 *1228:D *216:16 1.32552e-05
14 *214:6 *216:16 0.000144075
*RES
1 *1230:X *216:16 26.7821 
2 *216:16 *1236:A3 24.4607 
3 *216:16 *1231:B 9.3 
*END

*D_NET *217 0.00109027
*CONN
*I *1235:A2 I *D sky130_fd_sc_hd__a21oi_1
*I *1232:B1 I *D sky130_fd_sc_hd__o21a_1
*I *1231:Y O *D sky130_fd_sc_hd__nand2_1
*CAP
1 *1235:A2 3.21587e-05
2 *1232:B1 9.78674e-05
3 *1231:Y 0.000220923
4 *217:6 0.000350949
5 *1232:B1 *1232:A1 1.3701e-05
6 *1232:B1 *1235:A1 0.00010326
7 *217:6 *1234:A2 0.000186765
8 *217:6 *1235:B1 1.40415e-05
9 *217:6 *348:31 2.12005e-05
10 *1234:A3 *1232:B1 3.5707e-05
11 *1295:D *1235:A2 1.3701e-05
*RES
1 *1231:Y *217:6 13.1214 
2 *217:6 *1232:B1 20.675 
3 *217:6 *1235:A2 10.0321 
*END

*D_NET *218 0.000721014
*CONN
*I *1235:A1 I *D sky130_fd_sc_hd__a21oi_1
*I *1233:Y O *D sky130_fd_sc_hd__inv_2
*CAP
1 *1235:A1 0.000282279
2 *1233:Y 0.000282279
3 *1235:A1 *1234:A1 0
4 *1235:A1 *237:57 5.03694e-05
5 *1235:A1 *237:68 2.8266e-06
6 *1235:A1 *348:25 0
7 *1232:B1 *1235:A1 0.00010326
8 *1234:A3 *1235:A1 0
*RES
1 *1233:Y *1235:A1 31.725 
*END

*D_NET *219 0.000368724
*CONN
*I *1235:B1 I *D sky130_fd_sc_hd__a21oi_1
*I *1234:X O *D sky130_fd_sc_hd__a31o_1
*CAP
1 *1235:B1 0.000174688
2 *1234:X 0.000174688
3 *1295:D *1235:B1 5.30637e-06
4 *217:6 *1235:B1 1.40415e-05
*RES
1 *1234:X *1235:B1 20.7964 
*END

*D_NET *220 0.000280483
*CONN
*I *1237:C_N I *D sky130_fd_sc_hd__nor3b_1
*I *1236:X O *D sky130_fd_sc_hd__a31o_1
*CAP
1 *1237:C_N 3.96307e-05
2 *1236:X 3.96307e-05
3 *1237:A *1237:C_N 0.000144074
4 *1237:B *1237:C_N 5.71472e-05
*RES
1 *1236:X *1237:C_N 19.9571 
*END

*D_NET *221 0.000239407
*CONN
*I *1239:A I *D sky130_fd_sc_hd__clkbuf_1
*I *1238:X O *D sky130_fd_sc_hd__mux2_1
*CAP
1 *1239:A 0.000119703
2 *1238:X 0.000119703
*RES
1 *1238:X *1239:A 20.6893 
*END

*D_NET *222 0.000915885
*CONN
*I *1241:A I *D sky130_fd_sc_hd__clkbuf_1
*I *1240:X O *D sky130_fd_sc_hd__mux2_1
*CAP
1 *1241:A 0.000350158
2 *1240:X 0.000350158
3 *1241:A *1090:A1 3.18747e-05
4 *1241:A *1090:S0 4.11196e-05
5 *1241:A *1240:A0 0
6 *1304:D *1241:A 0.000142575
*RES
1 *1240:X *1241:A 34.1536 
*END

*D_NET *223 0.000479163
*CONN
*I *1243:A I *D sky130_fd_sc_hd__clkbuf_1
*I *1242:X O *D sky130_fd_sc_hd__mux2_1
*CAP
1 *1243:A 0.0001838
2 *1242:X 0.0001838
3 *1243:A *1242:A1 0
4 *1243:A *233:86 0
5 *1243:A *233:97 7.58664e-05
6 *1305:D *1243:A 3.56976e-05
*RES
1 *1242:X *1243:A 31.6714 
*END

*D_NET *224 0.000849609
*CONN
*I *1245:A I *D sky130_fd_sc_hd__clkbuf_1
*I *1244:X O *D sky130_fd_sc_hd__mux2_1
*CAP
1 *1245:A 0.000219941
2 *1244:X 0.000219941
3 *1245:A *1303:RESET_B 0
4 *1245:A *1306:RESET_B 0
5 *1245:A *1362:A 0.000128154
6 *1245:A *234:23 7.8327e-05
7 *1245:A *234:36 0
8 *1244:S *1245:A 5.33433e-05
9 *1306:D *1245:A 0.000149904
*RES
1 *1244:X *1245:A 32.6179 
*END

*D_NET *225 0.000389429
*CONN
*I *1247:A I *D sky130_fd_sc_hd__clkbuf_1
*I *1246:X O *D sky130_fd_sc_hd__mux2_1
*CAP
1 *1247:A 0.000194714
2 *1246:X 0.000194714
*RES
1 *1246:X *1247:A 21.9214 
*END

*D_NET *226 0.000269409
*CONN
*I *1249:A I *D sky130_fd_sc_hd__clkbuf_1
*I *1248:X O *D sky130_fd_sc_hd__mux2_1
*CAP
1 *1249:A 9.65925e-05
2 *1248:X 9.65925e-05
3 *114:63 *1249:A 7.62237e-05
*RES
1 *1248:X *1249:A 20.6893 
*END

*D_NET *227 0.000470607
*CONN
*I *1251:A I *D sky130_fd_sc_hd__clkbuf_1
*I *1250:X O *D sky130_fd_sc_hd__mux2_1
*CAP
1 *1251:A 0.000120161
2 *1250:X 0.000120161
3 *1251:A *1307:RESET_B 0.000230285
*RES
1 *1250:X *1251:A 21.5107 
*END

*D_NET *228 0.000146464
*CONN
*I *1253:A I *D sky130_fd_sc_hd__clkbuf_1
*I *1252:X O *D sky130_fd_sc_hd__mux2_1
*CAP
1 *1253:A 7.32319e-05
2 *1252:X 7.32319e-05
*RES
1 *1252:X *1253:A 19.8679 
*END

*D_NET *229 0.00778666
*CONN
*I *1275:D I *D sky130_fd_sc_hd__dfstp_1
*I *1094:X O *D sky130_fd_sc_hd__a311o_1
*CAP
1 *1275:D 0.000108438
2 *1094:X 0.000252705
3 *229:20 0.00219767
4 *229:8 0.00234193
5 *1275:D *1275:CLK 0.000100037
6 *1275:D *1275:SET_B 0.000315932
7 *1275:D *249:31 0.000179623
8 *229:8 *1094:C1 5.52302e-05
9 *229:8 *1095:A 9.99644e-06
10 *229:8 *1229:B 0.000268396
11 *229:20 *1066:A 0.000331417
12 *229:20 *1072:A1 0
13 *229:20 *1094:B1 1.69115e-05
14 *229:20 *1095:C 0
15 *229:20 *1103:A 0
16 *229:20 *1107:C 4.16207e-05
17 *229:20 *1107:D 5.33786e-05
18 *229:20 *1141:A1 7.59982e-05
19 *229:20 *1262:RESET_B 1.47548e-05
20 *229:20 *1275:SET_B 9.20921e-05
21 *229:20 *236:51 0.000191661
22 *229:20 *238:12 8.18529e-05
23 *229:20 *249:31 0.000130403
24 *229:20 *257:44 0
25 *229:20 *262:54 0
26 *229:20 *262:61 0
27 *229:20 *340:32 0
28 *229:20 *342:10 4.57445e-05
29 *229:20 *342:19 5.94737e-05
30 *229:20 *343:51 0
31 *229:20 *359:19 1.52978e-05
32 *229:20 *360:10 0
33 *229:20 *360:14 0
34 *229:20 *360:37 0
35 *229:20 *360:56 0
36 *1067:A *229:20 0
37 *1100:C *229:20 0.000170893
38 *1287:D *229:20 0
39 *96:14 *229:20 0
40 *99:10 *229:20 0
41 *99:22 *229:20 0.000150618
42 *99:30 *229:20 0
43 *99:47 *229:20 0
44 *128:8 *229:20 9.4724e-05
45 *128:14 *229:20 0.000389854
*RES
1 *1094:X *229:8 17.2107 
2 *229:8 *229:20 45.7857 
3 *229:20 *1275:D 14.7643 
*END

*D_NET *230 0.022064
*CONN
*I *1322:A I *D sky130_fd_sc_hd__clkbuf_16
*I *1323:A I *D sky130_fd_sc_hd__clkbuf_16
*I *1319:A I *D sky130_fd_sc_hd__clkbuf_16
*I *1318:A I *D sky130_fd_sc_hd__clkbuf_16
*I *1321:A I *D sky130_fd_sc_hd__clkbuf_16
*I *1316:A I *D sky130_fd_sc_hd__clkbuf_16
*I *1317:A I *D sky130_fd_sc_hd__clkbuf_16
*I *1320:A I *D sky130_fd_sc_hd__clkbuf_16
*I *1315:X O *D sky130_fd_sc_hd__clkbuf_16
*CAP
1 *1322:A 0
2 *1323:A 0.000331133
3 *1319:A 6.7934e-05
4 *1318:A 0.000363574
5 *1321:A 0.00122109
6 *1316:A 0.000217198
7 *1317:A 0.00047333
8 *1320:A 0.000198262
9 *1315:X 0
10 *230:126 0.00107906
11 *230:96 0.00242987
12 *230:90 0.00301112
13 *230:41 0.00134217
14 *230:24 0.00101202
15 *230:20 0.00292986
16 *230:6 0.0018115
17 *1316:A *258:60 2.89114e-05
18 *1317:A *1211:A1 0.00018372
19 *1317:A *1299:CLK 5.52302e-05
20 *1320:A *1193:A0 7.83366e-05
21 *1320:A *322:16 9.15804e-05
22 *1320:A *322:18 0.000214342
23 *1320:A *322:20 3.34295e-05
24 *1320:A *323:16 4.46186e-06
25 *1321:A *1223:A1 0
26 *1321:A *235:27 0
27 *1323:A *1329:A 0.000143375
28 *1323:A *237:10 0
29 *1323:A *260:8 5.33005e-05
30 *230:20 *1301:CLK 0
31 *230:20 *259:12 0
32 *230:20 *311:20 0.00012396
33 *230:24 *333:14 4.16238e-05
34 *230:41 *1189:A2 0.000598373
35 *230:41 *1189:B1 7.03295e-05
36 *230:41 *1190:A1 6.05161e-06
37 *230:41 *1299:CLK 0.00063843
38 *230:41 *334:16 0.000311121
39 *230:90 *1301:CLK 0.000584866
40 *230:126 *237:8 4.57492e-05
41 *230:126 *263:40 2.11419e-05
42 *1063:A2 *1316:A 0
43 *1153:B1 *1318:A 7.43578e-06
44 *1164:B *1318:A 3.75959e-05
45 *1165:B *1318:A 5.52302e-05
46 *1166:A1 *1318:A 0.000116738
47 *1166:A3 *1318:A 3.30237e-05
48 *1166:B1 *1318:A 2.39852e-05
49 *1167:B *1316:A 0.000164959
50 *1178:A2_N *230:96 0
51 *1188:A *1320:A 3.34295e-05
52 *1188:A *230:24 0.000306622
53 *1190:B1 *230:41 0.000265447
54 *1192:C *1320:A 3.69865e-05
55 *1196:A3 *230:41 0.000236712
56 *1223:A0 *1321:A 0.000101363
57 *1267:D *1318:A 5.71472e-05
58 *26:16 *230:20 0.000165157
59 *26:16 *230:90 0.000250239
60 *110:55 *1320:A 0
61 *166:8 *1318:A 9.71197e-05
62 *166:10 *1318:A 1.49929e-05
63 *193:10 *230:24 5.58875e-06
64 *193:12 *1320:A 3.67452e-05
65 *193:12 *230:24 0.000200975
*RES
1 *1315:X *230:6 13.8 
2 *230:6 *230:20 15.2077 
3 *230:20 *230:24 8.54393 
4 *230:24 *1320:A 19.0857 
5 *230:24 *230:41 20.7857 
6 *230:41 *1317:A 17.8 
7 *230:41 *1316:A 22.9071 
8 *230:20 *1321:A 22.8176 
9 *230:6 *230:90 12.7582 
10 *230:90 *230:96 7.12092 
11 *230:96 *1318:A 20.4964 
12 *230:96 *1319:A 14.7464 
13 *230:90 *230:126 14.2963 
14 *230:126 *1323:A 23.7643 
15 *230:126 *1322:A 9.3 
*END

*D_NET *231 0.0103224
*CONN
*I *1268:CLK I *D sky130_fd_sc_hd__dfrtp_1
*I *1271:CLK I *D sky130_fd_sc_hd__dfrtp_1
*I *1258:CLK I *D sky130_fd_sc_hd__dfrtp_1
*I *1278:CLK I *D sky130_fd_sc_hd__dfrtp_1
*I *1277:CLK I *D sky130_fd_sc_hd__dfrtp_1
*I *1257:CLK I *D sky130_fd_sc_hd__dfrtp_1
*I *1256:CLK I *D sky130_fd_sc_hd__dfrtp_1
*I *1279:CLK I *D sky130_fd_sc_hd__dfrtp_1
*I *1316:X O *D sky130_fd_sc_hd__clkbuf_16
*CAP
1 *1268:CLK 6.07113e-05
2 *1271:CLK 0.000498302
3 *1258:CLK 3.72704e-05
4 *1278:CLK 0.0001884
5 *1277:CLK 0.00034773
6 *1257:CLK 0
7 *1256:CLK 0.000392576
8 *1279:CLK 0.000426884
9 *1316:X 0.000550513
10 *231:57 0.00103108
11 *231:50 0.000612009
12 *231:35 0.00092245
13 *231:33 0.000606608
14 *231:31 0.00122266
15 *231:27 0.000628543
16 *231:12 0.000977397
17 *1256:CLK *1130:A 0
18 *1256:CLK *261:12 0.000121017
19 *1271:CLK *261:16 0
20 *1277:CLK *1256:RESET_B 5.49489e-05
21 *1277:CLK *1389:A 0.000362267
22 *1277:CLK *244:10 0.000135444
23 *1277:CLK *255:52 0
24 *1278:CLK *244:10 1.21258e-05
25 *1279:CLK *1258:RESET_B 0
26 *1279:CLK *245:14 0
27 *231:12 *258:60 0.000199934
28 *231:31 *1133:A0 5.52302e-05
29 *231:33 *261:12 1.1645e-05
30 *231:33 *261:16 0
31 *231:35 *261:12 0.000283819
32 *231:57 *244:10 3.69047e-06
33 data_out[3] *1271:CLK 0
34 *1133:S *1268:CLK 2.37e-05
35 *1133:S *231:31 7.57312e-05
36 *1256:D *1256:CLK 0
37 *1268:D *1268:CLK 3.40405e-05
38 *1268:D *231:12 7.85137e-05
39 *1358:A *231:31 0.000188586
40 *112:31 *1277:CLK 3.60839e-05
41 *112:31 *1279:CLK 0.000142482
*RES
1 *1316:X *231:12 23.0857 
2 *231:12 *1279:CLK 20.5679 
3 *231:12 *231:27 4.5 
4 *231:27 *231:31 14.0714 
5 *231:31 *231:33 2.85714 
6 *231:33 *231:35 9.83929 
7 *231:35 *1256:CLK 21.7464 
8 *231:35 *231:50 6.26786 
9 *231:50 *1257:CLK 9.3 
10 *231:50 *231:57 7.92857 
11 *231:57 *1277:CLK 26.2464 
12 *231:57 *1278:CLK 12.3 
13 *231:33 *1258:CLK 14.3357 
14 *231:31 *1271:CLK 23.0321 
15 *231:27 *1268:CLK 10.7509 
*END

*D_NET *232 0.0101866
*CONN
*I *1299:CLK I *D sky130_fd_sc_hd__dfstp_1
*I *1274:CLK I *D sky130_fd_sc_hd__dfrtp_2
*I *1260:CLK I *D sky130_fd_sc_hd__dfrtp_1
*I *1276:CLK I *D sky130_fd_sc_hd__dfrtp_1
*I *1281:CLK I *D sky130_fd_sc_hd__dfrtp_1
*I *1300:CLK I *D sky130_fd_sc_hd__dfrtp_4
*I *1317:X O *D sky130_fd_sc_hd__clkbuf_16
*CAP
1 *1299:CLK 0.000553136
2 *1274:CLK 0
3 *1260:CLK 9.06324e-05
4 *1276:CLK 0.000518642
5 *1281:CLK 2.00462e-05
6 *1300:CLK 0.000220103
7 *1317:X 0
8 *232:35 0.00084851
9 *232:27 0.000662702
10 *232:25 0.000532027
11 *232:14 0.000904658
12 *232:4 0.000967913
13 *1276:CLK *1137:A0 4.05172e-05
14 *1276:CLK *1217:A1 2.89114e-05
15 *1276:CLK *255:20 0.000185118
16 *1281:CLK *1137:A0 1.02132e-05
17 *1299:CLK *1060:A2 1.58519e-05
18 *1299:CLK *1061:A 5.49489e-05
19 *1299:CLK *1085:C 9.15842e-06
20 *1299:CLK *1189:A2 5.49544e-05
21 *1299:CLK *254:10 0.000524467
22 *1299:CLK *258:60 1.42165e-05
23 *232:14 *1279:RESET_B 0.000103253
24 *232:14 *334:8 0
25 *232:25 *1279:RESET_B 0
26 *232:25 *255:89 0
27 *232:27 *1138:A 0.000114759
28 *232:35 *1137:A0 0.000370487
29 *232:35 *1137:A1 0.000227539
30 *232:35 *1138:A 0.000186355
31 *232:35 *255:20 9.99853e-05
32 *232:35 *255:40 0.000129595
33 *1060:B1 *1299:CLK 0.000111842
34 *1063:A2 *232:14 0
35 *1137:S *232:35 1.21289e-05
36 *1167:B *1299:CLK 4.72818e-05
37 *1167:B *232:14 1.19309e-05
38 *1197:B1 *1299:CLK 0.000322829
39 *1197:B1 *232:14 0
40 *1204:S *1260:CLK 0.000195376
41 *1204:S *1276:CLK 1.92905e-05
42 *1218:A *1276:CLK 0
43 *1274:D *232:14 3.79467e-05
44 *1299:D *1299:CLK 2.84026e-05
45 *1300:D *1300:CLK 0.000108615
46 *1300:D *232:14 0
47 *1317:A *1299:CLK 5.52302e-05
48 *1339:A *232:27 0
49 *1339:A *232:35 0.000188586
50 *93:14 *232:25 0
51 *93:18 *232:27 0
52 *93:33 *1260:CLK 0.000130718
53 *93:33 *1276:CLK 0.000578447
54 *93:40 *1276:CLK 0.00021081
55 *230:41 *1299:CLK 0.00063843
*RES
1 *1317:X *232:4 9.3 
2 *232:4 *232:14 16.2857 
3 *232:14 *1300:CLK 13.5321 
4 *232:14 *232:25 9.48214 
5 *232:25 *232:27 4.98214 
6 *232:27 *232:35 13.7679 
7 *232:35 *1281:CLK 9.72857 
8 *232:35 *1276:CLK 31.175 
9 *232:27 *1260:CLK 17.2107 
10 *232:25 *1274:CLK 13.8 
11 *232:4 *1299:CLK 33.5857 
*END

*D_NET *233 0.00879959
*CONN
*I *1307:CLK I *D sky130_fd_sc_hd__dfrtp_1
*I *1303:CLK I *D sky130_fd_sc_hd__dfrtp_1
*I *1305:CLK I *D sky130_fd_sc_hd__dfrtp_1
*I *1263:CLK I *D sky130_fd_sc_hd__dfrtp_2
*I *1298:CLK I *D sky130_fd_sc_hd__dfxtp_1
*I *1297:CLK I *D sky130_fd_sc_hd__dfxtp_1
*I *1267:CLK I *D sky130_fd_sc_hd__dfrtp_2
*I *1269:CLK I *D sky130_fd_sc_hd__dfrtp_4
*I *1270:CLK I *D sky130_fd_sc_hd__dfrtp_2
*I *1318:X O *D sky130_fd_sc_hd__clkbuf_16
*CAP
1 *1307:CLK 0.000369146
2 *1303:CLK 0.000106913
3 *1305:CLK 0
4 *1263:CLK 0.000298543
5 *1298:CLK 0
6 *1297:CLK 3.70921e-05
7 *1267:CLK 8.43397e-05
8 *1269:CLK 0
9 *1270:CLK 0.000315351
10 *1318:X 0.000368098
11 *233:97 0.00107362
12 *233:86 0.000859327
13 *233:71 0.00110747
14 *233:60 0.000979579
15 *233:45 0.000720065
16 *233:34 0.000445201
17 *233:12 0.000507602
18 *233:10 0.000670663
19 *1263:CLK *1267:RESET_B 0.000169468
20 *1263:CLK *338:10 0
21 *1270:CLK *261:16 0
22 *1307:CLK *239:12 4.0698e-05
23 *233:12 *261:16 0
24 *233:45 *1297:D 3.34295e-05
25 *233:45 *261:16 0
26 *233:60 *1297:D 0.000226021
27 *233:71 *1298:D 1.64343e-05
28 *233:71 *338:10 6.21042e-05
29 *233:97 *1242:A1 8.16036e-05
30 *1243:A *233:86 0
31 *1243:A *233:97 7.58664e-05
32 *1263:D *1263:CLK 3.27612e-05
33 *1303:D *1303:CLK 2.89114e-05
34 *1303:D *1307:CLK 6.01956e-05
35 *1303:D *233:97 2.90958e-05
36 *114:71 *233:97 0
*RES
1 *1318:X *233:10 19.2821 
2 *233:10 *233:12 3.16071 
3 *233:12 *1270:CLK 19.4429 
4 *233:12 *1269:CLK 13.8 
5 *233:10 *233:34 1.94643 
6 *233:34 *1267:CLK 15.1571 
7 *233:34 *233:45 4.67857 
8 *233:45 *1297:CLK 14.3357 
9 *233:45 *233:60 12.4107 
10 *233:60 *1298:CLK 9.3 
11 *233:60 *233:71 13.2679 
12 *233:71 *1263:CLK 19.6571 
13 *233:71 *233:86 8.875 
14 *233:86 *1305:CLK 9.3 
15 *233:86 *233:97 16.0357 
16 *233:97 *1303:CLK 15.5679 
17 *233:97 *1307:CLK 20.6571 
*END

*D_NET *234 0.0126436
*CONN
*I *1301:CLK I *D sky130_fd_sc_hd__dfrtp_4
*I *1254:CLK I *D sky130_fd_sc_hd__dfrtp_1
*I *1309:CLK I *D sky130_fd_sc_hd__dfrtp_1
*I *1308:CLK I *D sky130_fd_sc_hd__dfrtp_1
*I *1310:CLK I *D sky130_fd_sc_hd__dfrtp_1
*I *1306:CLK I *D sky130_fd_sc_hd__dfrtp_1
*I *1264:CLK I *D sky130_fd_sc_hd__dfrtp_2
*I *1319:X O *D sky130_fd_sc_hd__clkbuf_16
*CAP
1 *1301:CLK 0.000994558
2 *1254:CLK 0.000789098
3 *1309:CLK 2.22847e-05
4 *1308:CLK 3.55196e-05
5 *1310:CLK 0.000703777
6 *1306:CLK 0
7 *1264:CLK 8.77338e-05
8 *1319:X 0
9 *234:62 0.00140287
10 *234:47 0.000751753
11 *234:36 0.00117591
12 *234:23 0.000747962
13 *234:10 0.000830332
14 *234:4 0.00133659
15 *1254:CLK *1293:RESET_B 0
16 *1254:CLK *357:8 6.78055e-06
17 *1264:CLK *1263:RESET_B 6.5513e-05
18 *1301:CLK *1050:A 5.33005e-05
19 *1301:CLK *1050:C_N 5.50052e-05
20 *1301:CLK *1154:A 4.60235e-05
21 *1301:CLK *1154:B 0.000465317
22 *1301:CLK *1154:C 3.46464e-05
23 *1301:CLK *259:12 0.000373955
24 *1301:CLK *259:19 0.000414668
25 *1308:CLK *1090:A0 6.05161e-06
26 *1308:CLK *351:6 2.59355e-05
27 *234:10 *259:80 0
28 *234:23 *1303:RESET_B 0
29 *234:23 *259:80 0
30 *234:36 *1090:A0 0
31 *234:36 *1090:A2 0.000211249
32 *234:36 *1305:RESET_B 7.53317e-05
33 *234:36 *1306:RESET_B 4.46186e-06
34 *234:36 *353:6 5.71472e-05
35 *234:47 *1090:A0 0
36 *234:47 *1361:A 5.66157e-05
37 *234:62 *1246:A1 0.000142856
38 *234:62 *1359:A 0
39 *234:62 *1361:A 0.000197615
40 *1155:B *1301:CLK 0.000143375
41 *1157:B1 *1301:CLK 3.08664e-05
42 *1245:A *234:23 7.8327e-05
43 *1245:A *234:36 0
44 *1246:S *234:62 0.000347835
45 *1264:D *234:10 0.000100006
46 *1306:D *234:36 3.0285e-05
47 *1309:D *1254:CLK 1.83053e-05
48 *26:16 *1301:CLK 0
49 *84:14 *1301:CLK 4.45307e-05
50 *114:71 *234:23 0
51 *151:60 *234:10 3.54498e-05
52 *159:6 *1301:CLK 5.88534e-05
53 *230:20 *1301:CLK 0
54 *230:90 *1301:CLK 0.000584866
*RES
1 *1319:X *234:4 9.3 
2 *234:4 *234:10 9.82143 
3 *234:10 *1264:CLK 15.5679 
4 *234:10 *234:23 11.9107 
5 *234:23 *1306:CLK 9.3 
6 *234:23 *234:36 12.1964 
7 *234:36 *1310:CLK 25.0143 
8 *234:36 *234:47 2.25 
9 *234:47 *1308:CLK 14.3357 
10 *234:47 *234:62 16.3393 
11 *234:62 *1309:CLK 9.72857 
12 *234:62 *1254:CLK 18.8 
13 *234:4 *1301:CLK 43.0857 
*END

*D_NET *235 0.00827931
*CONN
*I *1273:CLK I *D sky130_fd_sc_hd__dfrtp_1
*I *1280:CLK I *D sky130_fd_sc_hd__dfrtp_1
*I *1259:CLK I *D sky130_fd_sc_hd__dfrtp_1
*I *1255:CLK I *D sky130_fd_sc_hd__dfrtp_1
*I *1272:CLK I *D sky130_fd_sc_hd__dfrtp_2
*I *1287:CLK I *D sky130_fd_sc_hd__dfrtp_1
*I *1283:CLK I *D sky130_fd_sc_hd__dfrtp_1
*I *1282:CLK I *D sky130_fd_sc_hd__dfrtp_1
*I *1320:X O *D sky130_fd_sc_hd__clkbuf_16
*CAP
1 *1273:CLK 2.91903e-05
2 *1280:CLK 0.000297623
3 *1259:CLK 8.04396e-05
4 *1255:CLK 0
5 *1272:CLK 0.00010377
6 *1287:CLK 0.000682897
7 *1283:CLK 9.07935e-05
8 *1282:CLK 0
9 *1320:X 0.000196286
10 *235:76 0.000449026
11 *235:68 0.000908451
12 *235:66 0.000512453
13 *235:27 0.00155282
14 *235:21 0.000976235
15 *235:10 0.000237427
16 *235:6 0.000581403
17 *1259:CLK *1136:A 5.71472e-05
18 *1273:CLK *311:8 1.84776e-05
19 *1287:CLK *257:28 0.000100248
20 *1287:CLK *335:10 0
21 *235:27 *1272:RESET_B 1.76135e-05
22 *235:27 *257:28 5.5764e-05
23 *235:27 *258:38 0
24 *235:66 *1220:A1 0.000142152
25 *235:66 *256:62 5.61965e-05
26 *235:68 *256:53 4.01458e-05
27 *235:68 *256:62 0.000111712
28 *235:76 *1136:A 1.97695e-05
29 *235:76 *1372:A 0.000100969
30 *235:76 *256:31 0.000139913
31 *235:76 *256:53 3.06406e-05
32 *1220:A0 *235:6 5.33005e-05
33 *1220:A0 *235:66 9.83442e-05
34 *1220:S *235:6 1.98839e-05
35 *1220:S *235:66 1.64621e-05
36 *1223:A0 *235:10 0.00019408
37 *1223:A0 *235:21 0.000107454
38 *1223:A0 *235:27 0
39 *1224:A *235:27 0
40 *1259:D *1259:CLK 3.18676e-05
41 *1272:D *235:27 2.84183e-05
42 *1280:D *1280:CLK 3.24707e-05
43 *1283:D *1283:CLK 7.62237e-05
44 *1321:A *235:27 0
45 *93:65 *235:10 3.12359e-05
*RES
1 *1320:X *235:6 12.3 
2 *235:6 *235:10 7.35714 
3 *235:10 *1282:CLK 13.8 
4 *235:10 *235:21 6.44643 
5 *235:21 *235:27 16.5357 
6 *235:27 *1283:CLK 15.5857 
7 *235:27 *1287:CLK 25.6214 
8 *235:21 *1272:CLK 11.1036 
9 *235:6 *235:66 9.33929 
10 *235:66 *235:68 5.58929 
11 *235:68 *235:76 11.5893 
12 *235:76 *1255:CLK 9.3 
13 *235:76 *1259:CLK 11.0679 
14 *235:68 *1280:CLK 17.5321 
15 *235:66 *1273:CLK 14.3357 
*END

*D_NET *236 0.0069351
*CONN
*I *1289:CLK I *D sky130_fd_sc_hd__dfrtp_1
*I *1275:CLK I *D sky130_fd_sc_hd__dfstp_1
*I *1288:CLK I *D sky130_fd_sc_hd__dfrtp_1
*I *1262:CLK I *D sky130_fd_sc_hd__dfrtp_1
*I *1302:CLK I *D sky130_fd_sc_hd__dfrtp_4
*I *1261:CLK I *D sky130_fd_sc_hd__dfrtp_1
*I *1321:X O *D sky130_fd_sc_hd__clkbuf_16
*CAP
1 *1289:CLK 0.000184339
2 *1275:CLK 0.00029771
3 *1288:CLK 0
4 *1262:CLK 0
5 *1302:CLK 0.000284054
6 *1261:CLK 0.000154225
7 *1321:X 5.54804e-05
8 *236:62 0.000960138
9 *236:51 0.000886347
10 *236:27 0.0003257
11 *236:25 0.000667105
12 *236:8 0.000426907
13 *1275:CLK *249:31 5.20669e-05
14 *1289:CLK *343:12 6.4671e-05
15 *1302:CLK *1141:A0 0.000140243
16 *1302:CLK *1141:A1 6.15436e-05
17 *236:25 *257:44 8.52458e-05
18 *236:51 *1141:A1 0.000124137
19 *236:62 *1288:RESET_B 0.000107776
20 *236:62 *343:12 2.84026e-05
21 *1116:A_N *1289:CLK 0
22 *1140:A *1261:CLK 4.01501e-05
23 *1140:A *236:25 2.00751e-05
24 *1261:D *1261:CLK 0.000215151
25 *1261:D *236:25 6.91157e-05
26 *1262:D *1302:CLK 0.000139337
27 *1262:D *236:27 6.50098e-05
28 *1275:D *1275:CLK 0.000100037
29 *112:86 *1302:CLK 0.000129867
30 *112:99 *1261:CLK 0.000298273
31 *112:99 *1302:CLK 0.00013136
32 *112:99 *236:25 0.000530771
33 *112:99 *236:27 7.22686e-05
34 *112:99 *236:51 2.59355e-05
35 *229:20 *236:51 0.000191661
*RES
1 *1321:X *236:8 14.3357 
2 *236:8 *1261:CLK 18.9429 
3 *236:8 *236:25 11.3036 
4 *236:25 *236:27 1.35714 
5 *236:27 *1302:CLK 16.8357 
6 *236:27 *1262:CLK 9.3 
7 *236:25 *236:51 18.3393 
8 *236:51 *1288:CLK 9.3 
9 *236:51 *236:62 13.2679 
10 *236:62 *1275:CLK 19.425 
11 *236:62 *1289:CLK 17.0143 
*END

*D_NET *237 0.00563956
*CONN
*I *1296:CLK I *D sky130_fd_sc_hd__dfrtp_1
*I *1304:CLK I *D sky130_fd_sc_hd__dfrtp_1
*I *1295:CLK I *D sky130_fd_sc_hd__dfrtp_2
*I *1294:CLK I *D sky130_fd_sc_hd__dfrtp_4
*I *1265:CLK I *D sky130_fd_sc_hd__dfrtp_1
*I *1284:CLK I *D sky130_fd_sc_hd__dfrtp_4
*I *1266:CLK I *D sky130_fd_sc_hd__dfrtp_1
*I *1286:CLK I *D sky130_fd_sc_hd__dfrtp_1
*I *1322:X O *D sky130_fd_sc_hd__clkbuf_16
*CAP
1 *1296:CLK 0.000382549
2 *1304:CLK 0.000170147
3 *1295:CLK 2.52229e-05
4 *1294:CLK 2.31022e-05
5 *1265:CLK 0.000275934
6 *1284:CLK 0
7 *1266:CLK 6.17105e-05
8 *1286:CLK 0.000249984
9 *1322:X 0.000219616
10 *237:68 0.000693246
11 *237:57 0.00043492
12 *237:41 0.000299036
13 *237:39 0.000386506
14 *237:25 0.000151105
15 *237:10 0.000661014
16 *237:8 0.00065861
17 *1265:CLK *260:52 0.000224575
18 *1286:CLK *240:29 0
19 *1294:CLK *260:52 4.25684e-05
20 *1296:CLK *263:40 0
21 *1296:CLK *348:67 6.28241e-05
22 *1304:CLK *349:38 0.00013073
23 *237:10 *240:29 0
24 *237:10 *263:40 0
25 *237:10 *311:20 0
26 *237:57 *263:40 0
27 *237:68 *1234:A1 0
28 *237:68 *263:40 0
29 *1091:B *1296:CLK 0
30 *1234:A3 *237:57 0
31 *1235:A1 *237:57 5.03694e-05
32 *1235:A1 *237:68 2.8266e-06
33 *1237:B *1296:CLK 0
34 *1237:B *237:68 0
35 *1284:D *237:25 3.69047e-06
36 *1294:D *237:57 3.9733e-05
37 *1295:D *1295:CLK 5.52238e-05
38 *1296:D *1296:CLK 0.000100831
39 *1315:A *1286:CLK 0.000176866
40 *1315:A *237:10 1.08716e-05
41 *1323:A *237:10 0
42 *230:126 *237:8 4.57492e-05
*RES
1 *1322:X *237:8 16.3893 
2 *237:8 *237:10 5.58929 
3 *237:10 *1286:CLK 18.5321 
4 *237:10 *237:25 5.85714 
5 *237:25 *1266:CLK 10.2464 
6 *237:25 *1284:CLK 9.3 
7 *237:8 *237:39 1.94643 
8 *237:39 *237:41 4.5 
9 *237:41 *1265:CLK 14.3536 
10 *237:41 *1294:CLK 9.83571 
11 *237:39 *237:57 4.98214 
12 *237:57 *1295:CLK 14.3357 
13 *237:57 *237:68 2.25 
14 *237:68 *1304:CLK 17.2107 
15 *237:68 *1296:CLK 20.8536 
*END

*D_NET *238 0.0116132
*CONN
*I *1314:CLK I *D sky130_fd_sc_hd__dfrtp_1
*I *1293:CLK I *D sky130_fd_sc_hd__dfrtp_1
*I *1311:CLK I *D sky130_fd_sc_hd__dfstp_1
*I *1313:CLK I *D sky130_fd_sc_hd__dfrtp_1
*I *1291:CLK I *D sky130_fd_sc_hd__dfrtp_1
*I *1312:CLK I *D sky130_fd_sc_hd__dfrtp_2
*I *1292:CLK I *D sky130_fd_sc_hd__dfrtp_1
*I *1290:CLK I *D sky130_fd_sc_hd__dfrtp_1
*I *1285:CLK I *D sky130_fd_sc_hd__dfrtp_2
*I *1323:X O *D sky130_fd_sc_hd__clkbuf_16
*CAP
1 *1314:CLK 0.000213706
2 *1293:CLK 0.000213672
3 *1311:CLK 0
4 *1313:CLK 0.000103221
5 *1291:CLK 0.000110818
6 *1312:CLK 2.52229e-05
7 *1292:CLK 8.24308e-05
8 *1290:CLK 0.000336478
9 *1285:CLK 0
10 *1323:X 0.00024383
11 *238:97 0.00138626
12 *238:86 0.00137521
13 *238:71 0.000807687
14 *238:60 0.000547577
15 *238:49 0.000626252
16 *238:38 0.000619091
17 *238:23 0.00112787
18 *238:12 0.000950971
19 *1312:CLK *1312:D 5.52238e-05
20 *1314:CLK *1077:A 3.47927e-05
21 *1314:CLK *1088:A 0
22 *1314:CLK *359:19 0
23 *238:12 *340:30 0.000135988
24 *238:12 *340:32 3.75959e-05
25 *238:23 *1065:A_N 3.06035e-05
26 *238:23 *1098:A 6.6066e-06
27 *238:23 *1285:RESET_B 4.70821e-05
28 *238:23 *340:8 0.000282165
29 *238:38 *1285:RESET_B 0
30 *238:49 *1285:RESET_B 0
31 *238:60 *1072:A1 0
32 *238:60 *361:23 0
33 *238:71 *361:23 0
34 *238:86 *1368:A 6.93626e-06
35 *238:97 *1068:A 9.11695e-05
36 *238:97 *1068:B_N 2.89016e-05
37 *238:97 *359:6 1.66955e-05
38 *1069:A2 *238:86 0.000219627
39 *1069:B1_N *1314:CLK 1.24368e-05
40 *1100:C *238:12 0.000170893
41 *1125:A *1292:CLK 6.05161e-06
42 *1125:B *1290:CLK 2.38651e-06
43 *1125:B *1292:CLK 5.49489e-05
44 *1125:B *238:38 3.97863e-05
45 *1125:B *238:49 1.00477e-05
46 *1125:C *1292:CLK 6.61951e-05
47 *1126:A *1292:CLK 3.08664e-05
48 *1226:A1 *1314:CLK 5.49995e-05
49 *1226:A2 *1314:CLK 1.6806e-05
50 *1227:A2 *1314:CLK 0
51 *1227:B1 *1314:CLK 5.75528e-05
52 *1290:D *1290:CLK 1.83663e-05
53 *1293:D *1293:CLK 0.000125872
54 *1311:D *238:86 5.52238e-05
55 *1311:D *238:97 0.000103283
56 *1313:D *1313:CLK 1.83136e-05
57 *97:14 *1292:CLK 3.12534e-05
58 *100:10 *1314:CLK 0.000169083
59 *119:10 *238:49 0
60 *119:10 *238:60 0
61 *119:12 *238:49 0
62 *120:10 *1290:CLK 0.000244721
63 *120:10 *238:38 8.91326e-05
64 *120:16 *1290:CLK 0.00038943
65 *229:20 *238:12 8.18529e-05
*RES
1 *1323:X *238:12 23.6214 
2 *238:12 *1285:CLK 9.3 
3 *238:12 *238:23 13.9821 
4 *238:23 *1290:CLK 22.4786 
5 *238:23 *238:38 1.94643 
6 *238:38 *1292:CLK 15.9786 
7 *238:38 *238:49 7.41071 
8 *238:49 *1312:CLK 14.3357 
9 *238:49 *238:60 2.55357 
10 *238:60 *1291:CLK 15.5679 
11 *238:60 *238:71 4.98214 
12 *238:71 *1313:CLK 15.5679 
13 *238:71 *238:86 12.4464 
14 *238:86 *1311:CLK 9.3 
15 *238:86 *238:97 12.375 
16 *238:97 *1293:CLK 13.1393 
17 *238:97 *1314:CLK 22.7286 
*END

*D_NET *239 0.00362787
*CONN
*I *1238:A0 I *D sky130_fd_sc_hd__mux2_1
*I *1375:X O *D sky130_fd_sc_hd__clkbuf_1
*CAP
1 *1238:A0 0
2 *1375:X 0.00179358
3 *239:12 0.00179358
4 *1307:CLK *239:12 4.0698e-05
5 *1307:D *239:12 0
*RES
1 *1375:X *239:12 41.0679 
2 *239:12 *1238:A0 9.3 
*END

*D_NET *240 0.00798835
*CONN
*I *1331:A I *D sky130_fd_sc_hd__clkbuf_2
*I *1327:A I *D sky130_fd_sc_hd__buf_2
*I *1376:X O *D sky130_fd_sc_hd__buf_1
*CAP
1 *1331:A 0
2 *1327:A 0.000180245
3 *1376:X 0.000427171
4 *240:29 0.00166926
5 *240:10 0.00227668
6 *1327:A *1372:A 5.71472e-05
7 *1327:A *258:8 0.000119203
8 *240:10 *1324:A 0
9 *240:10 *1356:A 0
10 *240:10 *258:10 0
11 *240:29 *1190:A1 0.000227021
12 *240:29 *1301:RESET_B 0.000201654
13 *240:29 *1302:RESET_B 8.91963e-06
14 *240:29 *1329:A 1.82029e-05
15 *240:29 *258:10 0
16 *240:29 *258:38 0
17 *240:29 *263:21 2.77143e-05
18 *240:29 *311:12 0.00020815
19 *240:29 *311:20 0.00136023
20 *1083:A *240:29 0.000189729
21 *1083:B *240:29 2.16573e-05
22 *1083:C *240:29 1.12578e-05
23 *1084:B1 *240:29 0.000263512
24 *1190:B1 *240:29 6.82179e-05
25 *1193:S *240:29 0.000108314
26 *1194:A *240:29 0.000168629
27 *1199:B *240:29 0
28 *1200:A0 *240:10 3.92757e-05
29 *1200:S *240:10 2.91887e-05
30 *1200:S *240:29 4.38511e-05
31 *1272:D *240:29 8.00806e-05
32 *1286:CLK *240:29 0
33 *1315:A *240:29 0
34 *93:57 *1327:A 0.000183035
35 *237:10 *240:29 0
*RES
1 *1376:X *240:10 19.9429 
2 *240:10 *1327:A 18.8714 
3 *240:10 *240:29 46.9821 
4 *240:29 *1331:A 9.3 
*END

*D_NET *241 0.000813696
*CONN
*I *1297:D I *D sky130_fd_sc_hd__dfxtp_1
*I *1377:X O *D sky130_fd_sc_hd__clkbuf_1
*CAP
1 *1297:D 0.000261358
2 *1377:X 0.000261358
3 *1297:D *261:16 0
4 *1377:A *1297:D 3.15282e-05
5 *233:45 *1297:D 3.34295e-05
6 *233:60 *1297:D 0.000226021
*RES
1 *1377:X *1297:D 33.408 
*END

*D_NET *242 0.00322518
*CONN
*I *1387:A I *D sky130_fd_sc_hd__clkbuf_4
*I *1127:A1 I *D sky130_fd_sc_hd__mux2_1
*I *1255:Q O *D sky130_fd_sc_hd__dfrtp_1
*CAP
1 *1387:A 0.00042528
2 *1127:A1 0.000105327
3 *1255:Q 0.000402371
4 *242:12 0.000932978
5 *1127:A1 *1127:A0 5.65955e-05
6 *1127:A1 *270:6 0.000128523
7 *1387:A *1128:A 0.00010096
8 *1387:A *270:6 5.49544e-05
9 *242:12 *1200:A1 0.000269466
10 *242:12 *256:31 1.15484e-05
11 data_out[0] *1387:A 0.000230482
12 *1127:S *1127:A1 2.36643e-05
13 *1127:S *1387:A 0.000301509
14 *1373:A *1387:A 0.00018152
*RES
1 *1255:Q *242:12 23.9607 
2 *242:12 *1127:A1 11.4786 
3 *242:12 *1387:A 20.175 
*END

*D_NET *243 0.00134102
*CONN
*I *1129:A1 I *D sky130_fd_sc_hd__mux2_1
*I *1388:A I *D sky130_fd_sc_hd__clkbuf_4
*I *1256:Q O *D sky130_fd_sc_hd__dfrtp_1
*CAP
1 *1129:A1 2.33018e-05
2 *1388:A 0.000316996
3 *1256:Q 0.000212418
4 *243:12 0.000552716
5 *1129:A1 *1129:A0 2.39313e-05
6 *1388:A *1129:A0 1.33343e-05
7 *1388:A *1130:A 9.24825e-05
8 *243:12 *1130:A 0
9 *243:12 *1256:RESET_B 7.39707e-05
10 *243:12 *1389:A 0
11 *1351:A *1388:A 3.18676e-05
*RES
1 *1256:Q *243:12 21.3 
2 *243:12 *1388:A 15.6036 
3 *243:12 *1129:A1 9.83571 
*END

*D_NET *244 0.00234096
*CONN
*I *1131:A1 I *D sky130_fd_sc_hd__mux2_1
*I *1389:A I *D sky130_fd_sc_hd__clkbuf_4
*I *1257:Q O *D sky130_fd_sc_hd__dfrtp_1
*CAP
1 *1131:A1 6.35069e-05
2 *1389:A 0.000259653
3 *1257:Q 0.000119041
4 *244:10 0.000442201
5 *1131:A1 *1131:A0 4.82865e-05
6 *1389:A *1129:A0 9.99853e-05
7 *1129:S *1389:A 0.000180554
8 *1131:S *1131:A1 4.63618e-05
9 *1277:CLK *1389:A 0.000362267
10 *1277:CLK *244:10 0.000135444
11 *1278:CLK *244:10 1.21258e-05
12 *112:31 *244:10 0.000135444
13 *112:33 *1389:A 0.000422361
14 *112:33 *244:10 1.00332e-05
15 *231:57 *244:10 3.69047e-06
16 *243:12 *1389:A 0
*RES
1 *1257:Q *244:10 16.2821 
2 *244:10 *1389:A 22.1571 
3 *244:10 *1131:A1 15.175 
*END

*D_NET *245 0.00184619
*CONN
*I *1390:A I *D sky130_fd_sc_hd__clkbuf_4
*I *1133:A1 I *D sky130_fd_sc_hd__mux2_1
*I *1258:Q O *D sky130_fd_sc_hd__dfrtp_1
*CAP
1 *1390:A 0.000491248
2 *1133:A1 0
3 *1258:Q 0.000241114
4 *245:14 0.000732362
5 *245:14 *1133:A0 0.000279921
6 *245:14 *1134:A 0
7 *1279:CLK *245:14 0
8 *1358:A *1390:A 9.22948e-05
9 *1358:A *245:14 9.25014e-06
*RES
1 *1258:Q *245:14 18.3714 
2 *245:14 *1133:A1 13.8 
3 *245:14 *1390:A 21.425 
*END

*D_NET *246 0.00375817
*CONN
*I *1391:A I *D sky130_fd_sc_hd__clkbuf_4
*I *1135:A1 I *D sky130_fd_sc_hd__mux2_1
*I *1259:Q O *D sky130_fd_sc_hd__dfrtp_1
*CAP
1 *1391:A 0.00106046
2 *1135:A1 0.00063563
3 *1259:Q 0
4 *246:4 0.00169609
5 *1135:A1 *1136:A 0.000276211
6 *1344:A *1135:A1 7.95313e-05
7 *1378:A *1391:A 1.02504e-05
*RES
1 *1259:Q *246:4 9.3 
2 *246:4 *1135:A1 27.55 
3 *246:4 *1391:A 31.175 
*END

*D_NET *247 0.00141754
*CONN
*I *1338:A I *D sky130_fd_sc_hd__dlygate4sd3_1
*I *1392:A I *D sky130_fd_sc_hd__clkbuf_4
*I *1260:Q O *D sky130_fd_sc_hd__dfrtp_1
*CAP
1 *1338:A 0.000106951
2 *1392:A 0.000312057
3 *1260:Q 0
4 *247:4 0.000419008
5 *1338:A *1260:RESET_B 5.03772e-05
6 *1392:A *1137:A1 0.000100831
7 *1392:A *255:20 1.17968e-05
8 *1392:A *255:40 0
9 *1392:A *255:83 2.49484e-05
10 *1204:S *1338:A 0.000313197
11 *1281:D *1392:A 0
12 *1339:A *1392:A 0
13 *93:33 *1338:A 7.83725e-05
*RES
1 *1260:Q *247:4 9.3 
2 *247:4 *1392:A 23.8893 
3 *247:4 *1338:A 13.0321 
*END

*D_NET *248 0.00637273
*CONN
*I *1393:A I *D sky130_fd_sc_hd__clkbuf_4
*I *1139:A1 I *D sky130_fd_sc_hd__mux2_1
*I *1261:Q O *D sky130_fd_sc_hd__dfrtp_1
*CAP
1 *1393:A 0
2 *1139:A1 0.000386751
3 *1261:Q 0
4 *248:25 0.00192792
5 *248:4 0.00231467
6 *1139:A1 *1139:A0 5.52238e-05
7 *1139:A1 *256:102 0.000174129
8 *1139:A1 *256:116 2.8266e-06
9 *248:25 *1290:RESET_B 0
10 *248:25 *249:31 0.00145127
11 *248:25 *343:25 0
12 tx_out *248:25 5.99442e-05
13 *136:29 *248:25 0
*RES
1 *1261:Q *248:4 9.3 
2 *248:4 *1139:A1 24.0679 
3 *248:4 *248:25 48.875 
4 *248:25 *1393:A 9.3 
*END

*D_NET *249 0.00866314
*CONN
*I *1394:A I *D sky130_fd_sc_hd__buf_2
*I *1141:A1 I *D sky130_fd_sc_hd__mux2_1
*I *1262:Q O *D sky130_fd_sc_hd__dfrtp_1
*CAP
1 *1394:A 0
2 *1141:A1 0.000909305
3 *1262:Q 0
4 *249:31 0.00206888
5 *249:4 0.00297818
6 *1141:A1 *1141:A0 5.49995e-05
7 *1141:A1 *1262:RESET_B 4.83849e-05
8 *1141:A1 *1275:SET_B 4.08637e-05
9 *1141:A1 *256:116 3.14003e-05
10 *249:31 *1275:SET_B 2.33614e-05
11 *249:31 *1290:RESET_B 0
12 *249:31 *1291:RESET_B 0
13 *249:31 *260:121 0
14 *249:31 *344:18 4.48206e-05
15 data_out[6] *249:31 0.000122453
16 *1126:A *249:31 0
17 *1262:D *1141:A1 0.000265445
18 *1275:CLK *249:31 5.20669e-05
19 *1275:D *249:31 0.000179623
20 *1302:CLK *1141:A1 6.15436e-05
21 *229:20 *1141:A1 7.59982e-05
22 *229:20 *249:31 0.000130403
23 *236:51 *1141:A1 0.000124137
24 *248:25 *249:31 0.00145127
*RES
1 *1262:Q *249:4 9.3 
2 *249:4 *1141:A1 30.5679 
3 *249:4 *249:31 49.9464 
4 *249:31 *1394:A 9.3 
*END

*D_NET *250 0.0164555
*CONN
*I *1240:A0 I *D sky130_fd_sc_hd__mux2_1
*I *1378:X O *D sky130_fd_sc_hd__buf_1
*CAP
1 *1240:A0 0.000823033
2 *1378:X 0.00115458
3 *250:28 0.00266885
4 *250:20 0.00432892
5 *250:12 0.00363768
6 *1240:A0 *1090:A3 8.08022e-05
7 *1240:A0 *1090:S0 0.000103974
8 *1240:A0 *1304:RESET_B 0.000195228
9 *1240:A0 *1370:A 5.91296e-05
10 *1240:A0 *259:19 0.000285117
11 *1240:A0 *259:26 5.92727e-05
12 *1240:A0 *349:23 0
13 *250:28 *1084:B2 0
14 *250:28 *1217:A1 8.00806e-05
15 *250:28 *1356:A 0
16 *250:28 *1370:A 1.25538e-05
17 *250:28 *259:12 0.000168002
18 *250:28 *259:19 2.4292e-05
19 *250:28 *336:38 1.92303e-05
20 *1076:A *250:28 8.00806e-05
21 *1144:A *250:28 0.000146261
22 *1207:D *250:28 0.000217368
23 *1216:A *250:28 0.00023961
24 *1217:S *250:28 1.17968e-05
25 *1218:A *250:20 0
26 *1218:A *250:28 0
27 *1241:A *1240:A0 0
28 *1254:D *1240:A0 0
29 *1376:A *250:20 0
30 *26:16 *250:28 0
31 *104:81 *1240:A0 0
32 *109:21 *250:28 0.000137695
33 *109:32 *250:28 0.000540534
34 *109:51 *250:28 0.000154548
35 *110:55 *250:28 0
36 *112:16 *250:28 5.23566e-05
37 *151:8 *250:28 0.000155832
38 *151:29 *1240:A0 1.00375e-05
39 *151:29 *250:28 0.000458422
40 *184:10 *250:28 0.000174835
41 *184:12 *250:28 7.50601e-05
42 *184:14 *250:28 0.00018488
43 *184:26 *250:28 5.79792e-05
44 *199:10 *250:28 5.74242e-05
*RES
1 *1378:X *250:12 31.7821 
2 *250:12 *250:20 34.2232 
3 *250:20 *250:28 44.4464 
4 *250:28 *1240:A0 31.7911 
*END

*D_NET *251 0.000556731
*CONN
*I *1395:A I *D sky130_fd_sc_hd__clkbuf_4
*I *1254:Q O *D sky130_fd_sc_hd__dfrtp_1
*CAP
1 *1395:A 0.000156678
2 *1254:Q 0.000156678
3 *1395:A *1293:RESET_B 0.00014183
4 *1395:A *252:12 0.000101545
*RES
1 *1254:Q *1395:A 30.2964 
*END

*D_NET *252 0.00878869
*CONN
*I *1333:A I *D sky130_fd_sc_hd__dlygate4sd3_1
*I *1226:B1_N I *D sky130_fd_sc_hd__a21boi_1
*I *1396:A I *D sky130_fd_sc_hd__clkbuf_4
*I *1293:Q O *D sky130_fd_sc_hd__dfrtp_1
*CAP
1 *1333:A 0
2 *1226:B1_N 0.000364141
3 *1396:A 0
4 *1293:Q 0.000146151
5 *252:23 0.000585338
6 *252:14 0.00231298
7 *252:12 0.00268032
8 *1226:B1_N *1250:A0 0.000123068
9 *252:14 *1246:A0 0.00123778
10 *252:14 *1248:A0 0.000185124
11 *252:14 *1250:A1 5.52302e-05
12 *252:14 *1347:A 0.000102197
13 *252:14 *1359:A 0.000185547
14 *1381:A *252:14 5.65955e-05
15 *1395:A *252:12 0.000101545
16 *114:25 *252:12 0
17 *114:25 *252:14 0.000117621
18 *114:25 *252:23 0.000535051
*RES
1 *1293:Q *252:12 20.9786 
2 *252:12 *252:14 43.6607 
3 *252:14 *1396:A 9.3 
4 *252:12 *252:23 5.48214 
5 *252:23 *1226:B1_N 25.1571 
6 *252:23 *1333:A 9.3 
*END

*D_NET *253 0.000663329
*CONN
*I *1397:A I *D sky130_fd_sc_hd__buf_2
*I *1275:Q O *D sky130_fd_sc_hd__dfstp_1
*CAP
1 *1397:A 0.000331665
2 *1275:Q 0.000331665
*RES
1 *1275:Q *1397:A 23.9839 
*END

*D_NET *254 0.00454017
*CONN
*I *1060:A2 I *D sky130_fd_sc_hd__a22o_1
*I *1085:C I *D sky130_fd_sc_hd__nand3_4
*I *1189:A2 I *D sky130_fd_sc_hd__a21oi_1
*I *1062:A4 I *D sky130_fd_sc_hd__a41o_1
*I *1386:X O *D sky130_fd_sc_hd__clkbuf_2
*CAP
1 *1060:A2 6.21856e-05
2 *1085:C 0.000281714
3 *1189:A2 0.000182112
4 *1062:A4 0.000138548
5 *1386:X 0.000114167
6 *254:10 0.000602734
7 *254:8 0.000563787
8 *254:6 0.000176353
9 *1062:A4 *1061:A 9.25014e-06
10 *1062:A4 *1062:A2 5.41794e-05
11 *1062:A4 *1062:A3 5.52302e-05
12 *1062:A4 *1210:A 5.52238e-05
13 *1062:A4 *324:68 1.62621e-05
14 *1085:C *1060:A1 0.00012342
15 *1085:C *333:54 0
16 *1085:C *335:55 3.45899e-05
17 *254:10 *1061:A 6.73939e-05
18 *254:10 *333:54 0
19 *254:10 *334:33 0.000146474
20 *1060:B1 *1060:A2 2.84109e-05
21 *1060:B1 *1085:C 1.49019e-05
22 *1060:B1 *254:6 1.47872e-05
23 *1060:B2 *1060:A2 2.74752e-06
24 *1060:B2 *1085:C 1.90936e-05
25 *1060:B2 *254:6 5.65955e-05
26 *1196:A1 *1189:A2 2.95726e-05
27 *1196:A3 *1189:A2 6.01291e-05
28 *1196:B1 *1189:A2 5.33005e-05
29 *1197:B1 *1189:A2 0.0002416
30 *1299:CLK *1060:A2 1.58519e-05
31 *1299:CLK *1085:C 9.15842e-06
32 *1299:CLK *1189:A2 5.49544e-05
33 *1299:CLK *254:10 0.000524467
34 *1299:D *1060:A2 5.38444e-06
35 *104:30 *1085:C 3.52915e-05
36 *104:30 *254:6 3.07955e-05
37 *155:10 *1085:C 6.11331e-05
38 *230:41 *1189:A2 0.000598373
*RES
1 *1386:X *254:6 11.4786 
2 *254:6 *254:8 4.5 
3 *254:8 *254:10 7.10714 
4 *254:10 *1062:A4 16.5857 
5 *254:10 *1189:A2 21.0679 
6 *254:8 *1085:C 20.05 
7 *254:6 *1060:A2 10.6929 
*END

*D_NET *255 0.0132456
*CONN
*I *1274:RESET_B I *D sky130_fd_sc_hd__dfrtp_2
*I *1278:RESET_B I *D sky130_fd_sc_hd__dfrtp_1
*I *1300:RESET_B I *D sky130_fd_sc_hd__dfrtp_4
*I *1279:RESET_B I *D sky130_fd_sc_hd__dfrtp_1
*I *1277:RESET_B I *D sky130_fd_sc_hd__dfrtp_1
*I *1258:RESET_B I *D sky130_fd_sc_hd__dfrtp_1
*I *1257:RESET_B I *D sky130_fd_sc_hd__dfrtp_1
*I *1256:RESET_B I *D sky130_fd_sc_hd__dfrtp_1
*I *1260:RESET_B I *D sky130_fd_sc_hd__dfrtp_1
*I *1281:RESET_B I *D sky130_fd_sc_hd__dfrtp_1
*I *1324:X O *D sky130_fd_sc_hd__clkbuf_4
*CAP
1 *1274:RESET_B 0.000114182
2 *1278:RESET_B 0.000330257
3 *1300:RESET_B 0
4 *1279:RESET_B 0.000808368
5 *1277:RESET_B 1.91209e-05
6 *1258:RESET_B 0.000610858
7 *1257:RESET_B 0
8 *1256:RESET_B 0.000843548
9 *1260:RESET_B 0.00051065
10 *1281:RESET_B 8.38842e-06
11 *1324:X 7.42001e-05
12 *255:89 0.00107479
13 *255:85 0.000871194
14 *255:83 0.00062059
15 *255:52 0.00101987
16 *255:40 0.0008886
17 *255:20 0.00104215
18 *255:6 0.000817141
19 *1258:RESET_B *1132:A 0.00010053
20 *1258:RESET_B *1133:A0 4.0342e-06
21 *1258:RESET_B *1134:A 4.79842e-05
22 *1281:RESET_B *1137:A0 1.52723e-05
23 *255:6 *1137:A0 2.15245e-05
24 *255:6 *1356:A 1.72894e-05
25 *255:20 *1137:A0 5.29591e-05
26 *255:20 *1137:A1 0.000100831
27 *255:40 *1138:A 5.71472e-05
28 *255:52 *1130:A 0
29 *255:52 *1132:A 0.000103437
30 *1063:A1 *1279:RESET_B 4.88546e-05
31 *1137:S *1256:RESET_B 0.000338919
32 *1137:S *255:40 0.000784196
33 *1204:S *1260:RESET_B 6.25978e-05
34 *1208:S *1274:RESET_B 1.28239e-05
35 *1208:S *255:83 0.000150096
36 *1211:S *1279:RESET_B 0.000289953
37 *1260:D *255:40 2.27416e-05
38 *1274:D *1278:RESET_B 5.23735e-05
39 *1274:D *1279:RESET_B 0
40 *1274:D *255:85 4.7201e-05
41 *1274:D *255:89 0.000128094
42 *1276:CLK *255:20 0.000185118
43 *1277:CLK *1256:RESET_B 5.49489e-05
44 *1277:CLK *255:52 0
45 *1277:D *1256:RESET_B 5.36426e-05
46 *1279:CLK *1258:RESET_B 0
47 *1279:D *1258:RESET_B 0
48 *1338:A *1260:RESET_B 5.03772e-05
49 *1339:A *255:40 0.000125724
50 *1339:A *255:83 0
51 *1349:A *1258:RESET_B 1.78393e-05
52 *1392:A *255:20 1.17968e-05
53 *1392:A *255:40 0
54 *1392:A *255:83 2.49484e-05
55 *93:33 *1260:RESET_B 0.000142368
56 *93:107 *1279:RESET_B 5.92219e-05
57 *232:14 *1279:RESET_B 0.000103253
58 *232:25 *1279:RESET_B 0
59 *232:25 *255:89 0
60 *232:35 *255:20 9.99853e-05
61 *232:35 *255:40 0.000129595
62 *243:12 *1256:RESET_B 7.39707e-05
*RES
1 *1324:X *255:6 10.6571 
2 *255:6 *1281:RESET_B 0.473214 
3 *255:6 *255:20 14.5 
4 *255:20 *1260:RESET_B 7.02679 
5 *1260:RESET_B *255:40 20.6786 
6 *255:40 *1256:RESET_B 9.9375 
7 *1256:RESET_B *255:52 11.7768 
8 *255:52 *1257:RESET_B 4.5 
9 *255:52 *1258:RESET_B 16.3125 
10 *255:40 *1277:RESET_B 0.366071 
11 *255:20 *255:83 8.875 
12 *255:83 *255:85 3.41071 
13 *255:85 *255:89 10.0893 
14 *255:89 *1279:RESET_B 17.2411 
15 *255:89 *1300:RESET_B 4.5 
16 *255:85 *1278:RESET_B 5.41964 
17 *255:83 *1274:RESET_B 1.61607 
*END

*D_NET *256 0.0122191
*CONN
*I *1275:SET_B I *D sky130_fd_sc_hd__dfstp_1
*I *1262:RESET_B I *D sky130_fd_sc_hd__dfrtp_1
*I *1261:RESET_B I *D sky130_fd_sc_hd__dfrtp_1
*I *1282:RESET_B I *D sky130_fd_sc_hd__dfrtp_1
*I *1272:RESET_B I *D sky130_fd_sc_hd__dfrtp_2
*I *1273:RESET_B I *D sky130_fd_sc_hd__dfrtp_1
*I *1280:RESET_B I *D sky130_fd_sc_hd__dfrtp_1
*I *1259:RESET_B I *D sky130_fd_sc_hd__dfrtp_1
*I *1255:RESET_B I *D sky130_fd_sc_hd__dfrtp_1
*I *1276:RESET_B I *D sky130_fd_sc_hd__dfrtp_1
*I *1325:X O *D sky130_fd_sc_hd__clkbuf_4
*CAP
1 *1275:SET_B 0.000671126
2 *1262:RESET_B 1.50342e-05
3 *1261:RESET_B 5.64093e-05
4 *1282:RESET_B 0.000535548
5 *1272:RESET_B 0.000139424
6 *1273:RESET_B 0.000331958
7 *1280:RESET_B 0
8 *1259:RESET_B 0.000534528
9 *1255:RESET_B 0.000707632
10 *1276:RESET_B 8.04065e-05
11 *1325:X 0
12 *256:116 0.00118892
13 *256:102 0.000926867
14 *256:68 0.000888534
15 *256:62 0.00104289
16 *256:53 0.000601339
17 *256:31 0.0011654
18 *256:4 0.000300623
19 *1255:RESET_B *1200:A1 0.000158984
20 *1255:RESET_B *1325:A 0.000188586
21 *1259:RESET_B *1136:A 0.000136395
22 *1259:RESET_B *1214:A1 0.000113083
23 *1272:RESET_B *258:38 0
24 *1273:RESET_B *258:38 0
25 *1276:RESET_B *258:10 0.000152333
26 *256:31 *1200:A1 1.10841e-05
27 *256:31 *1372:A 7.83659e-05
28 *256:53 *1372:A 9.54385e-05
29 *256:102 *1139:A0 9.90367e-05
30 *256:102 *1341:A 8.07313e-05
31 *256:102 *282:10 0
32 *256:116 *1341:A 0
33 *256:116 *282:10 0
34 *1127:S *256:31 3.69697e-05
35 *1127:S *256:53 4.25619e-05
36 *1139:A1 *256:102 0.000174129
37 *1139:A1 *256:116 2.8266e-06
38 *1139:S *256:102 0.000359997
39 *1140:A *1282:RESET_B 2.89114e-05
40 *1140:A *256:62 0
41 *1140:A *256:102 4.51526e-05
42 *1141:A1 *1262:RESET_B 4.83849e-05
43 *1141:A1 *1275:SET_B 4.08637e-05
44 *1141:A1 *256:116 3.14003e-05
45 *1220:S *1273:RESET_B 0
46 *1221:A *1273:RESET_B 0
47 *1221:A *256:68 2.84026e-05
48 *1223:A0 *1273:RESET_B 0
49 *1259:D *1259:RESET_B 0.000144773
50 *1275:D *1275:SET_B 0.000315932
51 *1282:D *256:68 8.01197e-05
52 *112:103 *256:53 0
53 *112:103 *256:62 0
54 *229:20 *1262:RESET_B 1.47548e-05
55 *229:20 *1275:SET_B 9.20921e-05
56 *235:27 *1272:RESET_B 1.76135e-05
57 *235:66 *256:62 5.61965e-05
58 *235:68 *256:53 4.01458e-05
59 *235:68 *256:62 0.000111712
60 *235:76 *256:31 0.000139913
61 *235:76 *256:53 3.06406e-05
62 *242:12 *256:31 1.15484e-05
63 *249:31 *1275:SET_B 2.33614e-05
*RES
1 *1325:X *256:4 9.3 
2 *256:4 *1276:RESET_B 10.9464 
3 *256:4 *1255:RESET_B 5.13393 
4 *1255:RESET_B *256:31 11.3839 
5 *256:31 *1259:RESET_B 21.4375 
6 *256:31 *256:53 3.76786 
7 *256:53 *1280:RESET_B 4.5 
8 *256:53 *256:62 13.7321 
9 *256:62 *256:68 6.83929 
10 *256:68 *1273:RESET_B 14.4286 
11 *256:68 *1272:RESET_B 11.5536 
12 *256:62 *1282:RESET_B 2.95536 
13 *1282:RESET_B *256:102 13.8125 
14 *256:102 *1261:RESET_B 5.40179 
15 *256:102 *256:116 13.7321 
16 *256:116 *1262:RESET_B 0.473214 
17 *256:116 *1275:SET_B 10.2054 
*END

*D_NET *257 0.0103574
*CONN
*I *1301:RESET_B I *D sky130_fd_sc_hd__dfrtp_4
*I *1289:RESET_B I *D sky130_fd_sc_hd__dfrtp_1
*I *1288:RESET_B I *D sky130_fd_sc_hd__dfrtp_1
*I *1287:RESET_B I *D sky130_fd_sc_hd__dfrtp_1
*I *1283:RESET_B I *D sky130_fd_sc_hd__dfrtp_1
*I *1302:RESET_B I *D sky130_fd_sc_hd__dfrtp_4
*I *1326:X O *D sky130_fd_sc_hd__buf_2
*CAP
1 *1301:RESET_B 0.0002405
2 *1289:RESET_B 8.77167e-05
3 *1288:RESET_B 0.000334812
4 *1287:RESET_B 3.59957e-05
5 *1283:RESET_B 1.90348e-05
6 *1302:RESET_B 0.00084157
7 *1326:X 0.000184615
8 *257:58 0.00154376
9 *257:44 0.00195167
10 *257:28 0.0015749
11 *257:8 0.000505263
12 *1288:RESET_B *343:12 0.00019406
13 *1301:RESET_B *1198:C 8.02652e-05
14 *1301:RESET_B *335:10 0.000502711
15 *1302:RESET_B *1198:C 0.000169095
16 *257:8 *1326:A 7.62323e-05
17 *257:8 *335:43 1.58163e-05
18 *257:58 *1111:A 4.88637e-05
19 *257:58 *342:10 0.00010096
20 *1083:B *1302:RESET_B 5.51649e-05
21 *1084:A2 *1302:RESET_B 9.96553e-05
22 *1110:B *257:58 3.99614e-06
23 *1111:B *257:58 0.00014183
24 *1112:A *257:58 0.000186662
25 *1112:B *257:58 2.70868e-05
26 *1112:C *257:58 0.000129534
27 *1142:A *257:44 0.000207817
28 *1287:CLK *257:28 0.000100248
29 *1287:D *257:44 2.19778e-05
30 *1289:D *1289:RESET_B 9.39141e-05
31 *1289:D *257:58 1.21258e-05
32 *1302:D *1302:RESET_B 4.70821e-05
33 *1302:D *257:28 0.000148998
34 *112:99 *257:44 1.50223e-05
35 *128:14 *257:58 9.90431e-05
36 *229:20 *257:44 0
37 *235:27 *257:28 5.5764e-05
38 *236:25 *257:44 8.52458e-05
39 *236:62 *1288:RESET_B 0.000107776
40 *240:29 *1301:RESET_B 0.000201654
41 *240:29 *1302:RESET_B 8.91963e-06
*RES
1 *1326:X *257:8 16.8 
2 *257:8 *1302:RESET_B 7.22321 
3 *1302:RESET_B *257:28 20.9018 
4 *257:28 *1283:RESET_B 0.366071 
5 *257:28 *257:44 24.2143 
6 *257:44 *1287:RESET_B 0.473214 
7 *257:44 *257:58 15.4821 
8 *257:58 *1288:RESET_B 15.5268 
9 *257:58 *1289:RESET_B 1.70536 
10 *257:8 *1301:RESET_B 12.3839 
*END

*D_NET *258 0.0156354
*CONN
*I *1326:A I *D sky130_fd_sc_hd__buf_2
*I *1299:SET_B I *D sky130_fd_sc_hd__dfstp_1
*I *1270:RESET_B I *D sky130_fd_sc_hd__dfrtp_2
*I *1271:RESET_B I *D sky130_fd_sc_hd__dfrtp_1
*I *1268:RESET_B I *D sky130_fd_sc_hd__dfrtp_1
*I *1325:A I *D sky130_fd_sc_hd__clkbuf_4
*I *1324:A I *D sky130_fd_sc_hd__clkbuf_4
*I *1327:X O *D sky130_fd_sc_hd__buf_2
*CAP
1 *1326:A 0.000299925
2 *1299:SET_B 3.04463e-05
3 *1270:RESET_B 0.000271829
4 *1271:RESET_B 0
5 *1268:RESET_B 0.000142271
6 *1325:A 4.7954e-05
7 *1324:A 0.00058337
8 *1327:X 0.00023316
9 *258:77 0.00120336
10 *258:60 0.00235434
11 *258:46 0.00203494
12 *258:38 0.00212739
13 *258:10 0.000784384
14 *258:8 0.00148973
15 *1270:RESET_B *261:16 0
16 *1270:RESET_B *272:14 7.8327e-05
17 *1270:RESET_B *319:32 0.00018693
18 *1324:A *1200:A1 0.000271345
19 *1324:A *1356:A 2.89016e-05
20 *1325:A *1200:A1 0.000126639
21 *1326:A *1198:C 0.000334481
22 *258:8 *1372:A 0.000144497
23 *258:46 *1198:A 4.28801e-05
24 *258:46 *1198:B 5.88623e-05
25 *258:46 *1198:C 0.000141977
26 *258:46 *333:14 6.99539e-06
27 *258:60 *1058:A 9.94037e-05
28 *258:60 *1186:B1 4.72917e-05
29 *258:60 *334:37 4.13122e-06
30 *258:60 *334:48 0.000104306
31 *258:77 *319:32 3.65344e-05
32 *1058:B_N *258:60 5.65955e-05
33 *1060:B1 *258:60 0.000111716
34 *1083:A *258:46 0.000226272
35 *1083:B *1326:A 1.50223e-05
36 *1083:C *258:46 1.98839e-05
37 *1174:A1 *258:77 2.46444e-05
38 *1179:A2 *1270:RESET_B 0
39 *1186:A2 *258:60 5.33005e-05
40 *1186:A3 *258:60 0.00018372
41 *1190:B1 *258:38 7.04538e-05
42 *1194:A *258:38 0.000113443
43 *1200:S *1324:A 2.65105e-05
44 *1201:A *1324:A 7.93411e-05
45 *1224:A *1326:A 5.74309e-05
46 *1224:A *258:38 0.00010235
47 *1255:RESET_B *1325:A 0.000188586
48 *1272:RESET_B *258:38 0
49 *1273:RESET_B *258:38 0
50 *1276:RESET_B *258:10 0.000152333
51 *1299:CLK *258:60 1.42165e-05
52 *1299:D *258:60 0.00013072
53 *1316:A *258:60 2.89114e-05
54 *1327:A *258:8 0.000119203
55 *93:12 *1268:RESET_B 0
56 *93:12 *258:77 0
57 *184:6 *258:60 0.000132979
58 *193:10 *258:46 0.000135028
59 *231:12 *258:60 0.000199934
60 *235:27 *258:38 0
61 *240:10 *1324:A 0
62 *240:10 *258:10 0
63 *240:29 *258:10 0
64 *240:29 *258:38 0
65 *257:8 *1326:A 7.62323e-05
*RES
1 *1327:X *258:8 17.2107 
2 *258:8 *258:10 3.16071 
3 *258:10 *1324:A 22.8179 
4 *258:10 *1325:A 15.9786 
5 *258:8 *258:38 20.7679 
6 *258:38 *258:46 15.9464 
7 *258:46 *258:60 37.9821 
8 *258:60 *1268:RESET_B 6.75 
9 *258:60 *258:77 24.7679 
10 *258:77 *1271:RESET_B 4.5 
11 *258:77 *1270:RESET_B 11.3036 
12 *258:46 *1299:SET_B 0.901786 
13 *258:38 *1326:A 20.7464 
*END

*D_NET *259 0.0136174
*CONN
*I *1304:RESET_B I *D sky130_fd_sc_hd__dfrtp_1
*I *1306:RESET_B I *D sky130_fd_sc_hd__dfrtp_1
*I *1303:RESET_B I *D sky130_fd_sc_hd__dfrtp_1
*I *1305:RESET_B I *D sky130_fd_sc_hd__dfrtp_1
*I *1269:RESET_B I *D sky130_fd_sc_hd__dfrtp_4
*I *1267:RESET_B I *D sky130_fd_sc_hd__dfrtp_2
*I *1263:RESET_B I *D sky130_fd_sc_hd__dfrtp_2
*I *1264:RESET_B I *D sky130_fd_sc_hd__dfrtp_2
*I *1265:RESET_B I *D sky130_fd_sc_hd__dfrtp_1
*I *1266:RESET_B I *D sky130_fd_sc_hd__dfrtp_1
*I *1328:X O *D sky130_fd_sc_hd__clkbuf_4
*CAP
1 *1304:RESET_B 0.00027583
2 *1306:RESET_B 9.11927e-05
3 *1303:RESET_B 0.000253955
4 *1305:RESET_B 0.00075105
5 *1269:RESET_B 0.000327008
6 *1267:RESET_B 0.00140632
7 *1263:RESET_B 0.00164255
8 *1264:RESET_B 1.41017e-05
9 *1265:RESET_B 0
10 *1266:RESET_B 0
11 *1328:X 0.000420793
12 *259:80 0.0010189
13 *259:40 0.00121954
14 *259:30 0.00082557
15 *259:26 0.000934186
16 *259:19 0.000318442
17 *259:12 0.000666663
18 *1263:RESET_B *313:12 0.000185403
19 *1267:RESET_B *1298:D 0
20 *1267:RESET_B *317:8 0.000141729
21 *1269:RESET_B *272:14 0
22 *1303:RESET_B *1362:A 0
23 *1304:RESET_B *1363:A 0.000138005
24 *1304:RESET_B *349:23 3.25078e-05
25 *1305:RESET_B *1090:A2 3.80953e-06
26 *1305:RESET_B *353:6 9.6561e-06
27 *1306:RESET_B *1090:A2 2.79148e-05
28 *259:30 *1156:B1 5.49544e-05
29 *259:30 *1364:A 5.49489e-05
30 *259:30 *314:10 5.49544e-05
31 *1076:A *259:12 7.46952e-05
32 *1240:A0 *1304:RESET_B 0.000195228
33 *1240:A0 *259:19 0.000285117
34 *1240:A0 *259:26 5.92727e-05
35 *1245:A *1303:RESET_B 0
36 *1245:A *1306:RESET_B 0
37 *1263:CLK *1267:RESET_B 0.000169468
38 *1264:CLK *1263:RESET_B 6.5513e-05
39 *1267:D *1267:RESET_B 4.84658e-05
40 *1267:D *1269:RESET_B 4.77128e-05
41 *1269:D *1269:RESET_B 5.048e-05
42 *1301:CLK *259:12 0.000373955
43 *1301:CLK *259:19 0.000414668
44 *1301:D *259:12 0.00010096
45 *1304:D *1304:RESET_B 4.88515e-05
46 *1306:D *1306:RESET_B 0
47 *26:16 *1304:RESET_B 0
48 *26:16 *259:12 0
49 *26:16 *259:26 0
50 *114:71 *1303:RESET_B 0.000540931
51 *230:20 *259:12 0
52 *234:10 *259:80 0
53 *234:23 *1303:RESET_B 0
54 *234:23 *259:80 0
55 *234:36 *1305:RESET_B 7.53317e-05
56 *234:36 *1306:RESET_B 4.46186e-06
57 *250:28 *259:12 0.000168002
58 *250:28 *259:19 2.4292e-05
*RES
1 *1328:X *259:12 24.55 
2 *259:12 *1266:RESET_B 4.5 
3 *259:12 *259:19 8.01786 
4 *259:19 *1265:RESET_B 4.5 
5 *259:19 *259:26 1.64286 
6 *259:26 *259:30 13.6607 
7 *259:30 *1264:RESET_B 0.473214 
8 *259:30 *259:40 3.01786 
9 *259:40 *1263:RESET_B 8.41964 
10 *1263:RESET_B *1267:RESET_B 25.8036 
11 *1267:RESET_B *1269:RESET_B 15.2321 
12 *259:40 *259:80 11.9107 
13 *259:80 *1305:RESET_B 10.9375 
14 *1305:RESET_B *1303:RESET_B 15.8036 
15 *259:80 *1306:RESET_B 6.5 
16 *259:26 *1304:RESET_B 11.2054 
*END

*D_NET *260 0.0181423
*CONN
*I *1291:RESET_B I *D sky130_fd_sc_hd__dfrtp_1
*I *1292:RESET_B I *D sky130_fd_sc_hd__dfrtp_1
*I *1290:RESET_B I *D sky130_fd_sc_hd__dfrtp_1
*I *1285:RESET_B I *D sky130_fd_sc_hd__dfrtp_2
*I *1254:RESET_B I *D sky130_fd_sc_hd__dfrtp_1
*I *1293:RESET_B I *D sky130_fd_sc_hd__dfrtp_1
*I *1295:RESET_B I *D sky130_fd_sc_hd__dfrtp_2
*I *1294:RESET_B I *D sky130_fd_sc_hd__dfrtp_4
*I *1286:RESET_B I *D sky130_fd_sc_hd__dfrtp_1
*I *1284:RESET_B I *D sky130_fd_sc_hd__dfrtp_4
*I *1329:X O *D sky130_fd_sc_hd__clkbuf_4
*CAP
1 *1291:RESET_B 0.000284396
2 *1292:RESET_B 0
3 *1290:RESET_B 0.000410903
4 *1285:RESET_B 0.000209483
5 *1254:RESET_B 6.90701e-06
6 *1293:RESET_B 0.000542616
7 *1295:RESET_B 0.000124916
8 *1294:RESET_B 0.00239272
9 *1286:RESET_B 0.000134025
10 *1284:RESET_B 3.55704e-05
11 *1329:X 4.36033e-05
12 *260:121 0.000511262
13 *260:119 0.000896306
14 *260:103 0.00187938
15 *260:72 0.00130248
16 *260:52 0.00181398
17 *260:14 0.000371628
18 *260:8 0.000543906
19 *1254:RESET_B *357:8 1.12381e-05
20 *1285:RESET_B *340:8 2.55062e-05
21 *1293:RESET_B *357:8 4.60059e-06
22 *260:14 *339:10 0
23 *260:52 *263:40 0.000465459
24 *260:52 *311:20 0.000466982
25 *260:52 *348:12 4.45232e-05
26 *260:72 *1090:S0 7.83659e-05
27 *260:72 *1092:A2 0
28 *260:72 *1092:S0 0.000460574
29 *260:72 *1250:A1 0
30 *260:72 *1347:A 0
31 *260:72 *1352:A 2.8266e-06
32 *260:72 *311:20 0
33 *260:72 *357:8 4.0552e-05
34 *260:103 *1096:B 3.22964e-05
35 *260:103 *1228:A 6.17768e-05
36 *260:103 *339:59 0.000126509
37 *260:103 *339:61 5.46383e-06
38 *260:103 *348:12 0.000173515
39 *260:119 *1124:A1 5.65955e-05
40 *260:119 *1124:B1 0.000143651
41 data_out[7] *1291:RESET_B 0
42 *1105:A *1286:RESET_B 4.52563e-05
43 *1105:A *260:14 3.69047e-06
44 *1122:A2 *1291:RESET_B 0.000224599
45 *1126:A *260:121 0.000153047
46 *1230:B1 *260:103 0
47 *1254:CLK *1293:RESET_B 0
48 *1254:D *260:72 0.00127979
49 *1265:CLK *260:52 0.000224575
50 *1284:D *1286:RESET_B 7.90692e-05
51 *1284:D *1294:RESET_B 6.63763e-05
52 *1284:D *260:14 0.000257347
53 *1291:D *1291:RESET_B 0
54 *1292:D *260:121 0.000125731
55 *1294:CLK *260:52 4.25684e-05
56 *1294:D *260:52 5.4959e-05
57 *1323:A *260:8 5.33005e-05
58 *1369:A *260:103 0.00026261
59 *1395:A *1293:RESET_B 0.00014183
60 *26:16 *260:72 0.000202955
61 *119:12 *1285:RESET_B 5.66157e-05
62 *119:14 *1285:RESET_B 0.000202835
63 *119:18 *1285:RESET_B 0.000144719
64 *120:10 *1285:RESET_B 3.37842e-05
65 *136:29 *1290:RESET_B 0.000347957
66 *136:42 *1290:RESET_B 0.000150321
67 *136:42 *260:121 5.9531e-05
68 *136:53 *1291:RESET_B 0.000143804
69 *136:53 *260:121 3.34295e-05
70 *238:23 *1285:RESET_B 4.70821e-05
71 *238:38 *1285:RESET_B 0
72 *238:49 *1285:RESET_B 0
73 *248:25 *1290:RESET_B 0
74 *249:31 *1290:RESET_B 0
75 *249:31 *1291:RESET_B 0
76 *249:31 *260:121 0
*RES
1 *1329:X *260:8 14.3357 
2 *260:8 *260:14 8.60714 
3 *260:14 *1284:RESET_B 0.669643 
4 *260:14 *1286:RESET_B 11.25 
5 *260:8 *1294:RESET_B 9.53571 
6 *1294:RESET_B *260:52 27.8304 
7 *260:52 *1295:RESET_B 1.61607 
8 *260:52 *260:72 30.6786 
9 *260:72 *1293:RESET_B 8.02679 
10 *260:72 *1254:RESET_B 0.473214 
11 *1294:RESET_B *260:103 29.3839 
12 *260:103 *1285:RESET_B 14.4554 
13 *260:103 *260:119 12.4286 
14 *260:119 *260:121 3.46429 
15 *260:121 *1290:RESET_B 14.6964 
16 *260:121 *1292:RESET_B 4.5 
17 *260:119 *1291:RESET_B 11 
*END

*D_NET *261 0.00964748
*CONN
*I *1242:A0 I *D sky130_fd_sc_hd__mux2_1
*I *1379:X O *D sky130_fd_sc_hd__buf_1
*CAP
1 *1242:A0 0.00109299
2 *1379:X 0.000712971
3 *261:16 0.00317404
4 *261:12 0.00279402
5 *1242:A0 *1244:A0 0.00131629
6 *261:12 *1134:A 0
7 *261:16 *1134:A 0
8 *261:16 *272:14 0
9 *1256:CLK *261:12 0.000121017
10 *1258:D *261:12 0.000104974
11 *1270:CLK *261:16 0
12 *1270:D *261:16 3.5707e-05
13 *1270:RESET_B *261:16 0
14 *1271:CLK *261:16 0
15 *1297:D *261:16 0
16 *231:33 *261:12 1.1645e-05
17 *231:33 *261:16 0
18 *231:35 *261:12 0.000283819
19 *233:12 *261:16 0
20 *233:45 *261:16 0
*RES
1 *1379:X *261:12 30.0768 
2 *261:12 *261:16 42.2768 
3 *261:16 *1242:A0 24.6214 
*END

*D_NET *262 0.00812884
*CONN
*I *1311:SET_B I *D sky130_fd_sc_hd__dfstp_1
*I *1314:RESET_B I *D sky130_fd_sc_hd__dfrtp_1
*I *1313:RESET_B I *D sky130_fd_sc_hd__dfrtp_1
*I *1312:RESET_B I *D sky130_fd_sc_hd__dfrtp_2
*I *1296:RESET_B I *D sky130_fd_sc_hd__dfrtp_1
*I *1310:RESET_B I *D sky130_fd_sc_hd__dfrtp_1
*I *1330:X O *D sky130_fd_sc_hd__buf_2
*CAP
1 *1311:SET_B 0.000144851
2 *1314:RESET_B 3.84077e-05
3 *1313:RESET_B 0
4 *1312:RESET_B 0
5 *1296:RESET_B 0.000182761
6 *1310:RESET_B 0.000271159
7 *1330:X 0
8 *262:68 0.000441898
9 *262:61 0.000514627
10 *262:54 0.00109169
11 *262:26 0.00181497
12 *262:4 0.00106767
13 *1296:RESET_B *1091:A 0
14 *1311:SET_B *1068:A 3.20153e-05
15 *1314:RESET_B *305:18 1.60121e-05
16 *262:26 *1093:B_N 0.000147862
17 *262:26 *350:12 0.000126324
18 *262:54 *1072:A1 5.83304e-05
19 *262:54 *1078:A 0.00027032
20 *262:54 *1091:A 4.5632e-05
21 *262:54 *360:8 0.000104094
22 *262:61 *1072:A1 0.000154762
23 *262:61 *1095:C 0.000188947
24 *262:61 *361:23 0.000190162
25 *262:68 *1077:A 0.000133781
26 *262:68 *1095:C 7.2646e-05
27 *1069:B1_N *1314:RESET_B 2.48941e-05
28 *1071:B *262:54 2.62223e-05
29 *1078:B *262:54 0.000274288
30 *1079:B1_N *262:54 0.000114045
31 *1089:B1 *1311:SET_B 0
32 *1091:B *1296:RESET_B 9.58126e-05
33 *1091:B *262:54 5.47047e-05
34 *1093:A *1310:RESET_B 7.1709e-05
35 *1094:A2 *262:54 1.92789e-05
36 *1237:A *262:54 1.58163e-05
37 *99:22 *262:54 0.000199137
38 *99:30 *262:54 2.14658e-05
39 *101:6 *262:54 2.10373e-05
40 *107:8 *262:54 8.15095e-05
41 *229:20 *262:54 0
42 *229:20 *262:61 0
*RES
1 *1330:X *262:4 9.3 
2 *262:4 *1310:RESET_B 13.4018 
3 *262:4 *262:26 19.8571 
4 *262:26 *1296:RESET_B 2.4375 
5 *262:26 *262:54 30.3393 
6 *262:54 *1312:RESET_B 4.5 
7 *262:54 *262:61 6.80357 
8 *262:61 *1313:RESET_B 4.5 
9 *262:61 *262:68 5.28571 
10 *262:68 *1314:RESET_B 5.40179 
11 *262:68 *1311:SET_B 7.35714 
*END

*D_NET *263 0.0108145
*CONN
*I *1330:A I *D sky130_fd_sc_hd__buf_2
*I *1309:RESET_B I *D sky130_fd_sc_hd__dfrtp_1
*I *1307:RESET_B I *D sky130_fd_sc_hd__dfrtp_1
*I *1308:RESET_B I *D sky130_fd_sc_hd__dfrtp_1
*I *1329:A I *D sky130_fd_sc_hd__clkbuf_4
*I *1328:A I *D sky130_fd_sc_hd__clkbuf_4
*I *1331:X O *D sky130_fd_sc_hd__clkbuf_2
*CAP
1 *1330:A 0.000127564
2 *1309:RESET_B 0.000109216
3 *1307:RESET_B 0.000506806
4 *1308:RESET_B 0.000142394
5 *1329:A 0.000422325
6 *1328:A 0.00041016
7 *1331:X 0
8 *263:56 0.000918599
9 *263:46 0.00115988
10 *263:40 0.00167845
11 *263:21 0.00137577
12 *263:4 0.000527618
13 *1307:RESET_B *355:8 1.84865e-05
14 *1308:RESET_B *1092:A0 0.000309954
15 *1309:RESET_B *1250:A1 7.23643e-05
16 *1328:A *311:20 0.000723307
17 *1330:A *1092:A3 2.89016e-05
18 *263:40 *311:20 0.000834631
19 *263:40 *358:8 7.83587e-05
20 *263:46 *1092:A0 0.000169373
21 *263:46 *1092:A2 1.40749e-05
22 *263:46 *1092:A3 0.000116984
23 *263:56 *1250:A1 1.0609e-05
24 *263:56 *1337:A 3.79336e-05
25 *1093:A *263:40 2.49484e-05
26 *1240:S *263:56 0
27 *1251:A *1307:RESET_B 0.000230285
28 *1296:CLK *263:40 0
29 *1296:D *263:40 3.47737e-05
30 *1309:D *1307:RESET_B 5.4839e-05
31 *1323:A *1329:A 0.000143375
32 *26:16 *1328:A 0
33 *230:126 *263:40 2.11419e-05
34 *237:10 *263:40 0
35 *237:57 *263:40 0
36 *237:68 *263:40 0
37 *240:29 *1329:A 1.82029e-05
38 *240:29 *263:21 2.77143e-05
39 *260:52 *263:40 0.000465459
*RES
1 *1331:X *263:4 9.3 
2 *263:4 *1328:A 29.1036 
3 *263:4 *263:21 1.35714 
4 *263:21 *1329:A 16.7286 
5 *263:21 *263:40 30.125 
6 *263:40 *263:46 9.30357 
7 *263:46 *1308:RESET_B 2.9375 
8 *263:46 *263:56 10.0893 
9 *263:56 *1307:RESET_B 14.0268 
10 *263:56 *1309:RESET_B 7.05357 
11 *263:40 *1330:A 11.5143 
*END

*D_NET *264 0.000265697
*CONN
*I *1298:D I *D sky130_fd_sc_hd__dfxtp_1
*I *1332:X O *D sky130_fd_sc_hd__dlygate4sd3_1
*CAP
1 *1298:D 9.67404e-05
2 *1332:X 9.67404e-05
3 *1298:D *272:14 5.5782e-05
4 *1267:RESET_B *1298:D 0
5 *233:71 *1298:D 1.64343e-05
*RES
1 *1332:X *1298:D 29.7116 
*END

*D_NET *265 0.000313831
*CONN
*I *1120:A1 I *D sky130_fd_sc_hd__o21a_1
*I *1343:X O *D sky130_fd_sc_hd__dlygate4sd3_1
*CAP
1 *1120:A1 0.000126278
2 *1343:X 0.000126278
3 *1120:A2 *1120:A1 6.05161e-06
4 *1120:B1 *1120:A1 5.52238e-05
*RES
1 *1343:X *1120:A1 20.7786 
*END

*D_NET *266 0.00155425
*CONN
*I *1190:A1 I *D sky130_fd_sc_hd__a21oi_1
*I *1189:B1 I *D sky130_fd_sc_hd__a21oi_1
*I *1354:X O *D sky130_fd_sc_hd__dlygate4sd3_1
*CAP
1 *1190:A1 0.000157163
2 *1189:B1 0.000130716
3 *1354:X 0
4 *266:4 0.000287879
5 *1190:A1 *322:16 0.000197591
6 *1190:A2 *1190:A1 0.000153047
7 *1190:B1 *1190:A1 0.000101823
8 *1193:S *1190:A1 8.07951e-05
9 *1196:A3 *1189:B1 0.00014183
10 *230:41 *1189:B1 7.03295e-05
11 *230:41 *1190:A1 6.05161e-06
12 *240:29 *1190:A1 0.000227021
*RES
1 *1354:X *266:4 9.3 
2 *266:4 *1189:B1 11.8893 
3 *266:4 *1190:A1 23.7643 
*END

*D_NET *267 0.00010393
*CONN
*I *1096:A I *D sky130_fd_sc_hd__nor2_1
*I *1365:X O *D sky130_fd_sc_hd__dlygate4sd3_1
*CAP
1 *1096:A 8.06215e-06
2 *1365:X 8.06215e-06
3 *1096:A *339:23 5.66971e-05
4 *1284:D *1096:A 3.11088e-05
*RES
1 *1365:X *1096:A 19.1357 
*END

*D_NET *268 0.000908232
*CONN
*I *1162:A1 I *D sky130_fd_sc_hd__a31oi_1
*I *1161:B1 I *D sky130_fd_sc_hd__a21oi_1
*I *1370:X O *D sky130_fd_sc_hd__dlygate4sd3_1
*CAP
1 *1162:A1 0.000152852
2 *1161:B1 2.65735e-05
3 *1370:X 0
4 *268:4 0.000179426
5 *1162:A1 *316:8 4.22349e-05
6 *1158:B1_N *1162:A1 1.30594e-05
7 *1162:B1 *1162:A1 0.000117079
8 *1266:D *1162:A1 9.71197e-05
9 *104:81 *1162:A1 0.000196262
10 *151:29 *1161:B1 5.52238e-05
11 *159:10 *1162:A1 2.84019e-05
*RES
1 *1370:X *268:4 9.3 
2 *268:4 *1161:B1 9.83571 
3 *268:4 *1162:A1 22.6214 
*END

*D_NET *269 0.00010567
*CONN
*I *1106:A I *D sky130_fd_sc_hd__inv_2
*I *1371:X O *D sky130_fd_sc_hd__dlygate4sd3_1
*CAP
1 *1106:A 2.52229e-05
2 *1371:X 2.52229e-05
3 *1109:A1 *1106:A 5.52238e-05
*RES
1 *1371:X *1106:A 19.1357 
*END

*D_NET *270 0.00230804
*CONN
*I *1200:A1 I *D sky130_fd_sc_hd__mux2_1
*I *1127:A0 I *D sky130_fd_sc_hd__mux2_1
*I *1372:X O *D sky130_fd_sc_hd__dlygate4sd3_1
*CAP
1 *1200:A1 0.000436558
2 *1127:A0 9.79595e-06
3 *1372:X 3.52432e-05
4 *270:6 0.000481597
5 *1127:A1 *1127:A0 5.65955e-05
6 *1127:A1 *270:6 0.000128523
7 *1127:S *1127:A0 5.49489e-05
8 *1127:S *270:6 0.000182605
9 *1200:S *1200:A1 2.97021e-05
10 *1201:A *1200:A1 0
11 *1255:RESET_B *1200:A1 0.000158984
12 *1324:A *1200:A1 0.000271345
13 *1325:A *1200:A1 0.000126639
14 *1387:A *270:6 5.49544e-05
15 *242:12 *1200:A1 0.000269466
16 *256:31 *1200:A1 1.10841e-05
*RES
1 *1372:X *270:6 11.0679 
2 *270:6 *1127:A0 9.83571 
3 *270:6 *1200:A1 28.9071 
*END

*D_NET *271 0.000184364
*CONN
*I *1128:A I *D sky130_fd_sc_hd__clkbuf_1
*I *1373:X O *D sky130_fd_sc_hd__dlygate4sd3_1
*CAP
1 *1128:A 1.35522e-05
2 *1373:X 1.35522e-05
3 *1373:A *1128:A 5.62995e-05
4 *1387:A *1128:A 0.00010096
*RES
1 *1373:X *1128:A 19.5464 
*END

*D_NET *272 0.00637601
*CONN
*I *1244:A0 I *D sky130_fd_sc_hd__mux2_1
*I *1380:X O *D sky130_fd_sc_hd__clkbuf_1
*CAP
1 *1244:A0 0.000741367
2 *1380:X 0.0013501
3 *272:14 0.00209147
4 *1242:A0 *1244:A0 0.00131629
5 *1242:S *1244:A0 3.18676e-05
6 *1244:S *1244:A0 0.000264212
7 *1269:RESET_B *272:14 0
8 *1270:D *272:14 0.000446597
9 *1270:RESET_B *272:14 7.8327e-05
10 *1298:D *272:14 5.5782e-05
11 *261:16 *272:14 0
*RES
1 *1380:X *272:14 44.4429 
2 *272:14 *1244:A0 27.9071 
*END

*D_NET *273 0.00327668
*CONN
*I *1069:A1 I *D sky130_fd_sc_hd__a21bo_1
*I *1094:B1 I *D sky130_fd_sc_hd__a311o_1
*I *1374:X O *D sky130_fd_sc_hd__dlygate4sd3_1
*CAP
1 *1069:A1 3.64069e-05
2 *1094:B1 0.000797498
3 *1374:X 0.000135593
4 *273:6 0.000969498
5 *1094:B1 *1095:A 5.71472e-05
6 *1094:B1 *1229:B 2.89114e-05
7 *1094:B1 *1368:A 3.75868e-05
8 *1094:B1 *1374:A 1.4796e-05
9 *1094:B1 *359:19 0.000556961
10 *1094:B1 *362:6 3.2033e-05
11 *273:6 *1374:A 6.11639e-05
12 *1069:A2 *1094:B1 0.00028518
13 *99:47 *1094:B1 0.000246995
14 *229:20 *1094:B1 1.69115e-05
*RES
1 *1374:X *273:6 11.0679 
2 *273:6 *1094:B1 45.6571 
3 *273:6 *1069:A1 10.0321 
*END

*D_NET *274 0.000491711
*CONN
*I *1227:A1 I *D sky130_fd_sc_hd__o22a_1
*I *1333:X O *D sky130_fd_sc_hd__dlygate4sd3_1
*CAP
1 *1227:A1 0.000172446
2 *1333:X 0.000172446
3 *1227:A2 *1227:A1 0.00011991
4 *114:12 *1227:A1 1.24368e-05
5 *114:25 *1227:A1 1.44719e-05
*RES
1 *1333:X *1227:A1 30.4393 
*END

*D_NET *275 8.38942e-05
*CONN
*I *1181:B2 I *D sky130_fd_sc_hd__a32o_1
*I *1334:X O *D sky130_fd_sc_hd__dlygate4sd3_1
*CAP
1 *1181:B2 1.16339e-05
2 *1334:X 1.16339e-05
3 *1181:A1 *1181:B2 2.976e-05
4 *1181:A2 *1181:B2 3.08664e-05
*RES
1 *1334:X *1181:B2 19.1357 
*END

*D_NET *276 0.00205797
*CONN
*I *1141:A0 I *D sky130_fd_sc_hd__mux2_1
*I *1223:A1 I *D sky130_fd_sc_hd__mux2_1
*I *1335:X O *D sky130_fd_sc_hd__dlygate4sd3_1
*CAP
1 *1141:A0 7.41704e-05
2 *1223:A1 0.000469038
3 *1335:X 0.00030064
4 *276:10 0.000843848
5 *1223:A1 *1335:A 2.48421e-05
6 *276:10 *1335:A 6.51907e-05
7 *1141:A1 *1141:A0 5.49995e-05
8 *1223:A0 *1223:A1 2.84026e-05
9 *1223:S *1223:A1 5.65955e-05
10 *1302:CLK *1141:A0 0.000140243
11 *1321:A *1223:A1 0
*RES
1 *1335:X *276:10 17.7107 
2 *276:10 *1223:A1 21.5857 
3 *276:10 *1141:A0 15.5857 
*END

*D_NET *277 0.000821006
*CONN
*I *1166:B2 I *D sky130_fd_sc_hd__a32o_1
*I *1336:X O *D sky130_fd_sc_hd__dlygate4sd3_1
*CAP
1 *1166:B2 0.000208499
2 *1336:X 0.000208499
3 *1166:B2 *1165:A 1.02504e-05
4 *1166:B2 *317:17 0.000139331
5 *1166:B2 *317:30 0.000168904
6 *1147:A1 *1166:B2 2.07809e-05
7 *1164:B *1166:B2 4.02364e-05
8 *166:10 *1166:B2 2.45046e-05
*RES
1 *1336:X *1166:B2 32.3321 
*END

*D_NET *278 0.000313625
*CONN
*I *1248:A1 I *D sky130_fd_sc_hd__mux2_1
*I *1337:X O *D sky130_fd_sc_hd__dlygate4sd3_1
*CAP
1 *1248:A1 9.02624e-05
2 *1337:X 9.02624e-05
3 *114:59 *1248:A1 7.85696e-05
4 *114:63 *1248:A1 5.45307e-05
*RES
1 *1337:X *1248:A1 20.7786 
*END

*D_NET *279 0.000815805
*CONN
*I *1137:A1 I *D sky130_fd_sc_hd__mux2_1
*I *1338:X O *D sky130_fd_sc_hd__dlygate4sd3_1
*CAP
1 *1137:A1 0.000193303
2 *1338:X 0.000193303
3 *1392:A *1137:A1 0.000100831
4 *232:35 *1137:A1 0.000227539
5 *255:20 *1137:A1 0.000100831
*RES
1 *1338:X *1137:A1 31.1179 
*END

*D_NET *280 0.000917584
*CONN
*I *1138:A I *D sky130_fd_sc_hd__clkbuf_1
*I *1339:X O *D sky130_fd_sc_hd__dlygate4sd3_1
*CAP
1 *1138:A 0.000253011
2 *1339:X 0.000253011
3 *1208:S *1138:A 5.33005e-05
4 *1260:D *1138:A 0
5 *93:18 *1138:A 0
6 *232:27 *1138:A 0.000114759
7 *232:35 *1138:A 0.000186355
8 *255:40 *1138:A 5.71472e-05
*RES
1 *1339:X *1138:A 32.8679 
*END

*D_NET *281 0.000826092
*CONN
*I *1252:A1 I *D sky130_fd_sc_hd__mux2_1
*I *1340:X O *D sky130_fd_sc_hd__dlygate4sd3_1
*CAP
1 *1252:A1 0.00016698
2 *1340:X 0.00016698
3 *1252:A1 *1252:A0 0.000123924
4 *1252:A1 *1340:A 0.000185408
5 *1252:S *1252:A1 0.000182799
*RES
1 *1340:X *1252:A1 23.2429 
*END

*D_NET *282 0.00256218
*CONN
*I *1139:A0 I *D sky130_fd_sc_hd__mux2_1
*I *1220:A1 I *D sky130_fd_sc_hd__mux2_1
*I *1341:X O *D sky130_fd_sc_hd__dlygate4sd3_1
*CAP
1 *1139:A0 2.9721e-05
2 *1220:A1 0.000737103
3 *1341:X 0.000337764
4 *282:10 0.00110459
5 *282:10 *1341:A 0
6 *1139:A1 *1139:A0 5.52238e-05
7 *1220:S *1220:A1 5.65955e-05
8 *112:99 *1220:A1 0
9 *112:99 *282:10 0
10 *112:103 *1220:A1 0
11 *235:66 *1220:A1 0.000142152
12 *256:102 *1139:A0 9.90367e-05
13 *256:102 *282:10 0
14 *256:116 *282:10 0
*RES
1 *1341:X *282:10 18.925 
2 *282:10 *1220:A1 26.5321 
3 *282:10 *1139:A0 14.7464 
*END

*D_NET *283 0.00289728
*CONN
*I *1246:A0 I *D sky130_fd_sc_hd__mux2_1
*I *1381:X O *D sky130_fd_sc_hd__clkbuf_1
*CAP
1 *1246:A0 0.000829747
2 *1381:X 0.000829747
3 *1246:A0 *1246:A1 0
4 *252:14 *1246:A0 0.00123778
*RES
1 *1381:X *1246:A0 40.2607 
*END

*D_NET *284 0.00165239
*CONN
*I *1135:A0 I *D sky130_fd_sc_hd__mux2_1
*I *1214:A1 I *D sky130_fd_sc_hd__mux2_1
*I *1342:X O *D sky130_fd_sc_hd__dlygate4sd3_1
*CAP
1 *1135:A0 0
2 *1214:A1 0.000263172
3 *1342:X 9.14238e-05
4 *284:10 0.000354596
5 *1214:A1 *1136:A 0.000274294
6 *1214:A1 *1372:A 0.000113622
7 *1127:S *1214:A1 0.000318107
8 *1214:S *1214:A1 5.65955e-05
9 *1259:RESET_B *1214:A1 0.000113083
10 *112:103 *284:10 6.75007e-05
*RES
1 *1342:X *284:10 20.2464 
2 *284:10 *1214:A1 16.8179 
3 *284:10 *1135:A0 9.3 
*END

*D_NET *285 0.00133435
*CONN
*I *1136:A I *D sky130_fd_sc_hd__clkbuf_1
*I *1344:X O *D sky130_fd_sc_hd__dlygate4sd3_1
*CAP
1 *1136:A 0.000238641
2 *1344:X 0.000238641
3 *1127:S *1136:A 3.47737e-05
4 *1135:A1 *1136:A 0.000276211
5 *1214:A1 *1136:A 0.000274294
6 *1259:CLK *1136:A 5.71472e-05
7 *1259:D *1136:A 3.57366e-05
8 *1259:RESET_B *1136:A 0.000136395
9 *1344:A *1136:A 2.27416e-05
10 *235:76 *1136:A 1.97695e-05
*RES
1 *1344:X *1136:A 34.85 
*END

*D_NET *286 9.72117e-05
*CONN
*I *1072:B2 I *D sky130_fd_sc_hd__a22o_1
*I *1345:X O *D sky130_fd_sc_hd__dlygate4sd3_1
*CAP
1 *1072:B2 2.00323e-05
2 *1345:X 2.00323e-05
3 *1072:B1 *1072:B2 5.71472e-05
*RES
1 *1345:X *1072:B2 19.1357 
*END

*D_NET *287 0.000307277
*CONN
*I *1312:D I *D sky130_fd_sc_hd__dfrtp_2
*I *1346:X O *D sky130_fd_sc_hd__dlygate4sd3_1
*CAP
1 *1312:D 0.000126027
2 *1346:X 0.000126027
3 *1312:CLK *1312:D 5.52238e-05
*RES
1 *1346:X *1312:D 20.7786 
*END

*D_NET *288 0.000738958
*CONN
*I *1250:A1 I *D sky130_fd_sc_hd__mux2_1
*I *1347:X O *D sky130_fd_sc_hd__dlygate4sd3_1
*CAP
1 *1250:A1 0.000290866
2 *1347:X 0.000290866
3 *1254:D *1250:A1 0
4 *1309:RESET_B *1250:A1 7.23643e-05
5 *114:44 *1250:A1 1.90223e-05
6 *252:14 *1250:A1 5.52302e-05
7 *260:72 *1250:A1 0
8 *263:56 *1250:A1 1.0609e-05
*RES
1 *1347:X *1250:A1 32.5107 
*END

*D_NET *289 0.0025679
*CONN
*I *1208:A1 I *D sky130_fd_sc_hd__mux2_1
*I *1131:A0 I *D sky130_fd_sc_hd__mux2_1
*I *1348:X O *D sky130_fd_sc_hd__dlygate4sd3_1
*CAP
1 *1208:A1 0.00033671
2 *1131:A0 0.000405324
3 *1348:X 0.000340788
4 *289:12 0.00108282
5 *1131:A1 *1131:A0 4.82865e-05
6 *1131:S *1131:A0 8.25843e-06
7 *1209:A *1208:A1 0.000100165
8 *1278:D *1208:A1 0.000143633
9 *1278:D *289:12 0.000101915
*RES
1 *1348:X *289:12 23.5321 
2 *289:12 *1131:A0 13.9429 
3 *289:12 *1208:A1 15.6214 
*END

*D_NET *290 0.000852002
*CONN
*I *1132:A I *D sky130_fd_sc_hd__clkbuf_1
*I *1349:X O *D sky130_fd_sc_hd__dlygate4sd3_1
*CAP
1 *1132:A 0.000190071
2 *1349:X 0.000190071
3 *1258:RESET_B *1132:A 0.00010053
4 *1349:A *1132:A 0.000267893
5 *255:52 *1132:A 0.000103437
*RES
1 *1349:X *1132:A 32.7429 
*END

*D_NET *291 0.00230964
*CONN
*I *1204:A1 I *D sky130_fd_sc_hd__mux2_1
*I *1129:A0 I *D sky130_fd_sc_hd__mux2_1
*I *1350:X O *D sky130_fd_sc_hd__dlygate4sd3_1
*CAP
1 *1204:A1 0.000463636
2 *1129:A0 0.000294781
3 *1350:X 0
4 *291:4 0.000758417
5 data_out[2] *1129:A0 0.000358829
6 *1129:A1 *1129:A0 2.39313e-05
7 *1129:S *1129:A0 9.46571e-05
8 *1204:A0 *1204:A1 2.27416e-05
9 *1204:S *1204:A1 0
10 *1205:A *1204:A1 0.00010096
11 *1277:D *1204:A1 7.83659e-05
12 *1388:A *1129:A0 1.33343e-05
13 *1389:A *1129:A0 9.99853e-05
*RES
1 *1350:X *291:4 9.3 
2 *291:4 *1129:A0 16.5143 
3 *291:4 *1204:A1 26.5143 
*END

*D_NET *292 0.000871357
*CONN
*I *1130:A I *D sky130_fd_sc_hd__clkbuf_1
*I *1351:X O *D sky130_fd_sc_hd__dlygate4sd3_1
*CAP
1 *1130:A 0.000389437
2 *1351:X 0.000389437
3 *1256:CLK *1130:A 0
4 *1256:D *1130:A 0
5 *1388:A *1130:A 9.24825e-05
6 *243:12 *1130:A 0
7 *255:52 *1130:A 0
*RES
1 *1351:X *1130:A 33.85 
*END

*D_NET *293 0.000291378
*CONN
*I *1240:A1 I *D sky130_fd_sc_hd__mux2_1
*I *1352:X O *D sky130_fd_sc_hd__dlygate4sd3_1
*CAP
1 *1240:A1 0.000145689
2 *1352:X 0.000145689
*RES
1 *1352:X *1240:A1 20.7964 
*END

*D_NET *294 0.00137837
*CONN
*I *1248:A0 I *D sky130_fd_sc_hd__mux2_1
*I *1382:X O *D sky130_fd_sc_hd__clkbuf_1
*CAP
1 *1248:A0 0.000461847
2 *1382:X 0.000461847
3 *1248:A0 *1092:A0 3.75868e-05
4 *1248:A0 *1359:A 0.000205724
5 *114:63 *1248:A0 2.62426e-05
6 *252:14 *1248:A0 0.000185124
*RES
1 *1382:X *1248:A0 36.2071 
*END

*D_NET *295 0.000532707
*CONN
*I *1244:A1 I *D sky130_fd_sc_hd__mux2_1
*I *1353:X O *D sky130_fd_sc_hd__dlygate4sd3_1
*CAP
1 *1244:A1 0.000254983
2 *1353:X 0.000254983
3 *1244:S *1244:A1 2.27416e-05
*RES
1 *1353:X *1244:A1 21.6 
*END

*D_NET *296 9.72117e-05
*CONN
*I *1122:A1 I *D sky130_fd_sc_hd__o21ba_1
*I *1355:X O *D sky130_fd_sc_hd__dlygate4sd3_1
*CAP
1 *1122:A1 2.00323e-05
2 *1355:X 2.00323e-05
3 *1122:A1 *346:18 5.71472e-05
*RES
1 *1355:X *1122:A1 19.1357 
*END

*D_NET *297 0.000412692
*CONN
*I *1217:A1 I *D sky130_fd_sc_hd__mux2_1
*I *1356:X O *D sky130_fd_sc_hd__dlygate4sd3_1
*CAP
1 *1217:A1 8.69397e-05
2 *1356:X 8.69397e-05
3 *1217:S *1217:A1 0.000129821
4 *1276:CLK *1217:A1 2.89114e-05
5 *250:28 *1217:A1 8.00806e-05
*RES
1 *1356:X *1217:A1 30.0286 
*END

*D_NET *298 0.00262065
*CONN
*I *1211:A1 I *D sky130_fd_sc_hd__mux2_1
*I *1133:A0 I *D sky130_fd_sc_hd__mux2_1
*I *1357:X O *D sky130_fd_sc_hd__dlygate4sd3_1
*CAP
1 *1211:A1 0.000489307
2 *1133:A0 0.000474467
3 *1357:X 0
4 *298:4 0.000963774
5 *1133:A0 *1134:A 0
6 *1211:A1 *1357:A 7.77652e-05
7 *1063:A2 *1211:A1 0
8 *1258:RESET_B *1133:A0 4.0342e-06
9 *1317:A *1211:A1 0.00018372
10 *93:12 *1211:A1 9.24299e-05
11 *231:31 *1133:A0 5.52302e-05
12 *245:14 *1133:A0 0.000279921
*RES
1 *1357:X *298:4 9.3 
2 *298:4 *1133:A0 26.675 
3 *298:4 *1211:A1 27.2464 
*END

*D_NET *299 0.000828486
*CONN
*I *1134:A I *D sky130_fd_sc_hd__clkbuf_1
*I *1358:X O *D sky130_fd_sc_hd__dlygate4sd3_1
*CAP
1 *1134:A 0.000390251
2 *1358:X 0.000390251
3 *1133:A0 *1134:A 0
4 *1258:D *1134:A 0
5 *1258:RESET_B *1134:A 4.79842e-05
6 *1358:A *1134:A 0
7 *245:14 *1134:A 0
8 *261:12 *1134:A 0
9 *261:16 *1134:A 0
*RES
1 *1358:X *1134:A 35.0464 
*END

*D_NET *300 0.000556851
*CONN
*I *1246:A1 I *D sky130_fd_sc_hd__mux2_1
*I *1359:X O *D sky130_fd_sc_hd__dlygate4sd3_1
*CAP
1 *1246:A1 0.000181292
2 *1359:X 0.000181292
3 *1246:A1 *1359:A 3.92854e-05
4 *1246:A0 *1246:A1 0
5 *1246:S *1246:A1 1.21258e-05
6 *234:62 *1246:A1 0.000142856
*RES
1 *1359:X *1246:A1 30.4036 
*END

*D_NET *301 7.0902e-05
*CONN
*I *1087:A I *D sky130_fd_sc_hd__inv_2
*I *1360:X O *D sky130_fd_sc_hd__dlygate4sd3_1
*CAP
1 *1087:A 1.95172e-05
2 *1360:X 1.95172e-05
3 *1089:A1 *1087:A 3.18676e-05
*RES
1 *1360:X *1087:A 19.1357 
*END

*D_NET *302 0.000593387
*CONN
*I *1238:A1 I *D sky130_fd_sc_hd__mux2_1
*I *1361:X O *D sky130_fd_sc_hd__dlygate4sd3_1
*CAP
1 *1238:A1 0.000138788
2 *1361:X 0.000138788
3 *114:65 *1238:A1 0.000315812
*RES
1 *1361:X *1238:A1 22.0107 
*END

*D_NET *303 0.000858492
*CONN
*I *1242:A1 I *D sky130_fd_sc_hd__mux2_1
*I *1362:X O *D sky130_fd_sc_hd__dlygate4sd3_1
*CAP
1 *1242:A1 0.000338632
2 *1362:X 0.000338632
3 *1243:A *1242:A1 0
4 *114:71 *1242:A1 9.96238e-05
5 *233:97 *1242:A1 8.16036e-05
*RES
1 *1362:X *1242:A1 33.5643 
*END

*D_NET *304 7.41468e-05
*CONN
*I *1233:A I *D sky130_fd_sc_hd__inv_2
*I *1363:X O *D sky130_fd_sc_hd__dlygate4sd3_1
*CAP
1 *1233:A 3.70734e-05
2 *1363:X 3.70734e-05
*RES
1 *1363:X *1233:A 19.1357 
*END

*D_NET *305 0.00868743
*CONN
*I *1250:A0 I *D sky130_fd_sc_hd__mux2_1
*I *1383:X O *D sky130_fd_sc_hd__clkbuf_1
*CAP
1 *1250:A0 0.0014218
2 *1383:X 0.0019795
3 *305:18 0.0034013
4 *305:18 *1077:A 0.000453585
5 *305:18 *1374:A 0.000136384
6 *305:18 *362:6 0.000123924
7 *1069:B1_N *305:18 1.42905e-05
8 *1226:A1 *305:18 2.60673e-05
9 *1226:A2 *305:18 0.000139338
10 *1226:B1_N *1250:A0 0.000123068
11 *1227:B1 *305:18 0.000227971
12 *1311:D *305:18 0.000228508
13 *1314:RESET_B *305:18 1.60121e-05
14 *106:8 *305:18 2.38501e-05
15 *114:40 *1250:A0 0.000371822
*RES
1 *1383:X *305:18 47.7107 
2 *305:18 *1250:A0 27.7107 
*END

*D_NET *306 0.00102914
*CONN
*I *1156:B1 I *D sky130_fd_sc_hd__a31o_1
*I *1364:X O *D sky130_fd_sc_hd__dlygate4sd3_1
*CAP
1 *1156:B1 0.00019579
2 *1364:X 0.00019579
3 *1156:B1 *314:10 2.55698e-05
4 *1156:B1 *314:49 0.000141858
5 *1156:B1 *314:55 3.40802e-05
6 *1153:A2 *1156:B1 0.000323207
7 *1156:A3 *1156:B1 2.70242e-05
8 *1157:C1 *1156:B1 3.08664e-05
9 *259:30 *1156:B1 5.49544e-05
*RES
1 *1364:X *1156:B1 32.9036 
*END

*D_NET *307 0.00148386
*CONN
*I *1060:A1 I *D sky130_fd_sc_hd__a22o_1
*I *1366:X O *D sky130_fd_sc_hd__dlygate4sd3_1
*CAP
1 *1060:A1 0.000473159
2 *1366:X 0.000473159
3 *1060:A1 *1167:A_N 9.04413e-05
4 *1060:A1 *336:12 0.000175989
5 *1060:B1 *1060:A1 1.6806e-05
6 *1085:C *1060:A1 0.00012342
7 *1144:A *1060:A1 5.50052e-05
8 *104:30 *1060:A1 7.58841e-05
*RES
1 *1366:X *1060:A1 35.6714 
*END

*D_NET *308 0.00122578
*CONN
*I *1084:B2 I *D sky130_fd_sc_hd__a22o_1
*I *1367:X O *D sky130_fd_sc_hd__dlygate4sd3_1
*CAP
1 *1084:B2 0.000553285
2 *1367:X 0.000553285
3 *1084:B2 *333:14 3.39036e-05
4 *109:51 *1084:B2 7.15962e-05
5 *110:55 *1084:B2 9.25014e-06
6 *184:96 *1084:B2 4.45768e-06
7 *250:28 *1084:B2 0
*RES
1 *1367:X *1084:B2 36.5821 
*END

*D_NET *309 0.00378115
*CONN
*I *1077:A I *D sky130_fd_sc_hd__inv_2
*I *1095:C I *D sky130_fd_sc_hd__nor3_2
*I *1368:X O *D sky130_fd_sc_hd__buf_1
*CAP
1 *1077:A 0.000372739
2 *1095:C 0.000402758
3 *1368:X 0.000288094
4 *309:8 0.00106359
5 *1095:C *359:19 0
6 *1095:C *361:12 7.83366e-05
7 *1069:A2 *309:8 0.000443463
8 *1069:B1_N *1077:A 0.000207657
9 *1089:A1 *1095:C 1.69115e-05
10 *1226:A1 *1077:A 2.38501e-05
11 *1314:CLK *1077:A 3.47927e-05
12 *229:20 *1095:C 0
13 *262:61 *1095:C 0.000188947
14 *262:68 *1077:A 0.000133781
15 *262:68 *1095:C 7.2646e-05
16 *305:18 *1077:A 0.000453585
*RES
1 *1368:X *309:8 18.0321 
2 *309:8 *1095:C 22.0679 
3 *309:8 *1077:A 25.3714 
*END

*D_NET *310 0.00153997
*CONN
*I *1096:B I *D sky130_fd_sc_hd__nor2_1
*I *1369:X O *D sky130_fd_sc_hd__dlygate4sd3_1
*CAP
1 *1096:B 0.000491371
2 *1369:X 0.000491371
3 *1096:B *1102:B1 9.15842e-06
4 *1096:B *1228:A 4.9647e-05
5 *1096:B *1230:A1 9.48686e-05
6 *1096:B *339:23 0.000141935
7 *1096:B *340:30 6.10212e-05
8 *1096:B *360:14 4.98055e-06
9 *1100:B *1096:B 3.75959e-05
10 *1230:B1 *1096:B 0.000125724
11 *260:103 *1096:B 3.22964e-05
*RES
1 *1369:X *1096:B 37.1179 
*END

*D_NET *311 0.0167766
*CONN
*I *1252:A0 I *D sky130_fd_sc_hd__mux2_1
*I *1384:X O *D sky130_fd_sc_hd__buf_1
*CAP
1 *1252:A0 0.000193124
2 *1384:X 0.00293307
3 *311:20 0.00168209
4 *311:12 0.00203987
5 *311:8 0.00348398
6 *311:8 *323:10 6.07474e-05
7 *311:12 *1198:A 5.99442e-05
8 *311:20 *1092:A2 0
9 *311:20 *1092:S1 6.98251e-05
10 *311:20 *1340:A 8.06491e-05
11 *311:20 *349:38 4.35048e-05
12 *311:20 *358:8 3.87368e-05
13 *1083:A *311:12 3.32091e-05
14 *1083:C *311:12 0.000144526
15 *1086:A *311:20 3.75959e-05
16 *1190:A2 *311:12 0.000143797
17 *1193:S *311:12 0.000288571
18 *1194:A *311:8 0.000119969
19 *1252:A1 *1252:A0 0.000123924
20 *1252:S *311:20 7.80059e-05
21 *1273:CLK *311:8 1.84776e-05
22 *1273:D *311:8 0.000245911
23 *1302:D *311:20 1.30914e-05
24 *1328:A *311:20 0.000723307
25 *26:16 *311:20 0
26 *112:86 *311:20 9.34992e-05
27 *193:10 *311:12 0.000122439
28 *193:12 *311:12 0.000910786
29 *230:20 *311:20 0.00012396
30 *237:10 *311:20 0
31 *240:29 *311:12 0.00020815
32 *240:29 *311:20 0.00136023
33 *260:52 *311:20 0.000466982
34 *260:72 *311:20 0
35 *263:40 *311:20 0.000834631
*RES
1 *1384:X *311:8 49.2464 
2 *311:8 *311:12 17.0089 
3 *311:12 *311:20 47.6339 
4 *311:20 *1252:A0 11.8893 
*END

*D_NET *312 0.00139555
*CONN
*I *1088:B I *D sky130_fd_sc_hd__nand2_4
*I *1068:A I *D sky130_fd_sc_hd__or2b_1
*I *1385:X O *D sky130_fd_sc_hd__buf_1
*CAP
1 *1088:B 0
2 *1068:A 0.000414953
3 *1385:X 0.00017667
4 *312:8 0.000591624
5 *1068:A *1068:B_N 2.89016e-05
6 *1068:A *359:6 1.06439e-05
7 *1089:B1 *1068:A 0
8 *1311:SET_B *1068:A 3.20153e-05
9 *1385:A *312:8 4.95742e-05
10 *114:12 *312:8 0
11 *238:97 *1068:A 9.11695e-05
*RES
1 *1385:X *312:8 11.8 
2 *312:8 *1068:A 25.4071 
3 *312:8 *1088:B 9.3 
*END

*D_NET *313 0.0049988
*CONN
*I *1152:B I *D sky130_fd_sc_hd__xor2_1
*I *1156:A2 I *D sky130_fd_sc_hd__a31o_1
*I *1154:B I *D sky130_fd_sc_hd__and3_1
*I *1050:C_N I *D sky130_fd_sc_hd__or3b_2
*I *1163:B I *D sky130_fd_sc_hd__and4_1
*I *1147:S I *D sky130_fd_sc_hd__mux2_1
*I *1263:Q O *D sky130_fd_sc_hd__dfrtp_2
*CAP
1 *1152:B 0
2 *1156:A2 0.000106244
3 *1154:B 0.000246347
4 *1050:C_N 1.42311e-05
5 *1163:B 0.000192173
6 *1147:S 0.00012889
7 *1263:Q 0.000254178
8 *313:31 0.000260106
9 *313:29 0.000356747
10 *313:25 0.000332363
11 *313:14 0.000319622
12 *313:12 0.000275489
13 *1147:S *1152:A 2.11336e-05
14 *1156:A2 *314:49 2.38501e-05
15 *1156:A2 *314:55 0.000195638
16 *1156:A2 *315:10 1.24368e-05
17 *1163:B *1163:A 5.52302e-05
18 *1163:B *1163:C 6.05161e-06
19 *1163:B *1163:D 2.58821e-05
20 *1163:B *315:12 0
21 *313:25 *1152:A 3.41597e-05
22 *313:25 *314:55 0.000182799
23 *313:31 *315:12 0
24 *1147:A0 *1147:S 1.19813e-05
25 *1153:A3 *1163:B 2.11419e-05
26 *1153:A3 *313:29 9.16818e-05
27 *1153:A3 *313:31 7.07976e-05
28 *1153:B1 *313:12 3.45899e-05
29 *1153:B1 *313:25 7.95289e-05
30 *1153:B2 *313:25 9.84673e-05
31 *1156:A3 *1156:A2 3.50746e-05
32 *1263:RESET_B *313:12 0.000185403
33 *1301:CLK *1050:C_N 5.50052e-05
34 *1301:CLK *1154:B 0.000465317
35 *84:14 *1050:C_N 2.85321e-05
36 *84:14 *1163:B 7.58841e-05
37 *151:60 *1147:S 0.000404439
38 *151:60 *313:25 0.000297383
*RES
1 *1263:Q *313:12 22.0143 
2 *313:12 *313:14 0.428571 
3 *313:14 *1147:S 13.55 
4 *313:14 *313:25 5.05357 
5 *313:25 *313:29 5.83929 
6 *313:29 *313:31 1.03571 
7 *313:31 *1163:B 16.8 
8 *313:31 *1050:C_N 14.3357 
9 *313:29 *1154:B 18.8893 
10 *313:25 *1156:A2 11.9071 
11 *313:12 *1152:B 9.3 
*END

*D_NET *314 0.0040597
*CONN
*I *1156:A1 I *D sky130_fd_sc_hd__a31o_1
*I *1153:A1 I *D sky130_fd_sc_hd__a32o_1
*I *1152:A I *D sky130_fd_sc_hd__xor2_1
*I *1154:A I *D sky130_fd_sc_hd__and3_1
*I *1050:A I *D sky130_fd_sc_hd__or3b_2
*I *1163:A I *D sky130_fd_sc_hd__and4_1
*I *1264:Q O *D sky130_fd_sc_hd__dfrtp_2
*CAP
1 *1156:A1 0
2 *1153:A1 0
3 *1152:A 0.000157386
4 *1154:A 4.36161e-05
5 *1050:A 1.86394e-05
6 *1163:A 0.000264545
7 *1264:Q 0.00014578
8 *314:55 0.000274901
9 *314:49 0.000148917
10 *314:29 6.22555e-05
11 *314:16 0.000477891
12 *314:10 0.000390527
13 *1050:A *1154:C 1.98839e-05
14 *1154:A *1154:C 9.83442e-05
15 *1163:A *1163:D 0.000248582
16 *1163:A *315:12 5.36098e-05
17 *314:16 *315:10 7.74068e-05
18 *314:16 *315:12 6.78841e-05
19 *314:49 *315:10 8.43535e-06
20 *1147:S *1152:A 2.11336e-05
21 *1153:A2 *314:55 0.000105302
22 *1153:A3 *314:55 5.49995e-05
23 *1153:B1 *1152:A 0.000248013
24 *1156:A2 *314:49 2.38501e-05
25 *1156:A2 *314:55 0.000195638
26 *1156:A3 *314:49 2.84109e-05
27 *1156:B1 *314:10 2.55698e-05
28 *1156:B1 *314:49 0.000141858
29 *1156:B1 *314:55 3.40802e-05
30 *1163:B *1163:A 5.52302e-05
31 *1264:D *1152:A 0.000184503
32 *1264:D *314:55 1.12713e-05
33 *1301:CLK *1050:A 5.33005e-05
34 *1301:CLK *1154:A 4.60235e-05
35 *151:89 *1163:A 0
36 *151:93 *314:16 0
37 *259:30 *314:10 5.49544e-05
38 *313:25 *1152:A 3.41597e-05
39 *313:25 *314:55 0.000182799
*RES
1 *1264:Q *314:10 15.9786 
2 *314:10 *314:16 3.51786 
3 *314:16 *1163:A 18.7464 
4 *314:16 *314:29 4.5 
5 *314:29 *1050:A 9.83571 
6 *314:29 *1154:A 10.675 
7 *314:10 *314:49 5.85714 
8 *314:49 *314:55 4.57143 
9 *314:55 *1152:A 13.55 
10 *314:55 *1153:A1 9.3 
11 *314:49 *1156:A1 9.3 
*END

*D_NET *315 0.00378903
*CONN
*I *1364:A I *D sky130_fd_sc_hd__dlygate4sd3_1
*I *1050:B I *D sky130_fd_sc_hd__or3b_2
*I *1154:C I *D sky130_fd_sc_hd__and3_1
*I *1163:D I *D sky130_fd_sc_hd__and4_1
*I *1265:Q O *D sky130_fd_sc_hd__dfrtp_1
*CAP
1 *1364:A 0.000273262
2 *1050:B 0
3 *1154:C 0.000167389
4 *1163:D 0.000336806
5 *1265:Q 0
6 *315:12 0.000588806
7 *315:10 0.000518626
8 *315:4 0.000707277
9 *1163:D *1163:C 5.33005e-05
10 *1050:A *1154:C 1.98839e-05
11 *1154:A *1154:C 9.83442e-05
12 *1156:A2 *315:10 1.24368e-05
13 *1156:A3 *315:10 0.000268762
14 *1157:B1 *315:10 4.37451e-05
15 *1163:A *1163:D 0.000248582
16 *1163:A *315:12 5.36098e-05
17 *1163:B *1163:D 2.58821e-05
18 *1163:B *315:12 0
19 *1265:D *1364:A 5.20669e-05
20 *1265:D *315:10 3.08664e-05
21 *1301:CLK *1154:C 3.46464e-05
22 *84:14 *1163:D 0
23 *104:81 *1364:A 3.92821e-05
24 *104:81 *315:10 6.78202e-06
25 *151:41 *1163:D 0
26 *259:30 *1364:A 5.49489e-05
27 *313:31 *315:12 0
28 *314:16 *315:10 7.74068e-05
29 *314:16 *315:12 6.78841e-05
30 *314:49 *315:10 8.43535e-06
*RES
1 *1265:Q *315:4 9.3 
2 *315:4 *315:10 10.5893 
3 *315:10 *315:12 1.64286 
4 *315:12 *1163:D 20.4071 
5 *315:12 *1154:C 16.05 
6 *315:10 *1050:B 13.8 
7 *315:4 *1364:A 22.9429 
*END

*D_NET *316 0.00568901
*CONN
*I *1370:A I *D sky130_fd_sc_hd__dlygate4sd3_1
*I *1163:C I *D sky130_fd_sc_hd__and4_1
*I *1055:A I *D sky130_fd_sc_hd__nand2_1
*I *1052:A I *D sky130_fd_sc_hd__or4bb_1
*I *1266:Q O *D sky130_fd_sc_hd__dfrtp_1
*CAP
1 *1370:A 0.000138967
2 *1163:C 8.43752e-05
3 *1055:A 0
4 *1052:A 0.000562125
5 *1266:Q 0
6 *316:18 0.000897082
7 *316:8 0.00125191
8 *316:4 0.000971541
9 *1052:A *1056:B 0
10 *1052:A *1184:A1 0.000100165
11 *1151:A1 *1052:A 2.43447e-05
12 *1153:A3 *1052:A 0
13 *1153:A3 *1163:C 0.000140368
14 *1153:A3 *316:18 0.00019252
15 *1159:A2 *316:18 1.39726e-05
16 *1159:A3 *1052:A 0
17 *1159:B1 *1052:A 0
18 *1159:B1 *316:18 2.89114e-05
19 *1162:A1 *316:8 4.22349e-05
20 *1162:A2 *316:8 3.79877e-06
21 *1162:A3 *316:8 1.59373e-05
22 *1163:B *1163:C 6.05161e-06
23 *1163:D *1163:C 5.33005e-05
24 *1169:A2 *1052:A 0
25 *1177:A1 *1052:A 0
26 *1177:A2 *1052:A 0.000106488
27 *1240:A0 *1370:A 5.91296e-05
28 *1266:D *316:8 0.000218685
29 *84:14 *1163:C 7.54369e-05
30 *84:14 *316:18 6.06412e-05
31 *89:6 *316:18 6.62898e-05
32 *90:10 *1052:A 0
33 *151:29 *1370:A 0.000128154
34 *151:41 *316:8 0.000378802
35 *153:8 *316:8 5.52302e-05
36 *157:23 *1052:A 0
37 *157:23 *316:18 0
38 *250:28 *1370:A 1.25538e-05
*RES
1 *1266:Q *316:4 9.3 
2 *316:4 *316:8 15.7143 
3 *316:8 *316:18 14.875 
4 *316:18 *1052:A 24.5857 
5 *316:18 *1055:A 13.8 
6 *316:8 *1163:C 16.2821 
7 *316:4 *1370:A 21.3 
*END

*D_NET *317 0.00726098
*CONN
*I *1165:A I *D sky130_fd_sc_hd__nand2_1
*I *1055:B I *D sky130_fd_sc_hd__nand2_1
*I *1170:A I *D sky130_fd_sc_hd__and2_1
*I *1169:A1 I *D sky130_fd_sc_hd__a21o_1
*I *1051:A I *D sky130_fd_sc_hd__nand2_1
*I *1164:A I *D sky130_fd_sc_hd__or2_1
*I *1336:A I *D sky130_fd_sc_hd__dlygate4sd3_1
*I *1267:Q O *D sky130_fd_sc_hd__dfrtp_2
*CAP
1 *1165:A 1.05093e-05
2 *1055:B 0.000256727
3 *1170:A 0.000163207
4 *1169:A1 1.17492e-05
5 *1051:A 0.000263248
6 *1164:A 0
7 *1336:A 0
8 *1267:Q 0.000161739
9 *317:40 0.000502739
10 *317:38 0.000617284
11 *317:36 0.000683127
12 *317:30 0.000362048
13 *317:17 0.0003909
14 *317:8 0.000401164
15 *1051:A *1059:A 4.60115e-05
16 *1051:A *318:14 0.000228876
17 *1055:B *1177:B2 1.65498e-05
18 *1169:A1 *1169:B1 5.50052e-05
19 *1170:A *1170:B 8.95432e-05
20 *1170:A *320:43 5.33005e-05
21 *1170:A *320:51 5.33005e-05
22 *1170:A *338:27 0.000137639
23 *317:38 *320:51 2.22419e-05
24 *317:38 *338:10 0.000111088
25 *317:40 *1059:A 7.0889e-05
26 *317:40 *320:51 9.5919e-05
27 *1147:A1 *317:30 0.000147306
28 *1159:A3 *1055:B 0
29 *1164:B *317:17 3.49456e-06
30 *1164:B *317:30 0
31 *1166:B2 *1165:A 1.02504e-05
32 *1166:B2 *317:17 0.000139331
33 *1166:B2 *317:30 0.000168904
34 *1169:A2 *1051:A 4.27842e-06
35 *1169:A2 *317:38 0.000112208
36 *1169:A2 *317:40 0.000135254
37 *1173:A *1170:A 5.66971e-05
38 *1174:A1 *1051:A 0.000117872
39 *1177:A2 *1055:B 0.000185643
40 *1177:B1 *1055:B 7.22537e-05
41 *1178:B1 *317:36 0.000183277
42 *1178:B1 *317:38 3.17148e-05
43 *1178:B2 *317:36 7.57673e-05
44 *1181:B1 *317:36 3.34687e-05
45 *1181:B1 *317:38 0.000103032
46 *1182:D *317:40 6.69038e-05
47 *1267:RESET_B *317:8 0.000141729
48 *89:14 *1055:B 0
49 *93:8 *1051:A 6.7085e-05
50 *153:29 *317:30 4.29471e-05
51 *153:29 *317:36 5.03909e-05
52 *166:12 *1165:A 4.46689e-05
53 *166:12 *317:36 0.000213764
54 *166:12 *317:38 0.000192931
55 *170:8 *1169:A1 5.50052e-05
*RES
1 *1267:Q *317:8 12.3179 
2 *317:8 *1336:A 9.3 
3 *317:8 *317:17 4.25 
4 *317:17 *1164:A 9.3 
5 *317:17 *317:30 8.38393 
6 *317:30 *317:36 5.79464 
7 *317:36 *317:38 7.41071 
8 *317:38 *317:40 4.67857 
9 *317:40 *1051:A 20.4071 
10 *317:40 *1169:A1 14.3357 
11 *317:38 *1170:A 17.6393 
12 *317:36 *1055:B 18.7643 
13 *317:30 *1165:A 14.3804 
*END

*D_NET *318 0.00539139
*CONN
*I *1056:A I *D sky130_fd_sc_hd__or4bb_1
*I *1170:B I *D sky130_fd_sc_hd__and2_1
*I *1169:B1 I *D sky130_fd_sc_hd__a21o_1
*I *1051:B I *D sky130_fd_sc_hd__nand2_1
*I *1167:C I *D sky130_fd_sc_hd__and4b_1
*I *1268:Q O *D sky130_fd_sc_hd__dfrtp_1
*CAP
1 *1056:A 0.000110672
2 *1170:B 0.000403627
3 *1169:B1 9.93138e-05
4 *1051:B 0
5 *1167:C 0.000109648
6 *1268:Q 0.000206801
7 *318:47 0.000707488
8 *318:30 0.000412927
9 *318:14 0.000174464
10 *318:8 0.000392041
11 *1056:A *1056:B 9.84729e-05
12 *1056:A *1056:D_N 3.97677e-05
13 *1056:A *338:27 2.21384e-05
14 *1169:B1 *319:57 0.000139864
15 *1170:B *1056:D_N 6.05161e-06
16 *1170:B *320:43 2.16341e-05
17 *1170:B *320:51 0.000113426
18 *1170:B *338:27 5.74499e-06
19 *318:47 *1052:C_N 0.000193596
20 *318:47 *1056:B 0.00021796
21 *318:47 *1056:D_N 2.77603e-05
22 *318:47 *319:57 3.75959e-05
23 *1051:A *318:14 0.000228876
24 *1053:C *1167:C 3.65727e-05
25 *1053:C *318:14 1.87331e-05
26 *1060:B2 *318:8 4.36699e-05
27 *1063:A2 *318:8 0
28 *1080:B *318:8 0
29 *1169:A1 *1169:B1 5.50052e-05
30 *1169:A2 *318:30 3.67279e-06
31 *1169:A2 *318:47 6.26079e-05
32 *1170:A *1170:B 8.95432e-05
33 *1173:A *1170:B 2.85321e-05
34 *1174:A1 *1167:C 3.46826e-05
35 *1174:A1 *318:14 0.000315812
36 *1184:A2 *1167:C 9.46705e-05
37 *1185:B1 *318:47 1.12669e-05
38 *1186:A2 *1167:C 0.000268042
39 *85:6 *1167:C 0.000141935
40 *85:6 *318:14 1.62025e-05
41 *93:12 *318:8 0.000269863
42 *104:30 *1167:C 1.54209e-05
43 *170:8 *1169:B1 0.000115287
*RES
1 *1268:Q *318:8 18.4786 
2 *318:8 *318:14 7.92857 
3 *318:14 *1167:C 13.55 
4 *318:14 *1051:B 9.3 
5 *318:8 *318:30 1.94643 
6 *318:30 *1169:B1 17.2464 
7 *318:30 *318:47 10.0893 
8 *318:47 *1170:B 16.3179 
9 *318:47 *1056:A 11.8 
*END

*D_NET *319 0.0100345
*CONN
*I *1175:A I *D sky130_fd_sc_hd__inv_2
*I *1177:B2 I *D sky130_fd_sc_hd__o22a_1
*I *1176:A I *D sky130_fd_sc_hd__nand2_1
*I *1179:A1 I *D sky130_fd_sc_hd__a31o_1
*I *1180:A I *D sky130_fd_sc_hd__nand3_1
*I *1183:A1 I *D sky130_fd_sc_hd__a31o_1
*I *1056:D_N I *D sky130_fd_sc_hd__or4bb_1
*I *1052:B I *D sky130_fd_sc_hd__or4bb_1
*I *1182:A I *D sky130_fd_sc_hd__nand4_1
*I *1269:Q O *D sky130_fd_sc_hd__dfrtp_4
*CAP
1 *1175:A 0.00032119
2 *1177:B2 0.00016299
3 *1176:A 1.72153e-05
4 *1179:A1 0
5 *1180:A 0
6 *1183:A1 3.32843e-05
7 *1056:D_N 0.000188031
8 *1052:B 6.60309e-05
9 *1182:A 7.19756e-05
10 *1269:Q 5.08025e-05
11 *319:106 0.000570681
12 *319:95 0.000426255
13 *319:57 0.000667542
14 *319:38 0.000950807
15 *319:32 0.00125419
16 *319:18 0.000896241
17 *319:12 0.000391959
18 *319:6 0.000587489
19 *1056:D_N *1056:B 0.000171355
20 *1056:D_N *338:27 4.58194e-05
21 *1182:A *1059:A 0.000120368
22 *319:18 *1179:B1 0.000155067
23 *319:18 *320:83 4.25176e-05
24 *319:32 *320:8 0.000195542
25 *319:32 *320:18 0
26 *319:32 *320:22 0
27 *319:32 *320:83 0.000135028
28 *1055:B *1177:B2 1.65498e-05
29 *1056:A *1056:D_N 3.97677e-05
30 *1169:B1 *319:57 0.000139864
31 *1170:B *1056:D_N 6.05161e-06
32 *1174:B1 *319:38 5.10039e-05
33 *1174:B1 *319:57 2.12647e-05
34 *1174:C1 *1182:A 0.000121897
35 *1176:B *1176:A 7.82542e-06
36 *1176:B *319:106 3.44836e-05
37 *1177:B1 *1176:A 1.04232e-05
38 *1177:B1 *1177:B2 0.000209041
39 *1177:B1 *319:106 1.57414e-05
40 *1178:A1_N *1175:A 0.000264923
41 *1178:B2 *1175:A 7.14693e-05
42 *1179:A2 *319:12 1.62621e-05
43 *1179:A3 *319:106 2.94548e-05
44 *1181:A2 *319:18 2.84749e-05
45 *1181:A3 *319:18 2.93304e-05
46 *1181:B1 *319:32 6.32633e-05
47 *1185:A2 *1182:A 5.33005e-05
48 *1185:B1 *1052:B 9.84729e-05
49 *1185:B1 *1182:A 2.59355e-05
50 *1268:D *319:38 1.62054e-05
51 *1269:D *1175:A 0.00025877
52 *1269:D *319:6 0.000141729
53 *1270:RESET_B *319:32 0.00018693
54 *1271:D *319:32 0.000312152
55 *153:8 *1175:A 2.14658e-05
56 *170:8 *319:38 1.16543e-05
57 *170:8 *319:57 4.07297e-05
58 *172:10 *319:32 0
59 *174:68 *319:106 6.58013e-05
60 *258:77 *319:32 3.65344e-05
61 *318:47 *1056:D_N 2.77603e-05
62 *318:47 *319:57 3.75959e-05
*RES
1 *1269:Q *319:6 10.6571 
2 *319:6 *319:12 7.69643 
3 *319:12 *319:18 8 
4 *319:18 *319:32 28.0536 
5 *319:32 *319:38 10.1786 
6 *319:38 *1182:A 20.4786 
7 *319:38 *319:57 10.1786 
8 *319:57 *1052:B 14.7464 
9 *319:57 *1056:D_N 17.9071 
10 *319:32 *1183:A1 14.5321 
11 *319:18 *1180:A 9.3 
12 *319:12 *319:95 5.03571 
13 *319:95 *1179:A1 9.3 
14 *319:95 *319:106 5.28571 
15 *319:106 *1176:A 9.72857 
16 *319:106 *1177:B2 12.4473 
17 *319:6 *1175:A 16.55 
*END

*D_NET *320 0.00590448
*CONN
*I *1179:B1 I *D sky130_fd_sc_hd__a31o_1
*I *1180:B I *D sky130_fd_sc_hd__nand3_1
*I *1334:A I *D sky130_fd_sc_hd__dlygate4sd3_1
*I *1182:B I *D sky130_fd_sc_hd__nand4_1
*I *1056:C_N I *D sky130_fd_sc_hd__or4bb_1
*I *1052:C_N I *D sky130_fd_sc_hd__or4bb_1
*I *1183:A2 I *D sky130_fd_sc_hd__a31o_1
*I *1270:Q O *D sky130_fd_sc_hd__dfrtp_2
*CAP
1 *1179:B1 0.000115888
2 *1180:B 0
3 *1334:A 1.88417e-05
4 *1182:B 0
5 *1056:C_N 0
6 *1052:C_N 9.44865e-05
7 *1183:A2 0.000108182
8 *1270:Q 6.56875e-05
9 *320:83 0.000165348
10 *320:51 0.000236704
11 *320:43 0.000643276
12 *320:22 0.000774351
13 *320:18 0.000332112
14 *320:8 0.000263306
15 *1052:C_N *321:50 5.33005e-05
16 *1183:A2 *321:37 1.19472e-05
17 *320:51 *1059:A 3.21438e-05
18 *320:51 *338:10 2.72055e-05
19 *320:51 *338:27 8.74903e-05
20 *1169:A2 *1052:C_N 6.41902e-05
21 *1170:A *320:43 5.33005e-05
22 *1170:A *320:51 5.33005e-05
23 *1170:B *320:43 2.16341e-05
24 *1170:B *320:51 0.000113426
25 *1171:A *1334:A 9.83442e-05
26 *1171:A *320:18 9.66977e-05
27 *1174:C1 *320:43 3.21438e-05
28 *1179:A2 *320:18 0.00013334
29 *1179:A3 *1179:B1 0.000218446
30 *1180:C *1179:B1 5.49489e-05
31 *1181:A1 *1334:A 4.60235e-05
32 *1181:A1 *320:18 7.18552e-05
33 *1181:A2 *320:18 2.2351e-05
34 *1181:B1 *1179:B1 0.000129023
35 *1181:B1 *320:8 0.000140088
36 *1181:B1 *320:18 3.13656e-05
37 *1181:B1 *320:83 0.000164859
38 *1183:A3 *320:43 5.19522e-06
39 *1185:A2 *320:43 9.45048e-06
40 *1185:B1 *1052:C_N 0.000110164
41 *1185:B1 *320:43 0.000225374
42 *172:10 *320:18 1.00332e-05
43 *172:10 *320:22 5.72546e-05
44 *172:10 *320:43 8.28223e-06
45 *174:21 *320:43 6.32065e-05
46 *317:38 *320:51 2.22419e-05
47 *317:40 *320:51 9.5919e-05
48 *318:47 *1052:C_N 0.000193596
49 *319:18 *1179:B1 0.000155067
50 *319:18 *320:83 4.25176e-05
51 *319:32 *320:8 0.000195542
52 *319:32 *320:18 0
53 *319:32 *320:22 0
54 *319:32 *320:83 0.000135028
*RES
1 *1270:Q *320:8 11.4964 
2 *320:8 *320:18 12.7321 
3 *320:18 *320:22 7.66071 
4 *320:22 *1183:A2 15.4429 
5 *320:22 *320:43 20.125 
6 *320:43 *320:51 12.8214 
7 *320:51 *1052:C_N 21.3893 
8 *320:51 *1056:C_N 9.3 
9 *320:43 *1182:B 9.3 
10 *320:18 *1334:A 10.2464 
11 *320:8 *320:83 1.76786 
12 *320:83 *1180:B 9.3 
13 *320:83 *1179:B1 22.5143 
*END

*D_NET *321 0.00491875
*CONN
*I *1056:B I *D sky130_fd_sc_hd__or4bb_1
*I *1184:A1 I *D sky130_fd_sc_hd__a32o_1
*I *1052:D_N I *D sky130_fd_sc_hd__or4bb_1
*I *1182:C I *D sky130_fd_sc_hd__nand4_1
*I *1183:B1 I *D sky130_fd_sc_hd__a31o_1
*I *1271:Q O *D sky130_fd_sc_hd__dfrtp_1
*CAP
1 *1056:B 0.000168023
2 *1184:A1 0.000230405
3 *1052:D_N 0
4 *1182:C 9.79033e-06
5 *1183:B1 3.94102e-05
6 *1271:Q 8.42559e-05
7 *321:50 0.000541178
8 *321:37 0.000933721
9 *321:8 0.000904846
10 *1052:A *1056:B 0
11 *1052:A *1184:A1 0.000100165
12 *1052:C_N *321:50 5.33005e-05
13 *1056:A *1056:B 9.84729e-05
14 *1056:D_N *1056:B 0.000171355
15 *1169:A2 *1056:B 0
16 *1183:A2 *321:37 1.19472e-05
17 *1183:A3 *321:37 0.000130552
18 *1184:A2 *1184:A1 3.94344e-05
19 *1184:A3 *1184:A1 1.49628e-06
20 *1184:B1 *1184:A1 0
21 *1185:A2 *321:37 0.000221071
22 *1185:A3 *321:37 9.96172e-05
23 *1185:B1 *1184:A1 0.000356677
24 *1185:B1 *321:37 2.40478e-05
25 *1185:B1 *321:50 0.000133541
26 *1271:D *1183:B1 5.65955e-05
27 *1271:D *321:8 4.7812e-05
28 *1271:D *321:37 8.6642e-05
29 *86:27 *1184:A1 0.000156433
30 *318:47 *1056:B 0.00021796
*RES
1 *1271:Q *321:8 11.0857 
2 *321:8 *1183:B1 10.5679 
3 *321:8 *321:37 21.875 
4 *321:37 *1182:C 9.72857 
5 *321:37 *321:50 3.14286 
6 *321:50 *1052:D_N 9.3 
7 *321:50 *1184:A1 16.1973 
8 *321:50 *1056:B 22.4071 
*END

*D_NET *322 0.00718809
*CONN
*I *1354:A I *D sky130_fd_sc_hd__dlygate4sd3_1
*I *1062:A3 I *D sky130_fd_sc_hd__a41o_1
*I *1082:B I *D sky130_fd_sc_hd__nand2_1
*I *1191:B I *D sky130_fd_sc_hd__or2_1
*I *1206:A I *D sky130_fd_sc_hd__or2b_1
*I *1202:B_N I *D sky130_fd_sc_hd__or2b_1
*I *1272:Q O *D sky130_fd_sc_hd__dfrtp_2
*CAP
1 *1354:A 0
2 *1062:A3 0.000740984
3 *1082:B 8.7359e-05
4 *1191:B 0
5 *1206:A 0
6 *1202:B_N 0.000166277
7 *1272:Q 5.23858e-05
8 *322:32 0.000661802
9 *322:20 0.000564883
10 *322:18 0.000228363
11 *322:16 0.00108624
12 *322:8 0.000325997
13 *1062:A3 *1062:A1 6.05161e-06
14 *1062:A3 *1192:A 9.90431e-05
15 *1062:A3 *1193:A0 0.0001399
16 *1062:A3 *1210:A 0.000187331
17 *1202:B_N *324:29 0.000186765
18 *322:20 *323:16 4.83408e-05
19 *1062:A4 *1062:A3 5.52302e-05
20 *1190:A1 *322:16 0.000197591
21 *1190:B1 *322:8 5.71472e-05
22 *1190:B1 *322:16 2.42662e-05
23 *1192:B *1062:A3 3.06878e-06
24 *1192:C *1062:A3 1.95435e-05
25 *1193:A1 *1062:A3 9.60875e-05
26 *1208:S *1202:B_N 0.000101859
27 *1210:B *1062:A3 3.06878e-06
28 *1210:C *1062:A3 7.12594e-05
29 *1210:D *1062:A3 9.90367e-05
30 *1211:S *1062:A3 0.000268929
31 *1219:A *322:32 2.59355e-05
32 *1219:C *322:32 9.41642e-05
33 *1220:S *322:32 0.000143819
34 *1272:D *322:8 1.74352e-05
35 *1320:A *322:16 9.15804e-05
36 *1320:A *322:18 0.000214342
37 *1320:A *322:20 3.34295e-05
38 *110:14 *1062:A3 7.62368e-06
39 *188:8 *322:32 1.0078e-05
40 *193:12 *322:16 9.91086e-05
41 *193:12 *322:18 0.00022117
42 *193:12 *322:20 0.000199089
43 *193:12 *322:32 4.93834e-05
44 *193:36 *322:32 0.000356682
45 *199:10 *322:32 4.54397e-05
*RES
1 *1272:Q *322:8 10.675 
2 *322:8 *322:16 9.16071 
3 *322:16 *322:18 2.85714 
4 *322:18 *322:20 2.55357 
5 *322:20 *322:32 14.25 
6 *322:32 *1202:B_N 22.1393 
7 *322:32 *1206:A 9.3 
8 *322:20 *1191:B 13.8 
9 *322:18 *1082:B 15.175 
10 *322:16 *1062:A3 26.7286 
11 *322:8 *1354:A 9.3 
*END

*D_NET *323 0.00555681
*CONN
*I *1191:A I *D sky130_fd_sc_hd__or2_1
*I *1193:A0 I *D sky130_fd_sc_hd__mux2_1
*I *1082:A I *D sky130_fd_sc_hd__nand2_1
*I *1062:A2 I *D sky130_fd_sc_hd__a41o_1
*I *1206:B_N I *D sky130_fd_sc_hd__or2b_1
*I *1202:A I *D sky130_fd_sc_hd__or2b_1
*I *1273:Q O *D sky130_fd_sc_hd__dfrtp_1
*CAP
1 *1191:A 0
2 *1193:A0 0.000228434
3 *1082:A 0
4 *1062:A2 0.00029183
5 *1206:B_N 7.53807e-05
6 *1202:A 0.000177816
7 *1273:Q 0.000191401
8 *323:26 0.000324072
9 *323:24 0.000907374
10 *323:20 0.000575515
11 *323:16 0.000341386
12 *323:10 0.000273506
13 *1062:A2 *1062:A1 5.49489e-05
14 *1062:A2 *1210:A 0.000137983
15 *1062:A2 *324:68 0.000102382
16 *1202:A *324:8 5.54817e-06
17 *1202:A *324:68 0.000107104
18 *323:26 *324:68 6.3331e-05
19 *1062:A3 *1193:A0 0.0001399
20 *1062:A4 *1062:A2 5.41794e-05
21 *1192:C *1193:A0 0.000139653
22 *1192:C *323:16 0.000127589
23 *1193:A1 *1193:A0 3.97677e-05
24 *1193:S *1193:A0 7.94043e-05
25 *1194:A *323:10 0.000227971
26 *1208:S *1202:A 5.65955e-05
27 *1220:S *323:10 0.000203153
28 *1220:S *323:16 5.66971e-05
29 *1273:D *323:10 0.00031231
30 *1320:A *1193:A0 7.83366e-05
31 *1320:A *323:16 4.46186e-06
32 *110:10 *323:20 1.58163e-05
33 *110:10 *323:24 1.92789e-05
34 *188:8 *323:16 3.45899e-05
35 *311:8 *323:10 6.07474e-05
36 *322:20 *323:16 4.83408e-05
*RES
1 *1273:Q *323:10 15.6214 
2 *323:10 *323:16 6.98214 
3 *323:16 *323:20 5.03571 
4 *323:20 *323:24 12.8393 
5 *323:24 *323:26 1.64286 
6 *323:26 *1202:A 16.8893 
7 *323:26 *1206:B_N 15.0679 
8 *323:24 *1062:A2 19.0321 
9 *323:20 *1082:A 9.3 
10 *323:16 *1193:A0 19.3714 
11 *323:10 *1191:A 9.3 
*END

*D_NET *324 0.00472552
*CONN
*I *1210:A I *D sky130_fd_sc_hd__or4_1
*I *1062:A1 I *D sky130_fd_sc_hd__a41o_1
*I *1081:A I *D sky130_fd_sc_hd__inv_2
*I *1199:A I *D sky130_fd_sc_hd__or4_1
*I *1207:A I *D sky130_fd_sc_hd__or4_1
*I *1203:A I *D sky130_fd_sc_hd__or4_1
*I *1274:Q O *D sky130_fd_sc_hd__dfrtp_2
*CAP
1 *1210:A 0.000154193
2 *1062:A1 7.81192e-05
3 *1081:A 0
4 *1199:A 0.000251834
5 *1207:A 1.61254e-05
6 *1203:A 0.000246157
7 *1274:Q 0
8 *324:68 0.000569561
9 *324:42 0.000474278
10 *324:29 0.000505849
11 *324:8 0.000565181
12 *324:6 0.000388993
13 *324:68 *334:8 0
14 *1062:A2 *1062:A1 5.49489e-05
15 *1062:A2 *1210:A 0.000137983
16 *1062:A2 *324:68 0.000102382
17 *1062:A3 *1062:A1 6.05161e-06
18 *1062:A3 *1210:A 0.000187331
19 *1062:A4 *1210:A 5.52238e-05
20 *1062:A4 *324:68 1.62621e-05
21 *1197:A2 *1062:A1 0
22 *1199:B *1199:A 5.30637e-06
23 *1199:D *1199:A 0.000134636
24 *1202:A *324:8 5.54817e-06
25 *1202:A *324:68 0.000107104
26 *1202:B_N *324:29 0.000186765
27 *1203:D *1203:A 3.41517e-06
28 *1207:D *324:42 5.49995e-05
29 *1208:S *324:29 7.79215e-05
30 *1211:S *1062:A1 4.7812e-05
31 *184:51 *324:42 0.00022821
32 *323:26 *324:68 6.3331e-05
*RES
1 *1274:Q *324:6 13.8 
2 *324:6 *324:8 1.03571 
3 *324:8 *1203:A 17.6571 
4 *324:8 *324:29 9.57143 
5 *324:29 *1207:A 9.72857 
6 *324:29 *324:42 4.375 
7 *324:42 *1199:A 23.1393 
8 *324:42 *1081:A 9.3 
9 *324:6 *324:68 12.2679 
10 *324:68 *1062:A1 11.0857 
11 *324:68 *1210:A 13.1393 
*END

*D_NET *325 0.00218819
*CONN
*I *1372:A I *D sky130_fd_sc_hd__dlygate4sd3_1
*I *1276:Q O *D sky130_fd_sc_hd__dfrtp_1
*CAP
1 *1372:A 0.00052859
2 *1276:Q 0.00052859
3 *1127:S *1372:A 3.87848e-05
4 *1214:A1 *1372:A 0.000113622
5 *1214:S *1372:A 0.000182598
6 *1215:A *1372:A 5.65955e-05
7 *1255:D *1372:A 0.000129868
8 *1327:A *1372:A 5.71472e-05
9 *93:57 *1372:A 0.000133123
10 *235:76 *1372:A 0.000100969
11 *256:31 *1372:A 7.83659e-05
12 *256:53 *1372:A 9.54385e-05
13 *258:8 *1372:A 0.000144497
*RES
1 *1276:Q *1372:A 40.4036 
*END

*D_NET *326 0.000468723
*CONN
*I *1350:A I *D sky130_fd_sc_hd__dlygate4sd3_1
*I *1277:Q O *D sky130_fd_sc_hd__dfrtp_1
*CAP
1 *1350:A 0.000234361
2 *1277:Q 0.000234361
*RES
1 *1277:Q *1350:A 31.4214 
*END

*D_NET *327 0.000520968
*CONN
*I *1348:A I *D sky130_fd_sc_hd__dlygate4sd3_1
*I *1278:Q O *D sky130_fd_sc_hd__dfrtp_1
*CAP
1 *1348:A 0.000260484
2 *1278:Q 0.000260484
*RES
1 *1278:Q *1348:A 31.8321 
*END

*D_NET *328 0.000394332
*CONN
*I *1357:A I *D sky130_fd_sc_hd__dlygate4sd3_1
*I *1279:Q O *D sky130_fd_sc_hd__dfrtp_1
*CAP
1 *1357:A 0.000158283
2 *1279:Q 0.000158283
3 *1211:A1 *1357:A 7.77652e-05
4 *93:12 *1357:A 0
*RES
1 *1279:Q *1357:A 30.6 
*END

*D_NET *329 0.000424432
*CONN
*I *1342:A I *D sky130_fd_sc_hd__dlygate4sd3_1
*I *1280:Q O *D sky130_fd_sc_hd__dfrtp_1
*CAP
1 *1342:A 0.000212216
2 *1280:Q 0.000212216
*RES
1 *1280:Q *1342:A 22.0107 
*END

*D_NET *330 0.0034535
*CONN
*I *1356:A I *D sky130_fd_sc_hd__dlygate4sd3_1
*I *1137:A0 I *D sky130_fd_sc_hd__mux2_1
*I *1281:Q O *D sky130_fd_sc_hd__dfrtp_1
*CAP
1 *1356:A 0.000581755
2 *1137:A0 0.000838265
3 *1281:Q 0
4 *330:4 0.00142002
5 *1137:S *1137:A0 5.62995e-05
6 *1199:B *1356:A 0
7 *1200:S *1356:A 0
8 *1217:S *1356:A 0
9 *1276:CLK *1137:A0 4.05172e-05
10 *1276:D *1356:A 0
11 *1281:CLK *1137:A0 1.02132e-05
12 *1281:RESET_B *1137:A0 1.52723e-05
13 *1324:A *1356:A 2.89016e-05
14 *193:52 *1356:A 0
15 *232:35 *1137:A0 0.000370487
16 *240:10 *1356:A 0
17 *250:28 *1356:A 0
18 *255:6 *1137:A0 2.15245e-05
19 *255:6 *1356:A 1.72894e-05
20 *255:20 *1137:A0 5.29591e-05
*RES
1 *1281:Q *330:4 9.3 
2 *330:4 *1137:A0 22.0857 
3 *330:4 *1356:A 26.6036 
*END

*D_NET *331 0.000728668
*CONN
*I *1341:A I *D sky130_fd_sc_hd__dlygate4sd3_1
*I *1282:Q O *D sky130_fd_sc_hd__dfrtp_1
*CAP
1 *1341:A 0.000323968
2 *1282:Q 0.000323968
3 *112:99 *1341:A 0
4 *256:102 *1341:A 8.07313e-05
5 *256:116 *1341:A 0
6 *282:10 *1341:A 0
*RES
1 *1282:Q *1341:A 33.0286 
*END

*D_NET *332 0.000841147
*CONN
*I *1335:A I *D sky130_fd_sc_hd__dlygate4sd3_1
*I *1283:Q O *D sky130_fd_sc_hd__dfrtp_1
*CAP
1 *1335:A 0.000361032
2 *1283:Q 0.000361032
3 *1223:A1 *1335:A 2.48421e-05
4 *1262:D *1335:A 2.90501e-05
5 *276:10 *1335:A 6.51907e-05
*RES
1 *1283:Q *1335:A 34.2607 
*END

*D_NET *333 0.00756516
*CONN
*I *1198:B I *D sky130_fd_sc_hd__or3_2
*I *1187:B I *D sky130_fd_sc_hd__nor2_1
*I *1074:B_N I *D sky130_fd_sc_hd__or2b_2
*I *1145:A1 I *D sky130_fd_sc_hd__o21ba_1
*I *1058:A I *D sky130_fd_sc_hd__or2b_1
*I *1195:B I *D sky130_fd_sc_hd__or2_1
*I *1299:Q O *D sky130_fd_sc_hd__dfstp_1
*CAP
1 *1198:B 4.38922e-05
2 *1187:B 0
3 *1074:B_N 0.000138917
4 *1145:A1 0
5 *1058:A 0.000128798
6 *1195:B 0.000296383
7 *1299:Q 0
8 *333:54 0.000802689
9 *333:37 0.000921142
10 *333:22 0.000902686
11 *333:14 0.000719152
12 *333:4 0.000285314
13 *1195:B *1186:B1 0.000150618
14 *1195:B *1195:A 1.83659e-05
15 *1195:B *334:10 5.38497e-05
16 *333:22 *1187:A 8.66063e-05
17 *333:22 *334:33 0.000310241
18 *333:22 *334:74 0.000468094
19 *333:37 *1186:B1 0.000117189
20 *333:54 *1167:A_N 1.25366e-05
21 *333:54 *1168:B1 7.85178e-05
22 *333:54 *338:27 2.59355e-05
23 *333:54 *338:38 2.95428e-05
24 *1058:B_N *333:22 3.42509e-05
25 *1058:B_N *333:37 4.93964e-05
26 *1084:B2 *333:14 3.39036e-05
27 *1085:C *333:54 0
28 *1145:A2 *1074:B_N 0.000312898
29 *1145:A2 *333:54 3.73546e-05
30 *1186:A1 *333:37 8.25098e-05
31 *1186:A1 *333:54 0.000252022
32 *1188:A *333:14 0.000126439
33 *91:43 *333:37 1.81709e-05
34 *91:43 *333:54 0.000207432
35 *110:55 *333:14 0.000242657
36 *112:16 *333:22 0.000370768
37 *193:10 *333:14 0
38 *230:24 *333:14 4.16238e-05
39 *254:10 *333:54 0
40 *258:46 *1198:B 5.88623e-05
41 *258:46 *333:14 6.99539e-06
42 *258:60 *1058:A 9.94037e-05
*RES
1 *1299:Q *333:4 9.3 
2 *333:4 *333:14 14.3482 
3 *333:14 *333:22 16.9821 
4 *333:22 *1195:B 18.0321 
5 *333:22 *333:37 3.16071 
6 *333:37 *1058:A 15.5679 
7 *333:37 *333:54 16.1429 
8 *333:54 *1145:A1 9.3 
9 *333:54 *1074:B_N 12.3 
10 *333:14 *1187:B 9.3 
11 *333:4 *1198:B 10.0411 
*END

*D_NET *334 0.00830405
*CONN
*I *1195:A I *D sky130_fd_sc_hd__or2_1
*I *1186:B1 I *D sky130_fd_sc_hd__o31a_2
*I *1187:A I *D sky130_fd_sc_hd__nor2_1
*I *1189:A1 I *D sky130_fd_sc_hd__a21oi_1
*I *1192:A I *D sky130_fd_sc_hd__and3_1
*I *1143:B I *D sky130_fd_sc_hd__or3_1
*I *1149:B I *D sky130_fd_sc_hd__or2_2
*I *1367:A I *D sky130_fd_sc_hd__dlygate4sd3_1
*I *1061:A I *D sky130_fd_sc_hd__inv_2
*I *1300:Q O *D sky130_fd_sc_hd__dfrtp_4
*CAP
1 *1195:A 4.97126e-05
2 *1186:B1 0.000235663
3 *1187:A 3.85858e-05
4 *1189:A1 6.62643e-05
5 *1192:A 9.52072e-05
6 *1143:B 0.00038631
7 *1149:B 0
8 *1367:A 4.63321e-05
9 *1061:A 6.33712e-05
10 *1300:Q 0.000250498
11 *334:78 0.000277548
12 *334:74 0.000367181
13 *334:48 0.000601045
14 *334:37 0.000390351
15 *334:33 0.000570887
16 *334:16 0.000507295
17 *334:10 0.000504739
18 *334:8 0.000354447
19 *1143:B *335:43 5.46383e-06
20 *1143:B *335:55 0.000306309
21 *1058:B_N *1186:B1 3.99614e-06
22 *1062:A3 *1192:A 9.90431e-05
23 *1062:A4 *1061:A 9.25014e-06
24 *1062:B1 *334:8 6.74815e-05
25 *1167:B *1186:B1 0
26 *1167:B *334:10 0
27 *1186:A2 *1186:B1 5.52238e-05
28 *1195:B *1186:B1 0.000150618
29 *1195:B *1195:A 1.83659e-05
30 *1195:B *334:10 5.38497e-05
31 *1196:A1 *1189:A1 0
32 *1196:A1 *1192:A 0.000100823
33 *1196:A3 *1189:A1 4.27438e-05
34 *1197:A2 *334:8 8.00806e-05
35 *1197:B1 *1061:A 5.68722e-05
36 *1197:B1 *334:8 1.72148e-05
37 *1197:B1 *334:10 5.41797e-06
38 *1274:D *334:8 0
39 *1299:CLK *1061:A 5.49489e-05
40 *91:43 *1186:B1 7.83659e-05
41 *104:30 *334:48 0
42 *109:32 *1192:A 6.8646e-06
43 *109:32 *334:78 6.8646e-06
44 *109:51 *334:78 0.000195334
45 *110:14 *1192:A 3.05446e-05
46 *110:55 *1192:A 3.93986e-05
47 *110:55 *334:78 7.61258e-05
48 *112:16 *1143:B 7.72292e-05
49 *112:16 *334:37 5.93363e-05
50 *112:16 *334:48 0.000101268
51 *184:6 *1367:A 3.67257e-05
52 *230:41 *334:16 0.000311121
53 *232:14 *334:8 0
54 *254:10 *1061:A 6.73939e-05
55 *254:10 *334:33 0.000146474
56 *258:60 *1186:B1 4.72917e-05
57 *258:60 *334:37 4.13122e-06
58 *258:60 *334:48 0.000104306
59 *324:68 *334:8 0
60 *333:22 *1187:A 8.66063e-05
61 *333:22 *334:33 0.000310241
62 *333:22 *334:74 0.000468094
63 *333:37 *1186:B1 0.000117189
*RES
1 *1300:Q *334:8 18.3268 
2 *334:8 *334:10 1.1875 
3 *334:10 *334:16 12 
4 *334:16 *1061:A 15.3714 
5 *334:16 *334:33 9.44643 
6 *334:33 *334:37 7.05357 
7 *334:37 *1367:A 14.7464 
8 *334:37 *334:48 4.375 
9 *334:48 *1149:B 13.8 
10 *334:48 *1143:B 21.1571 
11 *334:33 *334:74 4.64286 
12 *334:74 *334:78 7.66071 
13 *334:78 *1192:A 16.3893 
14 *334:78 *1189:A1 14.7643 
15 *334:74 *1187:A 10.2464 
16 *334:10 *1186:B1 19.4786 
17 *334:8 *1195:A 14.6125 
*END

*D_NET *335 0.011552
*CONN
*I *1143:C I *D sky130_fd_sc_hd__or3_1
*I *1054:A I *D sky130_fd_sc_hd__inv_2
*I *1073:B1 I *D sky130_fd_sc_hd__o31a_1
*I *1150:A I *D sky130_fd_sc_hd__nor2_1
*I *1184:B2 I *D sky130_fd_sc_hd__a32o_1
*I *1168:B1 I *D sky130_fd_sc_hd__a21o_1
*I *1198:C I *D sky130_fd_sc_hd__or3_2
*I *1301:Q O *D sky130_fd_sc_hd__dfrtp_4
*CAP
1 *1143:C 1.95116e-05
2 *1054:A 0.000157613
3 *1073:B1 0.000232811
4 *1150:A 7.86317e-05
5 *1184:B2 6.06993e-05
6 *1168:B1 0.000344896
7 *1198:C 0.000363433
8 *1301:Q 0.000361917
9 *335:106 0.000532792
10 *335:89 0.000406194
11 *335:57 0.000452574
12 *335:55 0.00099296
13 *335:43 0.0012184
14 *335:10 0.00116346
15 *1143:C *1084:A1 5.46383e-06
16 *1150:A *338:27 3.7454e-05
17 *1150:A *338:38 0
18 *1168:B1 *1167:A_N 4.83039e-05
19 *1198:C *1198:A 7.64135e-05
20 *335:43 *1084:A1 7.16614e-05
21 *335:55 *1084:A1 4.63305e-05
22 *335:55 *1085:A 0.000224582
23 *1053:A *1168:B1 0.000181107
24 *1057:A *1054:A 0.000119241
25 *1057:C *1073:B1 0.000221641
26 *1057:D *1073:B1 2.44073e-05
27 *1080:C *1168:B1 0.000103374
28 *1083:A *1198:C 7.15503e-05
29 *1083:B *1198:C 5.80494e-05
30 *1083:C *1198:C 0.000139344
31 *1084:A2 *335:43 0.000308014
32 *1084:B1 *335:43 0.000141885
33 *1085:C *335:55 3.45899e-05
34 *1143:B *335:43 5.46383e-06
35 *1143:B *335:55 0.000306309
36 *1146:A1 *1054:A 0.000140933
37 *1146:A1 *1073:B1 5.52238e-05
38 *1151:A1 *1168:B1 2.6913e-05
39 *1168:A1 *1168:B1 5.46383e-06
40 *1177:A1 *1073:B1 8.25843e-06
41 *1184:B1 *1168:B1 3.03791e-05
42 *1184:B1 *1184:B2 2.59355e-05
43 *1184:B1 *335:57 2.37713e-05
44 *1186:A1 *1168:B1 0.000146074
45 *1287:CLK *335:10 0
46 *1301:RESET_B *1198:C 8.02652e-05
47 *1301:RESET_B *335:10 0.000502711
48 *1302:RESET_B *1198:C 0.000169095
49 *1326:A *1198:C 0.000334481
50 *84:18 *335:106 3.48282e-05
51 *84:33 *335:57 2.37944e-05
52 *84:33 *335:89 9.89175e-05
53 *84:33 *335:106 0.000156723
54 *91:43 *1054:A 4.08637e-05
55 *91:43 *1168:B1 0.00012249
56 *91:43 *335:55 1.44773e-05
57 *91:43 *335:89 0
58 *104:30 *335:55 0.000140685
59 *108:8 *1168:B1 7.62323e-05
60 *108:44 *1168:B1 7.30125e-05
61 *112:16 *335:55 1.98839e-05
62 *112:80 *335:43 9.67754e-05
63 *112:86 *335:43 3.54498e-05
64 *152:8 *335:89 4.1331e-06
65 *152:8 *335:106 0.00013662
66 *155:10 *335:55 8.02652e-05
67 *257:8 *335:43 1.58163e-05
68 *258:46 *1198:C 0.000141977
69 *333:54 *1168:B1 7.85178e-05
*RES
1 *1301:Q *335:10 22.0679 
2 *335:10 *1198:C 24.0143 
3 *335:10 *335:43 22.1964 
4 *335:43 *335:55 26.2857 
5 *335:55 *335:57 1.03571 
6 *335:57 *1168:B1 23.05 
7 *335:57 *1184:B2 14.7464 
8 *335:55 *335:89 2.55357 
9 *335:89 *1150:A 15.4964 
10 *335:89 *335:106 9.17857 
11 *335:106 *1073:B1 13.4429 
12 *335:106 *1054:A 13.0321 
13 *335:43 *1143:C 9.72857 
*END

*D_NET *336 0.00523974
*CONN
*I *1198:A I *D sky130_fd_sc_hd__or3_2
*I *1366:A I *D sky130_fd_sc_hd__dlygate4sd3_1
*I *1084:A1 I *D sky130_fd_sc_hd__a22o_1
*I *1143:A I *D sky130_fd_sc_hd__or3_1
*I *1085:A I *D sky130_fd_sc_hd__nand3_4
*I *1149:A I *D sky130_fd_sc_hd__or2_2
*I *1167:A_N I *D sky130_fd_sc_hd__and4b_1
*I *1302:Q O *D sky130_fd_sc_hd__dfrtp_4
*CAP
1 *1198:A 0.000139634
2 *1366:A 0
3 *1084:A1 8.23249e-05
4 *1143:A 0
5 *1085:A 4.53863e-05
6 *1149:A 0
7 *1167:A_N 0.000297269
8 *1302:Q 0
9 *336:38 0.000304079
10 *336:12 0.000436426
11 *336:8 0.000392787
12 *336:6 0.000157609
13 *336:4 0.00021998
14 *1060:A1 *1167:A_N 9.04413e-05
15 *1060:A1 *336:12 0.000175989
16 *1084:B1 *1084:A1 3.09893e-05
17 *1143:C *1084:A1 5.46383e-06
18 *1144:A *336:12 5.33005e-05
19 *1144:A *336:38 6.13903e-05
20 *1168:B1 *1167:A_N 4.83039e-05
21 *1186:A1 *1167:A_N 0.000173665
22 *1198:C *1198:A 7.64135e-05
23 *1302:D *1198:A 9.15842e-06
24 *91:43 *1167:A_N 0.000169971
25 *108:44 *1167:A_N 0.000289564
26 *108:44 *336:6 0.000227024
27 *108:44 *336:8 0.000227179
28 *108:44 *336:12 0.000479154
29 *112:16 *1085:A 9.67754e-05
30 *112:80 *1084:A1 0.000371047
31 *112:80 *1085:A 0.000101249
32 *250:28 *336:38 1.92303e-05
33 *258:46 *1198:A 4.28801e-05
34 *311:12 *1198:A 5.99442e-05
35 *333:54 *1167:A_N 1.25366e-05
36 *335:43 *1084:A1 7.16614e-05
37 *335:55 *1084:A1 4.63305e-05
38 *335:55 *1085:A 0.000224582
*RES
1 *1302:Q *336:4 9.3 
2 *336:4 *336:6 2.17857 
3 *336:6 *336:8 2.17857 
4 *336:8 *336:12 5.07143 
5 *336:12 *1167:A_N 26.4429 
6 *336:12 *1149:A 9.3 
7 *336:8 *336:38 11.5536 
8 *336:38 *1085:A 11.4786 
9 *336:38 *1143:A 9.3 
10 *336:38 *1084:A1 13.1393 
11 *336:6 *1366:A 9.3 
12 *336:4 *1198:A 21.6393 
*END

*D_NET *337 0.000585125
*CONN
*I *1332:A I *D sky130_fd_sc_hd__dlygate4sd3_1
*I *1297:Q O *D sky130_fd_sc_hd__dfxtp_1
*CAP
1 *1332:A 0.000292563
2 *1297:Q 0.000292563
*RES
1 *1297:Q *1332:A 22.3321 
*END

*D_NET *338 0.00920743
*CONN
*I *1085:B I *D sky130_fd_sc_hd__nand3_4
*I *1074:A I *D sky130_fd_sc_hd__or2b_2
*I *1145:B1_N I *D sky130_fd_sc_hd__o21ba_1
*I *1059:A I *D sky130_fd_sc_hd__buf_2
*I *1298:Q O *D sky130_fd_sc_hd__dfxtp_1
*CAP
1 *1085:B 0.000254962
2 *1074:A 0
3 *1145:B1_N 0
4 *1059:A 0.000297167
5 *1298:Q 0.00117572
6 *338:38 0.00056974
7 *338:27 0.00137684
8 *338:10 0.00253495
9 *1051:A *1059:A 4.60115e-05
10 *1056:A *338:27 2.21384e-05
11 *1056:D_N *338:27 4.58194e-05
12 *1145:A2 *338:38 0.000112178
13 *1147:A1 *338:10 0.000349376
14 *1150:A *338:27 3.7454e-05
15 *1150:A *338:38 0
16 *1150:B *338:27 2.85321e-05
17 *1166:A2 *338:10 0.000126186
18 *1170:A *338:27 0.000137639
19 *1170:B *338:27 5.74499e-06
20 *1173:A *338:10 0.000382314
21 *1174:C1 *1059:A 9.56731e-05
22 *1178:A2_N *338:10 3.37e-05
23 *1181:B1 *338:10 0.000481292
24 *1182:A *1059:A 0.000120368
25 *1263:CLK *338:10 0
26 *90:10 *338:27 2.17149e-05
27 *104:10 *1085:B 0.000128523
28 *104:10 *338:38 9.83442e-05
29 *104:30 *1085:B 0.000103372
30 *112:16 *1085:B 7.65336e-06
31 *153:29 *338:10 0.000164554
32 *156:8 *338:27 3.06878e-06
33 *233:71 *338:10 6.21042e-05
34 *317:38 *338:10 0.000111088
35 *317:40 *1059:A 7.0889e-05
36 *320:51 *1059:A 3.21438e-05
37 *320:51 *338:10 2.72055e-05
38 *320:51 *338:27 8.74903e-05
39 *333:54 *338:27 2.59355e-05
40 *333:54 *338:38 2.95428e-05
*RES
1 *1298:Q *338:10 39.6036 
2 *338:10 *1059:A 20.3 
3 *338:10 *338:27 18.2143 
4 *338:27 *1145:B1_N 9.3 
5 *338:27 *338:38 4.98214 
6 *338:38 *1074:A 9.3 
7 *338:38 *1085:B 22.8179 
*END

*D_NET *339 0.006918
*CONN
*I *1103:B I *D sky130_fd_sc_hd__nand3_1
*I *1107:B I *D sky130_fd_sc_hd__and4_1
*I *1230:A1 I *D sky130_fd_sc_hd__a41o_1
*I *1099:B I *D sky130_fd_sc_hd__or2_1
*I *1098:B I *D sky130_fd_sc_hd__nand2_1
*I *1228:A I *D sky130_fd_sc_hd__and4_1
*I *1066:A I *D sky130_fd_sc_hd__and3_1
*I *1102:A2 I *D sky130_fd_sc_hd__a21o_1
*I *1365:A I *D sky130_fd_sc_hd__dlygate4sd3_1
*I *1284:Q O *D sky130_fd_sc_hd__dfrtp_4
*CAP
1 *1103:B 0.00021507
2 *1107:B 0.0003524
3 *1230:A1 0.000169169
4 *1099:B 0
5 *1098:B 0
6 *1228:A 8.42508e-05
7 *1066:A 0.000327227
8 *1102:A2 1.62117e-05
9 *1365:A 3.9116e-05
10 *1284:Q 2.5598e-05
11 *339:105 0.000702743
12 *339:81 0.00025209
13 *339:61 9.63827e-05
14 *339:59 0.000405057
15 *339:23 0.000560559
16 *339:12 0.000256237
17 *339:10 0.000550777
18 *339:6 0.000401644
19 *1103:B *1102:B1 0
20 *1103:B *341:6 5.62995e-05
21 *1103:B *341:15 5.62995e-05
22 *1107:B *1107:C 6.05161e-06
23 *1230:A1 *1098:A 5.33005e-05
24 *1230:A1 *340:30 4.27842e-06
25 *1230:A1 *360:14 5.57518e-05
26 *339:61 *1098:A 5.46383e-06
27 *339:81 *1098:A 3.81657e-05
28 *339:81 *340:8 8.48678e-06
29 *1096:A *339:23 5.66971e-05
30 *1096:B *1228:A 4.9647e-05
31 *1096:B *1230:A1 9.48686e-05
32 *1096:B *339:23 0.000141935
33 *1100:A *1066:A 5.84997e-05
34 *1100:A *1102:A2 1.19813e-05
35 *1100:B *1066:A 0.000177591
36 *1100:B *339:23 0.000104082
37 *1100:C *1066:A 1.04766e-05
38 *1104:A_N *1107:B 0.000127028
39 *1104:B *339:10 0.000113832
40 *1104:B *339:23 0.000272344
41 *1104:B *339:59 1.67642e-05
42 *1104:C *1103:B 2.56694e-05
43 *1105:A *339:6 2.1625e-05
44 *1109:A2 *1103:B 1.19309e-05
45 *1230:A4 *1066:A 1.97695e-05
46 *1284:D *1365:A 5.11115e-05
47 *1284:D *339:23 7.06123e-05
48 *96:14 *1066:A 0
49 *96:16 *1066:A 1.58163e-05
50 *97:18 *1066:A 5.90666e-05
51 *125:8 *1103:B 0.000142856
52 *229:20 *1066:A 0.000331417
53 *260:14 *339:10 0
54 *260:103 *1228:A 6.17768e-05
55 *260:103 *339:59 0.000126509
56 *260:103 *339:61 5.46383e-06
*RES
1 *1284:Q *339:6 9.83571 
2 *339:6 *339:10 9.17857 
3 *339:10 *339:12 4.5 
4 *339:12 *1365:A 10.2464 
5 *339:12 *339:23 6.30357 
6 *339:23 *1102:A2 9.72857 
7 *339:23 *1066:A 25.8357 
8 *339:10 *339:59 10.3036 
9 *339:59 *339:61 0.428571 
10 *339:61 *1228:A 20.2464 
11 *339:61 *1098:B 9.3 
12 *339:59 *339:81 1.78571 
13 *339:81 *1099:B 9.3 
14 *339:81 *1230:A1 21.7464 
15 *339:6 *339:105 2.17857 
16 *339:105 *1107:B 14.1571 
17 *339:105 *1103:B 22.3179 
*END

*D_NET *340 0.00379613
*CONN
*I *1065:A_N I *D sky130_fd_sc_hd__and4bb_1
*I *1102:A1 I *D sky130_fd_sc_hd__a21o_1
*I *1107:A I *D sky130_fd_sc_hd__and4_1
*I *1103:A I *D sky130_fd_sc_hd__nand3_1
*I *1098:A I *D sky130_fd_sc_hd__nand2_1
*I *1099:A I *D sky130_fd_sc_hd__or2_1
*I *1285:Q O *D sky130_fd_sc_hd__dfrtp_2
*CAP
1 *1065:A_N 0.000130739
2 *1102:A1 0
3 *1107:A 2.85076e-05
4 *1103:A 0.000179205
5 *1098:A 0.000105696
6 *1099:A 0
7 *1285:Q 0
8 *340:32 0.000353593
9 *340:30 0.000288775
10 *340:10 0.000135221
11 *340:8 0.000570526
12 *340:4 0.000528845
13 *1065:A_N *1065:B_N 1.32056e-05
14 *1103:A *1102:B1 8.6986e-05
15 *1103:A *1103:C 0
16 *1103:A *1107:C 0.000127439
17 *1103:A *341:15 5.52238e-05
18 *1103:A *341:30 0.000118813
19 *340:30 *1102:B1 2.69483e-05
20 *340:32 *1102:B1 0.000153291
21 *1096:B *340:30 6.10212e-05
22 *1100:C *340:8 4.84073e-05
23 *1104:A_N *1107:A 5.52238e-05
24 *1230:A1 *1098:A 5.33005e-05
25 *1230:A1 *340:30 4.27842e-06
26 *1285:D *340:8 0.000100307
27 *1285:RESET_B *340:8 2.55062e-05
28 *229:20 *1103:A 0
29 *229:20 *340:32 0
30 *238:12 *340:30 0.000135988
31 *238:12 *340:32 3.75959e-05
32 *238:23 *1065:A_N 3.06035e-05
33 *238:23 *1098:A 6.6066e-06
34 *238:23 *340:8 0.000282165
35 *339:61 *1098:A 5.46383e-06
36 *339:81 *1098:A 3.81657e-05
37 *339:81 *340:8 8.48678e-06
*RES
1 *1285:Q *340:4 9.3 
2 *340:4 *340:8 9.17857 
3 *340:8 *340:10 0.535714 
4 *340:10 *1099:A 9.3 
5 *340:10 *1098:A 11.5143 
6 *340:8 *340:30 7.96429 
7 *340:30 *340:32 3.76786 
8 *340:32 *1103:A 18.1393 
9 *340:32 *1107:A 14.3357 
10 *340:30 *1102:A1 13.8 
11 *340:4 *1065:A_N 11.4964 
*END

*D_NET *341 0.00219415
*CONN
*I *1064:B_N I *D sky130_fd_sc_hd__and4bb_1
*I *1107:D I *D sky130_fd_sc_hd__and4_1
*I *1102:B1 I *D sky130_fd_sc_hd__a21o_1
*I *1103:C I *D sky130_fd_sc_hd__nand3_1
*I *1286:Q O *D sky130_fd_sc_hd__dfrtp_1
*CAP
1 *1064:B_N 0
2 *1107:D 8.37169e-05
3 *1102:B1 0.000327214
4 *1103:C 2.23854e-05
5 *1286:Q 5.4994e-05
6 *341:30 0.00018277
7 *341:15 0.000499848
8 *341:6 0.00015096
9 *1102:B1 *1107:C 2.47093e-05
10 *1107:D *1107:C 0.000109304
11 *341:30 *1064:A_N 5.52302e-05
12 *341:30 *343:38 0
13 *1096:B *1102:B1 9.15842e-06
14 *1103:A *1102:B1 8.6986e-05
15 *1103:A *1103:C 0
16 *1103:A *341:15 5.52238e-05
17 *1103:A *341:30 0.000118813
18 *1103:B *1102:B1 0
19 *1103:B *341:6 5.62995e-05
20 *1103:B *341:15 5.62995e-05
21 *1104:A_N *1107:D 1.56e-05
22 *1104:B *1102:B1 0
23 *1109:A2 *1102:B1 0
24 *1109:B1 *341:30 1.98839e-05
25 *125:8 *341:6 1.74352e-05
26 *128:34 *341:30 1.3701e-05
27 *229:20 *1107:D 5.33786e-05
28 *340:30 *1102:B1 2.69483e-05
29 *340:32 *1102:B1 0.000153291
*RES
1 *1286:Q *341:6 10.6571 
2 *341:6 *1103:C 9.72857 
3 *341:6 *341:15 1.76786 
4 *341:15 *1102:B1 25.7107 
5 *341:15 *341:30 2.5 
6 *341:30 *1107:D 20.175 
7 *341:30 *1064:B_N 9.3 
*END

*D_NET *342 0.00158043
*CONN
*I *1107:C I *D sky130_fd_sc_hd__and4_1
*I *1064:A_N I *D sky130_fd_sc_hd__and4bb_1
*I *1371:A I *D sky130_fd_sc_hd__dlygate4sd3_1
*I *1287:Q O *D sky130_fd_sc_hd__dfrtp_1
*CAP
1 *1107:C 0.000148224
2 *1064:A_N 1.16062e-05
3 *1371:A 0
4 *1287:Q 0.000138226
5 *342:19 0.000237041
6 *342:10 0.000215436
7 *1102:B1 *1107:C 2.47093e-05
8 *1103:A *1107:C 0.000127439
9 *1104:A_N *1107:C 5.52302e-05
10 *1107:B *1107:C 6.05161e-06
11 *1107:D *1107:C 0.000109304
12 *1109:B1 *1064:A_N 5.52302e-05
13 *1109:B1 *342:10 9.25014e-06
14 *1109:B1 *342:19 0.000139653
15 *1287:D *342:10 0
16 *229:20 *1107:C 4.16207e-05
17 *229:20 *342:10 4.57445e-05
18 *229:20 *342:19 5.94737e-05
19 *257:58 *342:10 0.00010096
20 *341:30 *1064:A_N 5.52302e-05
*RES
1 *1287:Q *342:10 16.3893 
2 *342:10 *1371:A 13.8 
3 *342:10 *342:19 2.25 
4 *342:19 *1064:A_N 14.3357 
5 *342:19 *1107:C 17.1929 
*END

*D_NET *343 0.00490402
*CONN
*I *1118:B I *D sky130_fd_sc_hd__and4_2
*I *1111:A I *D sky130_fd_sc_hd__or2_1
*I *1110:A I *D sky130_fd_sc_hd__nand2_1
*I *1064:D I *D sky130_fd_sc_hd__and4bb_1
*I *1114:B I *D sky130_fd_sc_hd__and3_1
*I *1115:A1 I *D sky130_fd_sc_hd__a21o_1
*I *1288:Q O *D sky130_fd_sc_hd__dfrtp_1
*CAP
1 *1118:B 8.4851e-05
2 *1111:A 2.41991e-05
3 *1110:A 0
4 *1064:D 1.22537e-05
5 *1114:B 0
6 *1115:A1 0
7 *1288:Q 0.000269248
8 *343:51 0.000340842
9 *343:38 0.000568495
10 *343:27 0.000647067
11 *343:25 0.00070877
12 *343:12 0.000485698
13 *343:25 *1118:A 7.54868e-05
14 *343:25 *344:24 7.7591e-05
15 *343:51 *344:38 0
16 *1109:B1 *1064:D 2.28499e-05
17 *1109:B1 *343:38 9.90431e-05
18 *1111:B *1111:A 5.52302e-05
19 *1112:B *1111:A 8.07313e-05
20 *1115:A2 *1118:B 5.33005e-05
21 *1115:A2 *343:27 1.98839e-05
22 *1116:C *343:25 9.63157e-05
23 *1288:RESET_B *343:12 0.00019406
24 *1289:CLK *343:12 6.4671e-05
25 *1289:D *343:25 1.89507e-06
26 *128:14 *343:51 0
27 *128:34 *1064:D 5.52238e-05
28 *128:34 *343:38 0.000145019
29 *128:41 *343:38 9.31893e-05
30 *128:52 *343:27 2.95641e-05
31 *128:52 *343:38 2.44318e-05
32 *133:8 *343:27 0.000355112
33 *136:29 *1118:B 0.000141734
34 *229:20 *343:51 0
35 *236:62 *343:12 2.84026e-05
36 *248:25 *343:25 0
37 *257:58 *1111:A 4.88637e-05
38 *341:30 *343:38 0
*RES
1 *1288:Q *343:12 23.1214 
2 *343:12 *1115:A1 9.3 
3 *343:12 *343:25 12.5 
4 *343:25 *343:27 5.46429 
5 *343:27 *1114:B 9.3 
6 *343:27 *343:38 5.5 
7 *343:38 *1064:D 9.83571 
8 *343:38 *343:51 13.6786 
9 *343:51 *1110:A 9.3 
10 *343:51 *1111:A 10.6571 
11 *343:25 *1118:B 11.6929 
*END

*D_NET *344 0.00441801
*CONN
*I *1115:B1 I *D sky130_fd_sc_hd__a21o_1
*I *1118:A I *D sky130_fd_sc_hd__and4_2
*I *1064:C I *D sky130_fd_sc_hd__and4bb_1
*I *1114:A I *D sky130_fd_sc_hd__and3_1
*I *1289:Q O *D sky130_fd_sc_hd__dfrtp_1
*CAP
1 *1115:B1 0
2 *1118:A 5.63569e-05
3 *1064:C 0.000315612
4 *1114:A 0
5 *1289:Q 0.000477801
6 *344:38 0.000854316
7 *344:24 0.000639752
8 *344:18 0.000522492
9 *1108:A *1064:C 5.52302e-05
10 *1112:A *344:38 0
11 *1114:C *1064:C 1.04232e-05
12 *1115:A2 *1118:A 9.00185e-05
13 *1115:A2 *344:24 7.7591e-05
14 *1116:A_N *344:38 0.000132832
15 *1116:B *344:38 0.000185124
16 *1116:C *344:18 8.59075e-05
17 *1116:C *344:24 5.49489e-05
18 *1117:A *344:18 0.000195717
19 *1117:A *344:24 5.33005e-05
20 *1117:A *344:38 8.04743e-05
21 *120:16 *344:38 0
22 *128:34 *1064:C 0.000254445
23 *128:41 *1064:C 7.77652e-05
24 *249:31 *344:18 4.48206e-05
25 *343:25 *1118:A 7.54868e-05
26 *343:25 *344:24 7.7591e-05
27 *343:51 *344:38 0
*RES
1 *1289:Q *344:18 26.8 
2 *344:18 *344:24 6.07143 
3 *344:24 *344:38 22.4821 
4 *344:38 *1114:A 9.3 
5 *344:38 *1064:C 14.925 
6 *344:24 *1118:A 15.1393 
7 *344:18 *1115:B1 9.3 
*END

*D_NET *345 0.00388337
*CONN
*I *1065:B_N I *D sky130_fd_sc_hd__and4bb_1
*I *1343:A I *D sky130_fd_sc_hd__dlygate4sd3_1
*I *1118:C I *D sky130_fd_sc_hd__and4_2
*I *1290:Q O *D sky130_fd_sc_hd__dfrtp_1
*CAP
1 *1065:B_N 0.000500468
2 *1343:A 0.000151603
3 *1118:C 0.000260321
4 *1290:Q 0.000273228
5 *345:21 0.000787016
6 *345:8 0.000668493
7 *1065:B_N *1123:A 0.000121237
8 *1065:B_N *1124:B1 5.6647e-05
9 *1065:B_N *346:54 5.50052e-05
10 *1065:B_N *347:12 8.51331e-05
11 *1065:A_N *1065:B_N 1.32056e-05
12 *1120:A2 *1118:C 0
13 *1120:A2 *345:21 0
14 *1125:B *1065:B_N 8.71725e-05
15 *97:14 *1065:B_N 1.35553e-05
16 *136:29 *1065:B_N 0.000149966
17 *136:29 *1118:C 0.000390178
18 *136:29 *345:21 0.000270144
*RES
1 *1290:Q *345:8 16.8 
2 *345:8 *1118:C 17.8357 
3 *345:8 *345:21 3.46429 
4 *345:21 *1343:A 15.9786 
5 *345:21 *1065:B_N 23.9429 
*END

*D_NET *346 0.00447998
*CONN
*I *1355:A I *D sky130_fd_sc_hd__dlygate4sd3_1
*I *1123:A I *D sky130_fd_sc_hd__nand3_1
*I *1065:C I *D sky130_fd_sc_hd__and4bb_1
*I *1121:A1 I *D sky130_fd_sc_hd__a211o_1
*I *1124:A1 I *D sky130_fd_sc_hd__a21o_1
*I *1291:Q O *D sky130_fd_sc_hd__dfrtp_1
*CAP
1 *1355:A 0
2 *1123:A 9.45319e-05
3 *1065:C 0
4 *1121:A1 4.13173e-05
5 *1124:A1 0.000103238
6 *1291:Q 0.000354158
7 *346:54 0.000415765
8 *346:35 0.000538811
9 *346:18 0.000678737
10 *346:10 0.000753395
11 *1123:A *347:12 1.46231e-05
12 *346:54 *1124:B1 0.000290512
13 *1065:B_N *1123:A 0.000121237
14 *1065:B_N *346:54 5.50052e-05
15 *1121:A2 *1121:A1 1.76489e-05
16 *1121:A2 *346:35 0.00018187
17 *1121:B1 *1121:A1 5.38444e-06
18 *1121:C1 *1121:A1 8.29398e-06
19 *1122:A1 *346:18 5.71472e-05
20 *1122:A2 *346:18 0.000186281
21 *1122:B1_N *346:18 6.24558e-05
22 *1125:B *346:54 2.58081e-05
23 *1346:A *1121:A1 1.20417e-05
24 *97:14 *1123:A 9.51412e-05
25 *97:14 *346:54 0.000176586
26 *136:42 *346:54 0
27 *136:53 *1124:A1 0.000123359
28 *136:53 *346:18 1.00332e-05
29 *136:53 *346:54 0
30 *260:119 *1124:A1 5.65955e-05
*RES
1 *1291:Q *346:10 14.8893 
2 *346:10 *346:18 12.125 
3 *346:18 *1124:A1 15.9786 
4 *346:18 *346:35 7.92857 
5 *346:35 *1121:A1 10.2643 
6 *346:35 *346:54 16.7679 
7 *346:54 *1065:C 9.3 
8 *346:54 *1123:A 12.3536 
9 *346:10 *1355:A 9.3 
*END

*D_NET *347 0.00283224
*CONN
*I *1123:B I *D sky130_fd_sc_hd__nand3_1
*I *1065:D I *D sky130_fd_sc_hd__and4bb_1
*I *1124:B1 I *D sky130_fd_sc_hd__a21o_1
*I *1292:Q O *D sky130_fd_sc_hd__dfrtp_1
*CAP
1 *1123:B 0
2 *1065:D 0
3 *1124:B1 0.00024224
4 *1292:Q 0.00064044
5 *347:12 0.000293472
6 *347:10 0.000691672
7 *1065:B_N *1124:B1 5.6647e-05
8 *1065:B_N *347:12 8.51331e-05
9 *1123:A *347:12 1.46231e-05
10 *1125:B *1124:B1 5.49544e-05
11 *1125:B *347:12 0.000143375
12 *1125:C *1124:B1 0.000175519
13 *136:42 *1124:B1 0
14 *260:119 *1124:B1 0.000143651
15 *346:54 *1124:B1 0.000290512
*RES
1 *1292:Q *347:10 19.1036 
2 *347:10 *347:12 1.76786 
3 *347:12 *1124:B1 24.9964 
4 *347:12 *1065:D 9.3 
5 *347:10 *1123:B 9.3 
*END

*D_NET *348 0.00843248
*CONN
*I *1070:C I *D sky130_fd_sc_hd__and3_1
*I *1236:A2 I *D sky130_fd_sc_hd__a31o_1
*I *1092:S0 I *D sky130_fd_sc_hd__mux4_1
*I *1090:S0 I *D sky130_fd_sc_hd__mux4_1
*I *1231:A I *D sky130_fd_sc_hd__nand2_1
*I *1234:A2 I *D sky130_fd_sc_hd__a31o_1
*I *1232:A1 I *D sky130_fd_sc_hd__o21a_1
*I *1294:Q O *D sky130_fd_sc_hd__dfrtp_4
*CAP
1 *1070:C 0.000117521
2 *1236:A2 8.44723e-06
3 *1092:S0 0.000212425
4 *1090:S0 0.000386779
5 *1231:A 0
6 *1234:A2 7.38626e-05
7 *1232:A1 0.000111486
8 *1294:Q 0.000448378
9 *348:67 0.00172554
10 *348:53 0.00115947
11 *348:51 0.000300109
12 *348:31 0.000134226
13 *348:25 0.000437152
14 *348:12 0.000778744
15 *1070:C *1070:A 5.73758e-05
16 *1070:C *1070:B 0.000109733
17 *1070:C *1236:A1 9.58126e-05
18 *1090:S0 *1090:A2 0.000103504
19 *1090:S0 *1090:A3 5.71472e-05
20 *1090:S0 *349:32 4.35421e-05
21 *1092:S0 *1092:A2 0
22 *1092:S0 *1092:S1 0
23 *1092:S0 *1352:A 0
24 *348:51 *1234:A1 0
25 *348:53 *1236:A1 1.32056e-05
26 *1091:B *348:67 7.6997e-05
27 *1232:A2 *1232:A1 1.33343e-05
28 *1232:B1 *1232:A1 1.3701e-05
29 *1234:A3 *348:25 0
30 *1234:B1 *348:25 2.04098e-05
31 *1234:B1 *348:51 1.81469e-05
32 *1235:A1 *348:25 0
33 *1236:A3 *348:25 5.7119e-05
34 *1236:A3 *348:51 0.000264344
35 *1236:A3 *348:67 1.00332e-05
36 *1237:A *1070:C 7.74483e-05
37 *1237:A *348:53 1.13883e-05
38 *1237:A *348:67 3.61168e-05
39 *1237:B *348:51 0
40 *1237:B *348:67 3.99614e-06
41 *1240:A0 *1090:S0 0.000103974
42 *1241:A *1090:S0 4.11196e-05
43 *1296:CLK *348:67 6.28241e-05
44 *214:6 *1232:A1 0.00025884
45 *216:16 *1234:A2 1.30765e-05
46 *216:16 *348:31 1.02132e-05
47 *217:6 *1234:A2 0.000186765
48 *217:6 *348:31 2.12005e-05
49 *260:52 *348:12 4.45232e-05
50 *260:72 *1090:S0 7.83659e-05
51 *260:72 *1092:S0 0.000460574
52 *260:103 *348:12 0.000173515
*RES
1 *1294:Q *348:12 20.4071 
2 *348:12 *1232:A1 16.8179 
3 *348:12 *348:25 3.16071 
4 *348:25 *348:31 5.76786 
5 *348:31 *1234:A2 11.4964 
6 *348:31 *1231:A 9.3 
7 *348:25 *348:51 8.39286 
8 *348:51 *348:53 0.535714 
9 *348:53 *348:67 27.2143 
10 *348:67 *1090:S0 29.1214 
11 *348:67 *1092:S0 19.6929 
12 *348:53 *1236:A2 9.72857 
13 *348:51 *1070:C 12.7107 
*END

*D_NET *349 0.00637147
*CONN
*I *1092:S1 I *D sky130_fd_sc_hd__mux4_1
*I *1236:A1 I *D sky130_fd_sc_hd__a31o_1
*I *1070:B I *D sky130_fd_sc_hd__and3_1
*I *1234:A1 I *D sky130_fd_sc_hd__a31o_1
*I *1090:S1 I *D sky130_fd_sc_hd__mux4_1
*I *1363:A I *D sky130_fd_sc_hd__dlygate4sd3_1
*I *1295:Q O *D sky130_fd_sc_hd__dfrtp_2
*CAP
1 *1092:S1 0.000353051
2 *1236:A1 6.60993e-05
3 *1070:B 9.73681e-05
4 *1234:A1 0.000126803
5 *1090:S1 0
6 *1363:A 0.000270454
7 *1295:Q 9.05099e-05
8 *349:55 0.000454622
9 *349:38 0.00109998
10 *349:32 0.00126288
11 *349:23 0.000391933
12 *349:8 0.000525087
13 *1092:S1 *1092:A2 4.46186e-06
14 *1092:S1 *1352:A 9.88232e-05
15 *1236:A1 *1070:A 5.33005e-05
16 *349:23 *1090:A3 1.97381e-05
17 *349:38 *1352:A 6.5185e-05
18 *1070:C *1070:B 0.000109733
19 *1070:C *1236:A1 9.58126e-05
20 *1090:S0 *349:32 4.35421e-05
21 *1091:B *349:32 5.03772e-05
22 *1092:S0 *1092:S1 0
23 *1234:B1 *1234:A1 0.00012573
24 *1235:A1 *1234:A1 0
25 *1236:A3 *1236:A1 3.37756e-05
26 *1236:A3 *349:55 7.70035e-05
27 *1237:A *1236:A1 1.46148e-05
28 *1237:B *1234:A1 7.17189e-05
29 *1237:B *349:38 8.24593e-06
30 *1237:B *349:55 3.06878e-06
31 *1240:A0 *349:23 0
32 *1254:D *349:23 0.000162572
33 *1304:CLK *349:38 0.00013073
34 *1304:RESET_B *1363:A 0.000138005
35 *1304:RESET_B *349:23 3.25078e-05
36 *26:16 *1363:A 9.37018e-05
37 *26:16 *349:23 5.4148e-05
38 *215:23 *349:55 1.93501e-05
39 *237:68 *1234:A1 0
40 *311:20 *1092:S1 6.98251e-05
41 *311:20 *349:38 4.35048e-05
42 *348:51 *1234:A1 0
43 *348:53 *1236:A1 1.32056e-05
*RES
1 *1295:Q *349:8 14.7464 
2 *349:8 *1363:A 19.9607 
3 *349:8 *349:23 8.57143 
4 *349:23 *1090:S1 9.3 
5 *349:23 *349:32 8.32143 
6 *349:32 *349:38 13.6607 
7 *349:38 *1234:A1 21.4607 
8 *349:38 *349:55 8.125 
9 *349:55 *1070:B 15.1571 
10 *349:55 *1236:A1 15.4786 
11 *349:32 *1092:S1 21.2107 
*END

*D_NET *350 0.00145908
*CONN
*I *1091:A I *D sky130_fd_sc_hd__or2_1
*I *1093:B_N I *D sky130_fd_sc_hd__or2b_1
*I *1236:B1 I *D sky130_fd_sc_hd__a31o_1
*I *1070:A I *D sky130_fd_sc_hd__and3_1
*I *1296:Q O *D sky130_fd_sc_hd__dfrtp_1
*CAP
1 *1091:A 0.000107504
2 *1093:B_N 8.68588e-05
3 *1236:B1 0
4 *1070:A 4.16358e-05
5 *1296:Q 0
6 *350:12 0.000203449
7 *350:8 0.000297223
8 *350:4 0.000156055
9 *1070:C *1070:A 5.73758e-05
10 *1091:B *1091:A 5.49544e-05
11 *1091:B *350:8 8.25843e-06
12 *1091:B *350:12 2.05695e-05
13 *1236:A1 *1070:A 5.33005e-05
14 *1237:A *1070:A 5.20751e-05
15 *1296:RESET_B *1091:A 0
16 *262:26 *1093:B_N 0.000147862
17 *262:26 *350:12 0.000126324
18 *262:54 *1091:A 4.5632e-05
*RES
1 *1296:Q *350:4 9.3 
2 *350:4 *350:8 5.03571 
3 *350:8 *350:12 7.66071 
4 *350:12 *1070:A 10.675 
5 *350:12 *1236:B1 9.3 
6 *350:8 *1093:B_N 15.7464 
7 *350:4 *1091:A 11.6929 
*END

*D_NET *351 0.00307448
*CONN
*I *1090:A0 I *D sky130_fd_sc_hd__mux4_1
*I *1361:A I *D sky130_fd_sc_hd__dlygate4sd3_1
*I *1303:Q O *D sky130_fd_sc_hd__dfrtp_1
*CAP
1 *1090:A0 0.000987087
2 *1361:A 0.000106829
3 *1303:Q 0.000153127
4 *351:6 0.00124704
5 *1090:A0 *1090:A2 0.000247806
6 *1090:A0 *1092:A0 3.69047e-06
7 *1308:CLK *1090:A0 6.05161e-06
8 *1308:CLK *351:6 2.59355e-05
9 *1308:D *1361:A 4.26814e-05
10 *234:36 *1090:A0 0
11 *234:47 *1090:A0 0
12 *234:47 *1361:A 5.66157e-05
13 *234:62 *1361:A 0.000197615
*RES
1 *1303:Q *351:6 11.0679 
2 *351:6 *1361:A 21.4607 
3 *351:6 *1090:A0 32.9786 
*END

*D_NET *352 0.00250376
*CONN
*I *1352:A I *D sky130_fd_sc_hd__dlygate4sd3_1
*I *1090:A1 I *D sky130_fd_sc_hd__mux4_1
*I *1304:Q O *D sky130_fd_sc_hd__dfrtp_1
*CAP
1 *1352:A 0.00068999
2 *1090:A1 0.000250531
3 *1304:Q 0
4 *352:4 0.00094052
5 *1090:A1 *1353:A 0
6 *1092:S0 *1352:A 0
7 *1092:S1 *1352:A 9.88232e-05
8 *1241:A *1090:A1 3.18747e-05
9 *1304:D *1090:A1 5.58005e-05
10 *1304:D *1352:A 0.000368209
11 *260:72 *1352:A 2.8266e-06
12 *349:38 *1352:A 6.5185e-05
*RES
1 *1304:Q *352:4 9.3 
2 *352:4 *1090:A1 21.7107 
3 *352:4 *1352:A 29.0679 
*END

*D_NET *353 0.00307592
*CONN
*I *1090:A2 I *D sky130_fd_sc_hd__mux4_1
*I *1362:A I *D sky130_fd_sc_hd__dlygate4sd3_1
*I *1305:Q O *D sky130_fd_sc_hd__dfrtp_1
*CAP
1 *1090:A2 0.000788774
2 *1362:A 6.7991e-05
3 *1305:Q 0.000103888
4 *353:6 0.000960654
5 *1090:A2 *1090:A3 0.00036537
6 *1090:A0 *1090:A2 0.000247806
7 *1090:S0 *1090:A2 0.000103504
8 *1245:A *1362:A 0.000128154
9 *1303:RESET_B *1362:A 0
10 *1305:RESET_B *1090:A2 3.80953e-06
11 *1305:RESET_B *353:6 9.6561e-06
12 *1306:RESET_B *1090:A2 2.79148e-05
13 *234:36 *1090:A2 0.000211249
14 *234:36 *353:6 5.71472e-05
*RES
1 *1305:Q *353:6 10.6571 
2 *353:6 *1362:A 19.9429 
3 *353:6 *1090:A2 34.7687 
*END

*D_NET *354 0.00172891
*CONN
*I *1090:A3 I *D sky130_fd_sc_hd__mux4_1
*I *1353:A I *D sky130_fd_sc_hd__dlygate4sd3_1
*I *1306:Q O *D sky130_fd_sc_hd__dfrtp_1
*CAP
1 *1090:A3 0.000491141
2 *1353:A 0.000111783
3 *1306:Q 0
4 *354:4 0.000602925
5 *1090:A1 *1353:A 0
6 *1090:A2 *1090:A3 0.00036537
7 *1090:S0 *1090:A3 5.71472e-05
8 *1240:A0 *1090:A3 8.08022e-05
9 *1254:D *1090:A3 0
10 *1304:D *1353:A 0
11 *349:23 *1090:A3 1.97381e-05
*RES
1 *1306:Q *354:4 9.3 
2 *354:4 *1353:A 20.0679 
3 *354:4 *1090:A3 25.6214 
*END

*D_NET *355 0.00342072
*CONN
*I *1359:A I *D sky130_fd_sc_hd__dlygate4sd3_1
*I *1092:A0 I *D sky130_fd_sc_hd__mux4_1
*I *1307:Q O *D sky130_fd_sc_hd__dfrtp_1
*CAP
1 *1359:A 0.000301627
2 *1092:A0 0.000671736
3 *1307:Q 4.33394e-05
4 *355:8 0.0010167
5 *1092:A0 *1092:A1 0.000273269
6 *1092:A0 *356:6 1.64616e-05
7 *1090:A0 *1092:A0 3.69047e-06
8 *1246:A1 *1359:A 3.92854e-05
9 *1248:A0 *1092:A0 3.75868e-05
10 *1248:A0 *1359:A 0.000205724
11 *1307:RESET_B *355:8 1.84865e-05
12 *1308:D *1092:A0 0.000127939
13 *1308:RESET_B *1092:A0 0.000309954
14 *234:62 *1359:A 0
15 *252:14 *1359:A 0.000185547
16 *263:46 *1092:A0 0.000169373
*RES
1 *1307:Q *355:8 14.3357 
2 *355:8 *1092:A0 28.4071 
3 *355:8 *1359:A 21.1571 
*END

*D_NET *356 0.00086092
*CONN
*I *1337:A I *D sky130_fd_sc_hd__dlygate4sd3_1
*I *1092:A1 I *D sky130_fd_sc_hd__mux4_1
*I *1308:Q O *D sky130_fd_sc_hd__dfrtp_1
*CAP
1 *1337:A 9.13399e-05
2 *1092:A1 0.00013642
3 *1308:Q 3.8868e-05
4 *356:6 0.000266628
5 *1092:A0 *1092:A1 0.000273269
6 *1092:A0 *356:6 1.64616e-05
7 *263:56 *1337:A 3.79336e-05
*RES
1 *1308:Q *356:6 9.83571 
2 *356:6 *1092:A1 12.6214 
3 *356:6 *1337:A 19.9429 
*END

*D_NET *357 0.00226533
*CONN
*I *1347:A I *D sky130_fd_sc_hd__dlygate4sd3_1
*I *1092:A2 I *D sky130_fd_sc_hd__mux4_1
*I *1309:Q O *D sky130_fd_sc_hd__dfrtp_1
*CAP
1 *1347:A 0.000279106
2 *1092:A2 0.000397629
3 *1309:Q 0.000352208
4 *357:8 0.00102894
5 *1092:A2 *1092:A3 2.3541e-05
6 *1092:S0 *1092:A2 0
7 *1092:S1 *1092:A2 4.46186e-06
8 *1254:CLK *357:8 6.78055e-06
9 *1254:RESET_B *357:8 1.12381e-05
10 *1293:RESET_B *357:8 4.60059e-06
11 *114:25 *1092:A2 0
12 *114:25 *1347:A 0
13 *252:14 *1347:A 0.000102197
14 *260:72 *1092:A2 0
15 *260:72 *1347:A 0
16 *260:72 *357:8 4.0552e-05
17 *263:46 *1092:A2 1.40749e-05
18 *311:20 *1092:A2 0
*RES
1 *1309:Q *357:8 18.0321 
2 *357:8 *1092:A2 20.8402 
3 *357:8 *1347:A 19.0321 
*END

*D_NET *358 0.00179179
*CONN
*I *1340:A I *D sky130_fd_sc_hd__dlygate4sd3_1
*I *1092:A3 I *D sky130_fd_sc_hd__mux4_1
*I *1310:Q O *D sky130_fd_sc_hd__dfrtp_1
*CAP
1 *1340:A 0.000308477
2 *1092:A3 0.000187378
3 *1310:Q 7.91306e-05
4 *358:8 0.000574986
5 *1092:A2 *1092:A3 2.3541e-05
6 *1093:A *358:8 8.00806e-05
7 *1252:A1 *1340:A 0.000185408
8 *1252:S *1340:A 9.15842e-06
9 *1330:A *1092:A3 2.89016e-05
10 *263:40 *358:8 7.83587e-05
11 *263:46 *1092:A3 0.000116984
12 *311:20 *1340:A 8.06491e-05
13 *311:20 *358:8 3.87368e-05
*RES
1 *1310:Q *358:8 15.7464 
2 *358:8 *1092:A3 17.6214 
3 *358:8 *1340:A 20.2821 
*END

*D_NET *359 0.00333202
*CONN
*I *1088:A I *D sky130_fd_sc_hd__nand2_4
*I *1094:C1 I *D sky130_fd_sc_hd__a311o_1
*I *1229:B I *D sky130_fd_sc_hd__and2b_1
*I *1068:B_N I *D sky130_fd_sc_hd__or2b_1
*I *1311:Q O *D sky130_fd_sc_hd__dfstp_1
*CAP
1 *1088:A 0.000151324
2 *1094:C1 4.84738e-05
3 *1229:B 0.000123314
4 *1068:B_N 1.64896e-05
5 *1311:Q 1.02046e-05
6 *359:19 0.000636476
7 *359:15 0.000616013
8 *359:6 2.66943e-05
9 *1094:C1 *1095:A 1.74352e-05
10 *1229:B *1095:A 1.39841e-05
11 *1229:B *1229:A_N 1.21258e-05
12 *359:19 *361:12 0
13 *1068:A *1068:B_N 2.89016e-05
14 *1068:A *359:6 1.06439e-05
15 *1089:A1 *359:19 0
16 *1089:B1 *1088:A 5.72433e-05
17 *1089:B1 *359:19 0.00018652
18 *1094:A2 *1094:C1 0
19 *1094:A2 *1229:B 0.000272371
20 *1094:B1 *1229:B 2.89114e-05
21 *1094:B1 *359:19 0.000556961
22 *1095:C *359:19 0
23 *1314:CLK *1088:A 0
24 *1314:CLK *359:19 0
25 *1314:D *359:19 2.90582e-05
26 *1385:A *1088:A 5.30637e-06
27 *100:10 *359:19 0
28 *114:12 *1088:A 9.90431e-05
29 *229:8 *1094:C1 5.52302e-05
30 *229:8 *1229:B 0.000268396
31 *229:20 *359:19 1.52978e-05
32 *238:97 *1068:B_N 2.89016e-05
33 *238:97 *359:6 1.66955e-05
*RES
1 *1311:Q *359:6 9.63036 
2 *359:6 *1068:B_N 9.83571 
3 *359:6 *359:15 4.5 
4 *359:15 *359:19 16.4643 
5 *359:19 *1229:B 13.1214 
6 *359:19 *1094:C1 10.5679 
7 *359:15 *1088:A 16.9964 
*END

*D_NET *360 0.00519985
*CONN
*I *1095:A I *D sky130_fd_sc_hd__nor3_2
*I *1094:A1 I *D sky130_fd_sc_hd__a311o_1
*I *1229:A_N I *D sky130_fd_sc_hd__and2b_1
*I *1078:A I *D sky130_fd_sc_hd__and3_1
*I *1345:A I *D sky130_fd_sc_hd__dlygate4sd3_1
*I *1230:A2 I *D sky130_fd_sc_hd__a41o_1
*I *1228:B I *D sky130_fd_sc_hd__and4_1
*I *1312:Q O *D sky130_fd_sc_hd__dfrtp_2
*CAP
1 *1095:A 0.000249656
2 *1094:A1 0
3 *1229:A_N 0.000188422
4 *1078:A 0.000147952
5 *1345:A 7.64703e-05
6 *1230:A2 0
7 *1228:B 0.000257619
8 *1312:Q 9.47964e-05
9 *360:56 0.000551872
10 *360:37 0.000298146
11 *360:14 0.00054313
12 *360:10 0.000464052
13 *360:8 0.000233266
14 *1071:B *1078:A 8.37104e-05
15 *1072:B1 *1345:A 0.000184745
16 *1072:B1 *360:10 8.00806e-05
17 *1078:B *1078:A 0
18 *1094:A2 *1229:A_N 0.000116237
19 *1094:A3 *1229:A_N 0.000229456
20 *1094:B1 *1095:A 5.71472e-05
21 *1094:C1 *1095:A 1.74352e-05
22 *1096:B *360:14 4.98055e-06
23 *1228:D *1228:B 0.00025495
24 *1229:B *1095:A 1.39841e-05
25 *1229:B *1229:A_N 1.21258e-05
26 *1230:A1 *360:14 5.57518e-05
27 *1230:B1 *360:14 0.000163999
28 *99:30 *1078:A 1.24368e-05
29 *99:30 *360:56 0.00010326
30 *215:10 *1078:A 2.04825e-05
31 *215:10 *1229:A_N 0.000183713
32 *215:10 *360:10 3.65015e-05
33 *215:10 *360:14 3.17163e-05
34 *215:10 *360:37 1.27529e-05
35 *215:10 *360:56 3.45894e-05
36 *229:8 *1095:A 9.99644e-06
37 *229:20 *360:10 0
38 *229:20 *360:14 0
39 *229:20 *360:37 0
40 *229:20 *360:56 0
41 *262:54 *1078:A 0.00027032
42 *262:54 *360:8 0.000104094
*RES
1 *1312:Q *360:8 15.1571 
2 *360:8 *360:10 1.94643 
3 *360:10 *360:14 10.0893 
4 *360:14 *1228:B 12.7107 
5 *360:14 *1230:A2 9.3 
6 *360:10 *1345:A 15.5679 
7 *360:8 *360:37 0.580357 
8 *360:37 *1078:A 17.9339 
9 *360:37 *360:56 6.90179 
10 *360:56 *1229:A_N 13.9429 
11 *360:56 *1094:A1 9.3 
12 *360:56 *1095:A 13.55 
*END

*D_NET *361 0.00188352
*CONN
*I *1095:B I *D sky130_fd_sc_hd__nor3_2
*I *1072:A1 I *D sky130_fd_sc_hd__a22o_1
*I *1360:A I *D sky130_fd_sc_hd__dlygate4sd3_1
*I *1313:Q O *D sky130_fd_sc_hd__dfrtp_1
*CAP
1 *1095:B 0
2 *1072:A1 0.000286329
3 *1360:A 0
4 *1313:Q 0.000139145
5 *361:23 0.000439453
6 *361:12 0.000292269
7 *1072:B1 *1072:A1 2.84109e-05
8 *1089:A1 *361:12 0.000127229
9 *1089:A1 *361:23 3.14048e-05
10 *1095:C *361:12 7.83366e-05
11 *1097:A *1072:A1 1.19402e-05
12 *99:10 *1072:A1 2.8833e-05
13 *99:22 *1072:A1 0
14 *99:114 *1072:A1 1.69175e-05
15 *119:10 *1072:A1 0
16 *229:20 *1072:A1 0
17 *238:60 *1072:A1 0
18 *238:60 *361:23 0
19 *238:71 *361:23 0
20 *262:54 *1072:A1 5.83304e-05
21 *262:61 *1072:A1 0.000154762
22 *262:61 *361:23 0.000190162
23 *359:19 *361:12 0
*RES
1 *1313:Q *361:12 21.6036 
2 *361:12 *1360:A 9.3 
3 *361:12 *361:23 8 
4 *361:23 *1072:A1 20.0321 
5 *361:23 *1095:B 13.8 
*END

*D_NET *362 0.00156393
*CONN
*I *1374:A I *D sky130_fd_sc_hd__dlygate4sd3_1
*I *1368:A I *D sky130_fd_sc_hd__buf_1
*I *1314:Q O *D sky130_fd_sc_hd__dfrtp_1
*CAP
1 *1374:A 0.000154122
2 *1368:A 0.000168246
3 *1314:Q 6.14263e-05
4 *362:6 0.000383795
5 *1069:A2 *1368:A 0.000115971
6 *1069:B1_N *362:6 3.73361e-05
7 *1094:B1 *1368:A 3.75868e-05
8 *1094:B1 *1374:A 1.4796e-05
9 *1094:B1 *362:6 3.2033e-05
10 *1311:D *1374:A 0.000230207
11 *238:86 *1368:A 6.93626e-06
12 *273:6 *1374:A 6.11639e-05
13 *305:18 *1374:A 0.000136384
14 *305:18 *362:6 0.000123924
*RES
1 *1314:Q *362:6 11.4786 
2 *362:6 *1368:A 21.925 
3 *362:6 *1374:A 13.9429 
*END
