*SPEF "ieee 1481-1999"
*DESIGN "uart_top"
*DATE "11:11:11 Fri 11 11, 1111"
*VENDOR "OpenRCX"
*PROGRAM "Parallel Extraction"
*VERSION "1.0"
*DESIGN_FLOW "NAME_SCOPE LOCAL" "PIN_CAP NONE"
*DIVIDER /
*DELIMITER :
*BUS_DELIMITER []
*T_UNIT 1 NS
*C_UNIT 1 PF
*R_UNIT 1 OHM
*L_UNIT 1 HENRY

*NAME_MAP
*3 clk
*4 data_in[0]
*5 data_in[1]
*6 data_in[2]
*7 data_in[3]
*8 data_in[4]
*9 data_in[5]
*10 data_in[6]
*11 data_in[7]
*12 data_out[0]
*13 data_out[1]
*14 data_out[2]
*15 data_out[3]
*16 data_out[4]
*17 data_out[5]
*18 data_out[6]
*19 data_out[7]
*20 data_ready
*21 data_valid
*22 rst_n
*23 rx_in
*24 tx_busy
*25 tx_out
*26 _000_
*27 _001_
*28 _002_
*29 _003_
*30 _004_
*31 _005_
*32 _006_
*33 _007_
*34 _008_
*35 _009_
*36 _010_
*37 _011_
*38 _012_
*39 _013_
*40 _014_
*41 _015_
*42 _016_
*43 _017_
*44 _018_
*45 _019_
*46 _020_
*47 _021_
*48 _022_
*49 _023_
*50 _024_
*51 _025_
*52 _026_
*53 _027_
*54 _028_
*55 _029_
*56 _030_
*57 _031_
*58 _032_
*59 _033_
*60 _034_
*61 _035_
*62 _036_
*63 _037_
*64 _038_
*65 _039_
*66 _040_
*67 _041_
*68 _042_
*69 _043_
*70 _044_
*71 _045_
*72 _046_
*73 _047_
*74 _048_
*75 _049_
*76 _050_
*77 _051_
*78 _052_
*79 _053_
*80 _054_
*81 _055_
*82 _056_
*83 _057_
*84 _058_
*85 _059_
*86 _060_
*87 _061_
*88 _062_
*89 _063_
*90 _064_
*91 _065_
*92 _066_
*93 _067_
*94 _068_
*95 _069_
*96 _070_
*97 _071_
*98 _072_
*99 _073_
*100 _074_
*101 _075_
*102 _076_
*103 _077_
*104 _078_
*105 _079_
*106 _080_
*107 _081_
*108 _082_
*109 _083_
*110 _084_
*111 _085_
*112 _086_
*113 _087_
*114 _088_
*115 _089_
*116 _090_
*117 _091_
*118 _092_
*119 _093_
*120 _094_
*121 _095_
*122 _096_
*123 _097_
*124 _098_
*125 _099_
*126 _100_
*127 _101_
*128 _102_
*129 _103_
*130 _104_
*131 _105_
*132 _106_
*133 _107_
*134 _108_
*135 _109_
*136 _110_
*137 _111_
*138 _112_
*139 _113_
*140 _114_
*141 _115_
*142 _116_
*143 _117_
*144 _118_
*145 _119_
*146 _120_
*147 _121_
*148 _122_
*149 _123_
*150 _124_
*151 _125_
*152 _126_
*153 _127_
*154 _128_
*155 _129_
*156 _130_
*157 _131_
*158 _132_
*159 _133_
*160 _134_
*161 _135_
*162 _136_
*163 _137_
*164 _138_
*165 _139_
*166 _140_
*167 _141_
*168 _142_
*169 _143_
*170 _144_
*171 _145_
*172 _146_
*173 _147_
*174 _148_
*175 _149_
*176 _150_
*177 _151_
*178 _152_
*179 _153_
*180 _154_
*181 _155_
*182 _156_
*183 _157_
*184 _158_
*185 _159_
*186 _160_
*187 _161_
*188 _162_
*189 _163_
*190 _164_
*191 _165_
*192 _166_
*193 _167_
*194 _168_
*195 _169_
*196 _170_
*197 _171_
*198 _172_
*199 _173_
*200 _174_
*201 _175_
*202 _176_
*203 _177_
*204 _178_
*205 _179_
*206 _180_
*207 _181_
*208 _182_
*209 _183_
*210 _184_
*211 _185_
*212 _186_
*213 _187_
*214 _188_
*215 _189_
*216 _190_
*217 _191_
*218 _192_
*219 _193_
*220 _194_
*221 _195_
*222 _196_
*223 _197_
*224 _198_
*225 _199_
*226 _200_
*227 _201_
*228 _202_
*229 _203_
*230 clknet_0_clk
*231 clknet_3_0__leaf_clk
*232 clknet_3_1__leaf_clk
*233 clknet_3_2__leaf_clk
*234 clknet_3_3__leaf_clk
*235 clknet_3_4__leaf_clk
*236 clknet_3_5__leaf_clk
*237 clknet_3_6__leaf_clk
*238 clknet_3_7__leaf_clk
*239 net1
*240 net10
*241 net11
*242 net12
*243 net13
*244 net14
*245 net15
*246 net16
*247 net17
*248 net18
*249 net19
*250 net2
*251 net20
*252 net21
*253 net22
*254 net23
*255 net24
*256 net25
*257 net26
*258 net27
*259 net28
*260 net29
*261 net3
*262 net30
*263 net31
*264 net32
*265 net33
*266 net34
*267 net35
*268 net36
*269 net37
*270 net38
*271 net39
*272 net4
*273 net40
*274 net41
*275 net42
*276 net43
*277 net44
*278 net45
*279 net46
*280 net47
*281 net48
*282 net49
*283 net5
*284 net50
*285 net51
*286 net52
*287 net53
*288 net54
*289 net55
*290 net56
*291 net57
*292 net58
*293 net59
*294 net6
*295 net60
*296 net61
*297 net62
*298 net63
*299 net64
*300 net65
*301 net66
*302 net67
*303 net68
*304 net69
*305 net7
*306 net70
*307 net71
*308 net72
*309 net73
*310 net74
*311 net8
*312 net9
*313 rx_baud_cnt\[0\]
*314 rx_baud_cnt\[1\]
*315 rx_baud_cnt\[2\]
*316 rx_baud_cnt\[3\]
*317 rx_baud_cnt\[4\]
*318 rx_baud_cnt\[5\]
*319 rx_baud_cnt\[6\]
*320 rx_baud_cnt\[7\]
*321 rx_baud_cnt\[8\]
*322 rx_bit_cnt\[0\]
*323 rx_bit_cnt\[1\]
*324 rx_bit_cnt\[2\]
*325 rx_shift_reg\[0\]
*326 rx_shift_reg\[1\]
*327 rx_shift_reg\[2\]
*328 rx_shift_reg\[3\]
*329 rx_shift_reg\[4\]
*330 rx_shift_reg\[5\]
*331 rx_shift_reg\[6\]
*332 rx_shift_reg\[7\]
*333 rx_state\[0\]
*334 rx_state\[1\]
*335 rx_state\[2\]
*336 rx_state\[3\]
*337 rx_sync1
*338 rx_sync2
*339 tx_baud_cnt\[0\]
*340 tx_baud_cnt\[1\]
*341 tx_baud_cnt\[2\]
*342 tx_baud_cnt\[3\]
*343 tx_baud_cnt\[4\]
*344 tx_baud_cnt\[5\]
*345 tx_baud_cnt\[6\]
*346 tx_baud_cnt\[7\]
*347 tx_baud_cnt\[8\]
*348 tx_bit_cnt\[0\]
*349 tx_bit_cnt\[1\]
*350 tx_bit_cnt\[2\]
*351 tx_shift_reg\[0\]
*352 tx_shift_reg\[1\]
*353 tx_shift_reg\[2\]
*354 tx_shift_reg\[3\]
*355 tx_shift_reg\[4\]
*356 tx_shift_reg\[5\]
*357 tx_shift_reg\[6\]
*358 tx_shift_reg\[7\]
*359 tx_state\[0\]
*360 tx_state\[1\]
*361 tx_state\[2\]
*362 tx_state\[3\]
*363 FILLER_0_0_104
*364 FILLER_0_0_113
*365 FILLER_0_0_119
*366 FILLER_0_0_155
*367 FILLER_0_0_167
*368 FILLER_0_0_169
*369 FILLER_0_0_181
*370 FILLER_0_0_26
*371 FILLER_0_0_43
*372 FILLER_0_0_55
*373 FILLER_0_0_57
*374 FILLER_0_0_63
*375 FILLER_0_0_70
*376 FILLER_0_0_79
*377 FILLER_0_0_83
*378 FILLER_0_0_85
*379 FILLER_0_0_97
*380 FILLER_0_10_107
*381 FILLER_0_10_128
*382 FILLER_0_10_144
*383 FILLER_0_10_156
*384 FILLER_0_10_168
*385 FILLER_0_10_180
*386 FILLER_0_10_192
*387 FILLER_0_10_23
*388 FILLER_0_10_27
*389 FILLER_0_10_29
*390 FILLER_0_10_41
*391 FILLER_0_10_79
*392 FILLER_0_10_83
*393 FILLER_0_10_9
*394 FILLER_0_10_93
*395 FILLER_0_11_139
*396 FILLER_0_11_15
*397 FILLER_0_11_151
*398 FILLER_0_11_163
*399 FILLER_0_11_167
*400 FILLER_0_11_169
*401 FILLER_0_11_181
*402 FILLER_0_11_27
*403 FILLER_0_11_3
*404 FILLER_0_11_39
*405 FILLER_0_11_44
*406 FILLER_0_11_52
*407 FILLER_0_11_73
*408 FILLER_0_12_125
*409 FILLER_0_12_15
*410 FILLER_0_12_161
*411 FILLER_0_12_169
*412 FILLER_0_12_27
*413 FILLER_0_12_29
*414 FILLER_0_12_3
*415 FILLER_0_12_46
*416 FILLER_0_12_54
*417 FILLER_0_12_67
*418 FILLER_0_12_85
*419 FILLER_0_12_90
*420 FILLER_0_12_99
*421 FILLER_0_13_104
*422 FILLER_0_13_113
*423 FILLER_0_13_119
*424 FILLER_0_13_131
*425 FILLER_0_13_143
*426 FILLER_0_13_155
*427 FILLER_0_13_160
*428 FILLER_0_13_169
*429 FILLER_0_13_181
*430 FILLER_0_13_24
*431 FILLER_0_13_3
*432 FILLER_0_13_45
*433 FILLER_0_13_65
*434 FILLER_0_13_73
*435 FILLER_0_13_95
*436 FILLER_0_14_111
*437 FILLER_0_14_123
*438 FILLER_0_14_135
*439 FILLER_0_14_139
*440 FILLER_0_14_141
*441 FILLER_0_14_15
*442 FILLER_0_14_153
*443 FILLER_0_14_174
*444 FILLER_0_14_186
*445 FILLER_0_14_192
*446 FILLER_0_14_27
*447 FILLER_0_14_29
*448 FILLER_0_14_3
*449 FILLER_0_14_39
*450 FILLER_0_14_45
*451 FILLER_0_14_55
*452 FILLER_0_14_66
*453 FILLER_0_14_85
*454 FILLER_0_14_93
*455 FILLER_0_14_99
*456 FILLER_0_15_107
*457 FILLER_0_15_111
*458 FILLER_0_15_113
*459 FILLER_0_15_14
*460 FILLER_0_15_145
*461 FILLER_0_15_151
*462 FILLER_0_15_165
*463 FILLER_0_15_169
*464 FILLER_0_15_38
*465 FILLER_0_15_50
*466 FILLER_0_15_6
*467 FILLER_0_15_63
*468 FILLER_0_15_75
*469 FILLER_0_15_87
*470 FILLER_0_15_91
*471 FILLER_0_15_95
*472 FILLER_0_16_116
*473 FILLER_0_16_122
*474 FILLER_0_16_126
*475 FILLER_0_16_138
*476 FILLER_0_16_145
*477 FILLER_0_16_157
*478 FILLER_0_16_165
*479 FILLER_0_16_184
*480 FILLER_0_16_192
*481 FILLER_0_16_24
*482 FILLER_0_16_33
*483 FILLER_0_16_38
*484 FILLER_0_16_50
*485 FILLER_0_16_56
*486 FILLER_0_16_74
*487 FILLER_0_16_82
*488 FILLER_0_16_91
*489 FILLER_0_17_113
*490 FILLER_0_17_137
*491 FILLER_0_17_143
*492 FILLER_0_17_15
*493 FILLER_0_17_161
*494 FILLER_0_17_169
*495 FILLER_0_17_178
*496 FILLER_0_17_190
*497 FILLER_0_17_27
*498 FILLER_0_17_3
*499 FILLER_0_17_35
*500 FILLER_0_17_42
*501 FILLER_0_17_51
*502 FILLER_0_17_57
*503 FILLER_0_17_71
*504 FILLER_0_17_77
*505 FILLER_0_17_84
*506 FILLER_0_18_108
*507 FILLER_0_18_139
*508 FILLER_0_18_141
*509 FILLER_0_18_151
*510 FILLER_0_18_163
*511 FILLER_0_18_189
*512 FILLER_0_18_27
*513 FILLER_0_18_29
*514 FILLER_0_18_3
*515 FILLER_0_18_46
*516 FILLER_0_18_58
*517 FILLER_0_18_63
*518 FILLER_0_18_75
*519 FILLER_0_18_85
*520 FILLER_0_19_101
*521 FILLER_0_19_107
*522 FILLER_0_19_111
*523 FILLER_0_19_113
*524 FILLER_0_19_121
*525 FILLER_0_19_128
*526 FILLER_0_19_149
*527 FILLER_0_19_15
*528 FILLER_0_19_161
*529 FILLER_0_19_167
*530 FILLER_0_19_169
*531 FILLER_0_19_176
*532 FILLER_0_19_188
*533 FILLER_0_19_192
*534 FILLER_0_19_3
*535 FILLER_0_19_47
*536 FILLER_0_19_55
*537 FILLER_0_19_64
*538 FILLER_0_19_76
*539 FILLER_0_19_80
*540 FILLER_0_19_93
*541 FILLER_0_1_110
*542 FILLER_0_1_119
*543 FILLER_0_1_163
*544 FILLER_0_1_167
*545 FILLER_0_1_169
*546 FILLER_0_1_181
*547 FILLER_0_1_25
*548 FILLER_0_1_3
*549 FILLER_0_1_48
*550 FILLER_0_1_52
*551 FILLER_0_1_57
*552 FILLER_0_1_68
*553 FILLER_0_20_121
*554 FILLER_0_20_147
*555 FILLER_0_20_157
*556 FILLER_0_20_169
*557 FILLER_0_20_181
*558 FILLER_0_20_29
*559 FILLER_0_20_3
*560 FILLER_0_20_44
*561 FILLER_0_20_77
*562 FILLER_0_20_81
*563 FILLER_0_20_85
*564 FILLER_0_20_97
*565 FILLER_0_21_101
*566 FILLER_0_21_109
*567 FILLER_0_21_136
*568 FILLER_0_21_15
*569 FILLER_0_21_183
*570 FILLER_0_21_191
*571 FILLER_0_21_27
*572 FILLER_0_21_3
*573 FILLER_0_21_45
*574 FILLER_0_21_65
*575 FILLER_0_22_112
*576 FILLER_0_22_120
*577 FILLER_0_22_132
*578 FILLER_0_22_154
*579 FILLER_0_22_160
*580 FILLER_0_22_164
*581 FILLER_0_22_27
*582 FILLER_0_22_50
*583 FILLER_0_22_74
*584 FILLER_0_22_83
*585 FILLER_0_22_85
*586 FILLER_0_22_97
*587 FILLER_0_23_127
*588 FILLER_0_23_139
*589 FILLER_0_23_15
*590 FILLER_0_23_157
*591 FILLER_0_23_165
*592 FILLER_0_23_169
*593 FILLER_0_23_175
*594 FILLER_0_23_185
*595 FILLER_0_23_3
*596 FILLER_0_23_32
*597 FILLER_0_23_44
*598 FILLER_0_23_57
*599 FILLER_0_23_69
*600 FILLER_0_23_81
*601 FILLER_0_23_89
*602 FILLER_0_24_105
*603 FILLER_0_24_117
*604 FILLER_0_24_129
*605 FILLER_0_24_137
*606 FILLER_0_24_141
*607 FILLER_0_24_164
*608 FILLER_0_24_177
*609 FILLER_0_24_18
*610 FILLER_0_24_26
*611 FILLER_0_24_29
*612 FILLER_0_24_41
*613 FILLER_0_24_51
*614 FILLER_0_24_6
*615 FILLER_0_24_66
*616 FILLER_0_24_77
*617 FILLER_0_25_102
*618 FILLER_0_25_110
*619 FILLER_0_25_113
*620 FILLER_0_25_120
*621 FILLER_0_25_133
*622 FILLER_0_25_139
*623 FILLER_0_25_146
*624 FILLER_0_25_15
*625 FILLER_0_25_27
*626 FILLER_0_25_3
*627 FILLER_0_25_35
*628 FILLER_0_25_77
*629 FILLER_0_26_103
*630 FILLER_0_26_107
*631 FILLER_0_26_133
*632 FILLER_0_26_149
*633 FILLER_0_26_15
*634 FILLER_0_26_153
*635 FILLER_0_26_162
*636 FILLER_0_26_170
*637 FILLER_0_26_192
*638 FILLER_0_26_27
*639 FILLER_0_26_29
*640 FILLER_0_26_3
*641 FILLER_0_26_37
*642 FILLER_0_26_43
*643 FILLER_0_26_62
*644 FILLER_0_26_74
*645 FILLER_0_26_82
*646 FILLER_0_26_85
*647 FILLER_0_27_110
*648 FILLER_0_27_113
*649 FILLER_0_27_125
*650 FILLER_0_27_132
*651 FILLER_0_27_144
*652 FILLER_0_27_15
*653 FILLER_0_27_152
*654 FILLER_0_27_166
*655 FILLER_0_27_169
*656 FILLER_0_27_181
*657 FILLER_0_27_27
*658 FILLER_0_27_3
*659 FILLER_0_27_39
*660 FILLER_0_27_51
*661 FILLER_0_27_55
*662 FILLER_0_27_57
*663 FILLER_0_27_69
*664 FILLER_0_27_81
*665 FILLER_0_27_89
*666 FILLER_0_28_115
*667 FILLER_0_28_127
*668 FILLER_0_28_139
*669 FILLER_0_28_141
*670 FILLER_0_28_15
*671 FILLER_0_28_173
*672 FILLER_0_28_185
*673 FILLER_0_28_27
*674 FILLER_0_28_29
*675 FILLER_0_28_3
*676 FILLER_0_28_61
*677 FILLER_0_28_85
*678 FILLER_0_28_89
*679 FILLER_0_29_106
*680 FILLER_0_29_121
*681 FILLER_0_29_129
*682 FILLER_0_29_136
*683 FILLER_0_29_148
*684 FILLER_0_29_15
*685 FILLER_0_29_160
*686 FILLER_0_29_164
*687 FILLER_0_29_169
*688 FILLER_0_29_181
*689 FILLER_0_29_27
*690 FILLER_0_29_3
*691 FILLER_0_29_39
*692 FILLER_0_29_53
*693 FILLER_0_29_77
*694 FILLER_0_29_86
*695 FILLER_0_2_122
*696 FILLER_0_2_133
*697 FILLER_0_2_139
*698 FILLER_0_2_141
*699 FILLER_0_2_15
*700 FILLER_0_2_160
*701 FILLER_0_2_172
*702 FILLER_0_2_184
*703 FILLER_0_2_192
*704 FILLER_0_2_27
*705 FILLER_0_2_29
*706 FILLER_0_2_33
*707 FILLER_0_2_37
*708 FILLER_0_2_47
*709 FILLER_0_2_6
*710 FILLER_0_2_77
*711 FILLER_0_2_83
*712 FILLER_0_2_94
*713 FILLER_0_30_106
*714 FILLER_0_30_118
*715 FILLER_0_30_136
*716 FILLER_0_30_15
*717 FILLER_0_30_161
*718 FILLER_0_30_178
*719 FILLER_0_30_190
*720 FILLER_0_30_27
*721 FILLER_0_30_29
*722 FILLER_0_30_3
*723 FILLER_0_30_41
*724 FILLER_0_30_49
*725 FILLER_0_30_70
*726 FILLER_0_30_81
*727 FILLER_0_30_94
*728 FILLER_0_31_140
*729 FILLER_0_31_169
*730 FILLER_0_31_18
*731 FILLER_0_31_181
*732 FILLER_0_31_30
*733 FILLER_0_31_42
*734 FILLER_0_31_50
*735 FILLER_0_31_54
*736 FILLER_0_31_6
*737 FILLER_0_31_66
*738 FILLER_0_32_111
*739 FILLER_0_32_119
*740 FILLER_0_32_123
*741 FILLER_0_32_135
*742 FILLER_0_32_139
*743 FILLER_0_32_141
*744 FILLER_0_32_161
*745 FILLER_0_32_167
*746 FILLER_0_32_169
*747 FILLER_0_32_181
*748 FILLER_0_32_189
*749 FILLER_0_32_21
*750 FILLER_0_32_27
*751 FILLER_0_32_29
*752 FILLER_0_32_34
*753 FILLER_0_32_46
*754 FILLER_0_32_54
*755 FILLER_0_32_57
*756 FILLER_0_32_65
*757 FILLER_0_32_77
*758 FILLER_0_32_83
*759 FILLER_0_32_85
*760 FILLER_0_32_9
*761 FILLER_0_32_99
*762 FILLER_0_3_105
*763 FILLER_0_3_111
*764 FILLER_0_3_113
*765 FILLER_0_3_121
*766 FILLER_0_3_146
*767 FILLER_0_3_15
*768 FILLER_0_3_155
*769 FILLER_0_3_167
*770 FILLER_0_3_169
*771 FILLER_0_3_181
*772 FILLER_0_3_19
*773 FILLER_0_3_3
*774 FILLER_0_3_30
*775 FILLER_0_3_38
*776 FILLER_0_3_43
*777 FILLER_0_3_53
*778 FILLER_0_3_65
*779 FILLER_0_3_89
*780 FILLER_0_4_106
*781 FILLER_0_4_118
*782 FILLER_0_4_130
*783 FILLER_0_4_138
*784 FILLER_0_4_141
*785 FILLER_0_4_153
*786 FILLER_0_4_165
*787 FILLER_0_4_177
*788 FILLER_0_4_189
*789 FILLER_0_4_29
*790 FILLER_0_4_3
*791 FILLER_0_4_33
*792 FILLER_0_4_54
*793 FILLER_0_4_7
*794 FILLER_0_4_91
*795 FILLER_0_4_95
*796 FILLER_0_4_99
*797 FILLER_0_5_103
*798 FILLER_0_5_107
*799 FILLER_0_5_111
*800 FILLER_0_5_133
*801 FILLER_0_5_145
*802 FILLER_0_5_15
*803 FILLER_0_5_157
*804 FILLER_0_5_165
*805 FILLER_0_5_169
*806 FILLER_0_5_181
*807 FILLER_0_5_189
*808 FILLER_0_5_19
*809 FILLER_0_5_28
*810 FILLER_0_5_3
*811 FILLER_0_5_48
*812 FILLER_0_5_57
*813 FILLER_0_5_69
*814 FILLER_0_5_77
*815 FILLER_0_5_85
*816 FILLER_0_5_95
*817 FILLER_0_6_121
*818 FILLER_0_6_134
*819 FILLER_0_6_141
*820 FILLER_0_6_15
*821 FILLER_0_6_153
*822 FILLER_0_6_165
*823 FILLER_0_6_177
*824 FILLER_0_6_189
*825 FILLER_0_6_27
*826 FILLER_0_6_29
*827 FILLER_0_6_3
*828 FILLER_0_6_33
*829 FILLER_0_6_45
*830 FILLER_0_6_70
*831 FILLER_0_6_82
*832 FILLER_0_6_85
*833 FILLER_0_6_97
*834 FILLER_0_7_110
*835 FILLER_0_7_113
*836 FILLER_0_7_121
*837 FILLER_0_7_14
*838 FILLER_0_7_156
*839 FILLER_0_7_169
*840 FILLER_0_7_181
*841 FILLER_0_7_22
*842 FILLER_0_7_3
*843 FILLER_0_7_53
*844 FILLER_0_7_61
*845 FILLER_0_7_77
*846 FILLER_0_7_87
*847 FILLER_0_7_95
*848 FILLER_0_8_130
*849 FILLER_0_8_138
*850 FILLER_0_8_141
*851 FILLER_0_8_162
*852 FILLER_0_8_174
*853 FILLER_0_8_186
*854 FILLER_0_8_192
*855 FILLER_0_8_25
*856 FILLER_0_8_29
*857 FILLER_0_8_3
*858 FILLER_0_8_41
*859 FILLER_0_8_65
*860 FILLER_0_8_76
*861 FILLER_0_8_96
*862 FILLER_0_9_109
*863 FILLER_0_9_113
*864 FILLER_0_9_125
*865 FILLER_0_9_15
*866 FILLER_0_9_157
*867 FILLER_0_9_165
*868 FILLER_0_9_169
*869 FILLER_0_9_181
*870 FILLER_0_9_26
*871 FILLER_0_9_3
*872 FILLER_0_9_49
*873 FILLER_0_9_55
*874 FILLER_0_9_57
*875 FILLER_0_9_69
*876 FILLER_0_9_81
*877 FILLER_0_9_93
*878 FILLER_0_9_99
*879 PHY_0
*880 PHY_1
*881 PHY_10
*882 PHY_11
*883 PHY_12
*884 PHY_13
*885 PHY_14
*886 PHY_15
*887 PHY_16
*888 PHY_17
*889 PHY_18
*890 PHY_19
*891 PHY_2
*892 PHY_20
*893 PHY_21
*894 PHY_22
*895 PHY_23
*896 PHY_24
*897 PHY_25
*898 PHY_26
*899 PHY_27
*900 PHY_28
*901 PHY_29
*902 PHY_3
*903 PHY_30
*904 PHY_31
*905 PHY_32
*906 PHY_33
*907 PHY_34
*908 PHY_35
*909 PHY_36
*910 PHY_37
*911 PHY_38
*912 PHY_39
*913 PHY_4
*914 PHY_40
*915 PHY_41
*916 PHY_42
*917 PHY_43
*918 PHY_44
*919 PHY_45
*920 PHY_46
*921 PHY_47
*922 PHY_48
*923 PHY_49
*924 PHY_5
*925 PHY_50
*926 PHY_51
*927 PHY_52
*928 PHY_53
*929 PHY_54
*930 PHY_55
*931 PHY_56
*932 PHY_57
*933 PHY_58
*934 PHY_59
*935 PHY_6
*936 PHY_60
*937 PHY_61
*938 PHY_62
*939 PHY_63
*940 PHY_64
*941 PHY_65
*942 PHY_7
*943 PHY_8
*944 PHY_9
*945 TAP_100
*946 TAP_101
*947 TAP_102
*948 TAP_103
*949 TAP_104
*950 TAP_105
*951 TAP_106
*952 TAP_107
*953 TAP_108
*954 TAP_109
*955 TAP_110
*956 TAP_111
*957 TAP_112
*958 TAP_113
*959 TAP_114
*960 TAP_115
*961 TAP_116
*962 TAP_117
*963 TAP_118
*964 TAP_119
*965 TAP_120
*966 TAP_121
*967 TAP_122
*968 TAP_123
*969 TAP_124
*970 TAP_125
*971 TAP_126
*972 TAP_127
*973 TAP_128
*974 TAP_129
*975 TAP_130
*976 TAP_131
*977 TAP_132
*978 TAP_133
*979 TAP_134
*980 TAP_135
*981 TAP_136
*982 TAP_137
*983 TAP_138
*984 TAP_139
*985 TAP_140
*986 TAP_141
*987 TAP_142
*988 TAP_143
*989 TAP_144
*990 TAP_145
*991 TAP_146
*992 TAP_147
*993 TAP_148
*994 TAP_149
*995 TAP_150
*996 TAP_151
*997 TAP_152
*998 TAP_153
*999 TAP_154
*1000 TAP_155
*1001 TAP_156
*1002 TAP_157
*1003 TAP_158
*1004 TAP_159
*1005 TAP_160
*1006 TAP_161
*1007 TAP_162
*1008 TAP_163
*1009 TAP_164
*1010 TAP_165
*1011 TAP_166
*1012 TAP_167
*1013 TAP_168
*1014 TAP_169
*1015 TAP_170
*1016 TAP_66
*1017 TAP_67
*1018 TAP_68
*1019 TAP_69
*1020 TAP_70
*1021 TAP_71
*1022 TAP_72
*1023 TAP_73
*1024 TAP_74
*1025 TAP_75
*1026 TAP_76
*1027 TAP_77
*1028 TAP_78
*1029 TAP_79
*1030 TAP_80
*1031 TAP_81
*1032 TAP_82
*1033 TAP_83
*1034 TAP_84
*1035 TAP_85
*1036 TAP_86
*1037 TAP_87
*1038 TAP_88
*1039 TAP_89
*1040 TAP_90
*1041 TAP_91
*1042 TAP_92
*1043 TAP_93
*1044 TAP_94
*1045 TAP_95
*1046 TAP_96
*1047 TAP_97
*1048 TAP_98
*1049 TAP_99
*1050 _204_
*1051 _205_
*1052 _206_
*1053 _207_
*1054 _208_
*1055 _209_
*1056 _210_
*1057 _211_
*1058 _212_
*1059 _213_
*1060 _214_
*1061 _215_
*1062 _216_
*1063 _217_
*1064 _218_
*1065 _219_
*1066 _220_
*1067 _221_
*1068 _222_
*1069 _223_
*1070 _224_
*1071 _225_
*1072 _226_
*1073 _227_
*1074 _228_
*1075 _229_
*1076 _230_
*1077 _231_
*1078 _232_
*1079 _233_
*1080 _234_
*1081 _235_
*1082 _236_
*1083 _237_
*1084 _238_
*1085 _239_
*1086 _240_
*1087 _241_
*1088 _242_
*1089 _243_
*1090 _244_
*1091 _245_
*1092 _246_
*1093 _247_
*1094 _248_
*1095 _249_
*1096 _250_
*1097 _251_
*1098 _252_
*1099 _253_
*1100 _254_
*1101 _255_
*1102 _256_
*1103 _257_
*1104 _258_
*1105 _259_
*1106 _260_
*1107 _261_
*1108 _262_
*1109 _263_
*1110 _264_
*1111 _265_
*1112 _266_
*1113 _267_
*1114 _268_
*1115 _269_
*1116 _270_
*1117 _271_
*1118 _272_
*1119 _273_
*1120 _274_
*1121 _275_
*1122 _276_
*1123 _277_
*1124 _278_
*1125 _279_
*1126 _280_
*1127 _281_
*1128 _282_
*1129 _283_
*1130 _284_
*1131 _285_
*1132 _286_
*1133 _287_
*1134 _288_
*1135 _289_
*1136 _290_
*1137 _291_
*1138 _292_
*1139 _293_
*1140 _294_
*1141 _295_
*1142 _296_
*1143 _297_
*1144 _298_
*1145 _299_
*1146 _300_
*1147 _301_
*1148 _302_
*1149 _303_
*1150 _304_
*1151 _305_
*1152 _306_
*1153 _307_
*1154 _308_
*1155 _309_
*1156 _310_
*1157 _311_
*1158 _312_
*1159 _313_
*1160 _314_
*1161 _315_
*1162 _316_
*1163 _317_
*1164 _318_
*1165 _319_
*1166 _320_
*1167 _321_
*1168 _322_
*1169 _323_
*1170 _324_
*1171 _325_
*1172 _326_
*1173 _327_
*1174 _328_
*1175 _329_
*1176 _330_
*1177 _331_
*1178 _332_
*1179 _333_
*1180 _334_
*1181 _335_
*1182 _336_
*1183 _337_
*1184 _338_
*1185 _339_
*1186 _340_
*1187 _341_
*1188 _342_
*1189 _343_
*1190 _344_
*1191 _345_
*1192 _346_
*1193 _347_
*1194 _348_
*1195 _349_
*1196 _350_
*1197 _351_
*1198 _352_
*1199 _353_
*1200 _354_
*1201 _355_
*1202 _356_
*1203 _357_
*1204 _358_
*1205 _359_
*1206 _360_
*1207 _361_
*1208 _362_
*1209 _363_
*1210 _364_
*1211 _365_
*1212 _366_
*1213 _367_
*1214 _368_
*1215 _369_
*1216 _370_
*1217 _371_
*1218 _372_
*1219 _373_
*1220 _374_
*1221 _375_
*1222 _376_
*1223 _377_
*1224 _378_
*1225 _379_
*1226 _380_
*1227 _381_
*1228 _382_
*1229 _383_
*1230 _384_
*1231 _385_
*1232 _386_
*1233 _387_
*1234 _388_
*1235 _389_
*1236 _390_
*1237 _391_
*1238 _392_
*1239 _393_
*1240 _394_
*1241 _395_
*1242 _396_
*1243 _397_
*1244 _398_
*1245 _399_
*1246 _400_
*1247 _401_
*1248 _402_
*1249 _403_
*1250 _404_
*1251 _405_
*1252 _406_
*1253 _407_
*1254 _408_
*1255 _409_
*1256 _410_
*1257 _411_
*1258 _412_
*1259 _413_
*1260 _414_
*1261 _415_
*1262 _416_
*1263 _417_
*1264 _418_
*1265 _419_
*1266 _420_
*1267 _421_
*1268 _422_
*1269 _423_
*1270 _424_
*1271 _425_
*1272 _426_
*1273 _427_
*1274 _428_
*1275 _429_
*1276 _430_
*1277 _431_
*1278 _432_
*1279 _433_
*1280 _434_
*1281 _435_
*1282 _436_
*1283 _437_
*1284 _438_
*1285 _439_
*1286 _440_
*1287 _441_
*1288 _442_
*1289 _443_
*1290 _444_
*1291 _445_
*1292 _446_
*1293 _447_
*1294 _448_
*1295 _449_
*1296 _450_
*1297 _451_
*1298 _452_
*1299 _453_
*1300 _454_
*1301 _455_
*1302 _456_
*1303 _457_
*1304 _458_
*1305 _459_
*1306 _460_
*1307 _461_
*1308 _462_
*1309 _463_
*1310 _464_
*1311 _465_
*1312 _466_
*1313 _467_
*1314 _468_
*1315 clkbuf_0_clk
*1316 clkbuf_3_0__f_clk
*1317 clkbuf_3_1__f_clk
*1318 clkbuf_3_2__f_clk
*1319 clkbuf_3_3__f_clk
*1320 clkbuf_3_4__f_clk
*1321 clkbuf_3_5__f_clk
*1322 clkbuf_3_6__f_clk
*1323 clkbuf_3_7__f_clk
*1324 fanout24
*1325 fanout25
*1326 fanout26
*1327 fanout27
*1328 fanout28
*1329 fanout29
*1330 fanout30
*1331 fanout31
*1332 hold1
*1333 hold10
*1334 hold11
*1335 hold12
*1336 hold13
*1337 hold14
*1338 hold15
*1339 hold16
*1340 hold17
*1341 hold18
*1342 hold19
*1343 hold2
*1344 hold20
*1345 hold21
*1346 hold22
*1347 hold23
*1348 hold24
*1349 hold25
*1350 hold26
*1351 hold27
*1352 hold28
*1353 hold29
*1354 hold3
*1355 hold30
*1356 hold31
*1357 hold32
*1358 hold33
*1359 hold34
*1360 hold35
*1361 hold36
*1362 hold37
*1363 hold38
*1364 hold39
*1365 hold4
*1366 hold40
*1367 hold41
*1368 hold42
*1369 hold43
*1370 hold5
*1371 hold6
*1372 hold7
*1373 hold8
*1374 hold9
*1375 input1
*1376 input10
*1377 input11
*1378 input2
*1379 input3
*1380 input4
*1381 input5
*1382 input6
*1383 input7
*1384 input8
*1385 input9
*1386 max_cap23
*1387 output12
*1388 output13
*1389 output14
*1390 output15
*1391 output16
*1392 output17
*1393 output18
*1394 output19
*1395 output20
*1396 output21
*1397 output22

*PORTS
clk I
data_in[0] I
data_in[1] I
data_in[2] I
data_in[3] I
data_in[4] I
data_in[5] I
data_in[6] I
data_in[7] I
data_out[0] O
data_out[1] O
data_out[2] O
data_out[3] O
data_out[4] O
data_out[5] O
data_out[6] O
data_out[7] O
data_ready O
data_valid I
rst_n I
rx_in I
tx_busy O
tx_out O

*D_NET *3 0.0106881
*CONN
*P clk I
*I *1315:A I *D sky130_fd_sc_hd__clkbuf_16
*CAP
1 clk 0.00518228
2 *1315:A 0.00518228
3 *1315:A *1286:CLK 0.000163707
4 *1315:A *1331:A 0
5 *1315:A *96:14 0.000149864
6 *1315:A *237:10 9.98943e-06
*RES
1 clk *1315:A 17.5954 
*END

*D_NET *4 0.000523515
*CONN
*P data_in[0] I
*I *1375:A I *D sky130_fd_sc_hd__clkbuf_1
*CAP
1 data_in[0] 0.000261757
2 *1375:A 0.000261757
*RES
1 data_in[0] *1375:A 5.2639 
*END

*D_NET *5 0.000806864
*CONN
*P data_in[1] I
*I *1378:A I *D sky130_fd_sc_hd__buf_1
*CAP
1 data_in[1] 0.00039868
2 *1378:A 0.00039868
3 *1378:A data_out[4] 0
4 *1378:A *1391:A 9.50342e-06
*RES
1 data_in[1] *1378:A 10.8 
*END

*D_NET *6 0.000435042
*CONN
*P data_in[2] I
*I *1379:A I *D sky130_fd_sc_hd__buf_1
*CAP
1 data_in[2] 0.000217521
2 *1379:A 0.000217521
*RES
1 data_in[2] *1379:A 6.38543 
*END

*D_NET *7 0.000564625
*CONN
*P data_in[3] I
*I *1380:A I *D sky130_fd_sc_hd__clkbuf_1
*CAP
1 data_in[3] 0.000282313
2 *1380:A 0.000282313
3 *1380:A *1270:D 0
*RES
1 data_in[3] *1380:A 7.40543 
*END

*D_NET *8 0.000897841
*CONN
*P data_in[4] I
*I *1381:A I *D sky130_fd_sc_hd__clkbuf_1
*CAP
1 data_in[4] 0.000424456
2 *1381:A 0.000424456
3 *1381:A *1396:A 4.89295e-05
*RES
1 data_in[4] *1381:A 11.115 
*END

*D_NET *9 0.000996722
*CONN
*P data_in[5] I
*I *1382:A I *D sky130_fd_sc_hd__clkbuf_1
*CAP
1 data_in[5] 0.000498361
2 *1382:A 0.000498361
*RES
1 data_in[5] *1382:A 12.255 
*END

*D_NET *10 0.00087966
*CONN
*P data_in[6] I
*I *1383:A I *D sky130_fd_sc_hd__clkbuf_1
*CAP
1 data_in[6] 0.00043983
2 *1383:A 0.00043983
*RES
1 data_in[6] *1383:A 11.115 
*END

*D_NET *11 0.000590199
*CONN
*P data_in[7] I
*I *1384:A I *D sky130_fd_sc_hd__buf_1
*CAP
1 data_in[7] 0.000295099
2 *1384:A 0.000295099
*RES
1 data_in[7] *1384:A 7.3737 
*END

*D_NET *12 0.00146944
*CONN
*P data_out[0] O
*I *1387:X O *D sky130_fd_sc_hd__clkbuf_4
*CAP
1 data_out[0] 0.000633968
2 *1387:X 0.000633968
3 data_out[0] *1387:A 0.000201508
*RES
1 *1387:X data_out[0] 14.73 
*END

*D_NET *13 0.00132797
*CONN
*P data_out[1] O
*I *1388:X O *D sky130_fd_sc_hd__clkbuf_4
*CAP
1 data_out[1] 0.000663984
2 *1388:X 0.000663984
*RES
1 *1388:X data_out[1] 14.925 
*END

*D_NET *14 0.00148337
*CONN
*P data_out[2] O
*I *1389:X O *D sky130_fd_sc_hd__clkbuf_4
*CAP
1 data_out[2] 0.000586454
2 *1389:X 0.000586454
3 data_out[2] *1129:A0 0.000310462
*RES
1 *1389:X data_out[2] 13.05 
*END

*D_NET *15 0.000535999
*CONN
*P data_out[3] O
*I *1390:X O *D sky130_fd_sc_hd__clkbuf_4
*CAP
1 data_out[3] 0.000267999
2 *1390:X 0.000267999
3 data_out[3] *1271:CLK 0
*RES
1 *1390:X data_out[3] 7.15043 
*END

*D_NET *16 0.00111628
*CONN
*P data_out[4] O
*I *1391:X O *D sky130_fd_sc_hd__clkbuf_4
*CAP
1 data_out[4] 0.000558142
2 *1391:X 0.000558142
3 *1378:A data_out[4] 0
*RES
1 *1391:X data_out[4] 10.9068 
*END

*D_NET *17 0.000656106
*CONN
*P data_out[5] O
*I *1392:X O *D sky130_fd_sc_hd__clkbuf_4
*CAP
1 data_out[5] 0.000328053
2 *1392:X 0.000328053
*RES
1 *1392:X data_out[5] 9.39 
*END

*D_NET *18 0.00080591
*CONN
*P data_out[6] O
*I *1393:X O *D sky130_fd_sc_hd__clkbuf_4
*CAP
1 data_out[6] 0.000340239
2 *1393:X 0.000340239
3 data_out[6] *1394:A 0.000125432
*RES
1 *1393:X data_out[6] 8.16177 
*END

*D_NET *19 0.000862401
*CONN
*P data_out[7] O
*I *1394:X O *D sky130_fd_sc_hd__buf_2
*CAP
1 data_out[7] 0.000431201
2 *1394:X 0.000431201
3 data_out[7] *1291:RESET_B 0
*RES
1 *1394:X data_out[7] 7.45503 
*END

*D_NET *20 0.00130141
*CONN
*P data_ready O
*I *1395:X O *D sky130_fd_sc_hd__clkbuf_4
*CAP
1 data_ready 0.000567855
2 *1395:X 0.000567855
3 data_ready *114:25 0.000165698
*RES
1 *1395:X data_ready 12.975 
*END

*D_NET *21 0.00152131
*CONN
*P data_valid I
*I *1385:A I *D sky130_fd_sc_hd__buf_1
*CAP
1 data_valid 0.000705317
2 *1385:A 0.000705317
3 *1385:A *1088:A 4.9253e-06
4 *1385:A *114:6 5.0751e-05
5 *1385:A *114:12 7.67415e-06
6 *1385:A *312:8 4.73204e-05
*RES
1 data_valid *1385:A 14.775 
*END

*D_NET *22 0.000772403
*CONN
*P rst_n I
*I *1376:A I *D sky130_fd_sc_hd__buf_1
*CAP
1 rst_n 0.000386202
2 *1376:A 0.000386202
3 *1376:A *250:20 0
*RES
1 rst_n *1376:A 10.455 
*END

*D_NET *23 0.00061875
*CONN
*P rx_in I
*I *1377:A I *D sky130_fd_sc_hd__clkbuf_1
*CAP
1 rx_in 0.000293743
2 *1377:A 0.000293743
3 *1377:A *1297:D 3.12639e-05
*RES
1 rx_in *1377:A 6.0289 
*END

*D_NET *24 0.00146622
*CONN
*P tx_busy O
*I *1396:X O *D sky130_fd_sc_hd__clkbuf_4
*CAP
1 tx_busy 0.000733108
2 *1396:X 0.000733108
*RES
1 *1396:X tx_busy 15.525 
*END

*D_NET *25 0.000697641
*CONN
*P tx_out O
*I *1397:X O *D sky130_fd_sc_hd__buf_2
*CAP
1 tx_out 0.000319677
2 *1397:X 0.000319677
3 tx_out *1393:A 5.8286e-05
*RES
1 *1397:X tx_out 5.9833 
*END

*D_NET *26 0.00564009
*CONN
*I *1254:D I *D sky130_fd_sc_hd__dfrtp_1
*I *1086:Y O *D sky130_fd_sc_hd__inv_2
*CAP
1 *1254:D 0.0015339
2 *1086:Y 0.0015339
3 *1254:D *1086:A 4.6368e-06
4 *1254:D *1090:A3 0
5 *1254:D *1240:A0 0
6 *1254:D *1240:S 9.82788e-05
7 *1254:D *1250:A1 0
8 *1254:D *1252:A0 0
9 *1254:D *1301:CLK 0
10 *1254:D *1301:D 5.20968e-05
11 *1254:D *1304:RESET_B 0
12 *1254:D *1310:D 0.000268496
13 *1254:D *1328:A 0
14 *1254:D *1363:A 9.57888e-05
15 *1254:D *114:44 7.88484e-05
16 *1254:D *230:20 0.000152503
17 *1254:D *230:90 0.000251431
18 *1254:D *250:28 0
19 *1254:D *259:12 0
20 *1254:D *259:26 0
21 *1254:D *260:72 0.00136416
22 *1254:D *349:23 0.000206051
*RES
1 *1086:Y *1254:D 43.125 
*END

*D_NET *27 0.00257654
*CONN
*I *1284:D I *D sky130_fd_sc_hd__dfrtp_4
*I *1096:Y O *D sky130_fd_sc_hd__nor2_1
*CAP
1 *1284:D 0.00102579
2 *1096:Y 0.00102579
3 *1284:D *1096:A 2.88357e-05
4 *1284:D *1105:A 8.30853e-06
5 *1284:D *1286:RESET_B 7.20293e-05
6 *1284:D *1294:RESET_B 6.05336e-05
7 *1284:D *1365:A 4.81721e-05
8 *1284:D *237:25 3.64998e-06
9 *1284:D *260:14 0.000235472
10 *1284:D *339:23 6.79632e-05
*RES
1 *1096:Y *1284:D 20.925 
*END

*D_NET *28 0.000486652
*CONN
*I *1285:D I *D sky130_fd_sc_hd__dfrtp_2
*I *1101:X O *D sky130_fd_sc_hd__clkbuf_1
*CAP
1 *1285:D 0.00016115
2 *1101:X 0.00016115
3 *1285:D *96:14 7.03219e-05
4 *1285:D *340:8 9.40308e-05
*RES
1 *1101:X *1285:D 9.60375 
*END

*D_NET *29 0.000633067
*CONN
*I *1286:D I *D sky130_fd_sc_hd__dfrtp_1
*I *1105:X O *D sky130_fd_sc_hd__clkbuf_1
*CAP
1 *1286:D 0.000284405
2 *1105:X 0.000284405
3 *1286:D *1105:A 6.42571e-05
*RES
1 *1105:X *1286:D 11.205 
*END

*D_NET *30 0.00121029
*CONN
*I *1287:D I *D sky130_fd_sc_hd__dfrtp_1
*I *1109:Y O *D sky130_fd_sc_hd__a21oi_1
*CAP
1 *1287:D 0.000522514
2 *1109:Y 0.000522514
3 *1287:D *1109:A1 9.22715e-05
4 *1287:D *1109:A2 5.05521e-05
5 *1287:D *1109:B1 0
6 *1287:D *1275:D 0
7 *1287:D *257:44 2.24423e-05
8 *1287:D *342:10 0
*RES
1 *1109:Y *1287:D 15.69 
*END

*D_NET *31 0.000146079
*CONN
*I *1288:D I *D sky130_fd_sc_hd__dfrtp_1
*I *1113:X O *D sky130_fd_sc_hd__clkbuf_1
*CAP
1 *1288:D 5.55108e-05
2 *1113:X 5.55108e-05
3 *1288:D *1113:A 3.50571e-05
*RES
1 *1113:X *1288:D 8.325 
*END

*D_NET *32 0.000527181
*CONN
*I *1289:D I *D sky130_fd_sc_hd__dfrtp_1
*I *1117:X O *D sky130_fd_sc_hd__clkbuf_1
*CAP
1 *1289:D 0.000212507
2 *1117:X 0.000212507
3 *1289:D *1289:RESET_B 8.80902e-05
4 *1289:D *257:58 1.19928e-05
5 *1289:D *343:25 2.0851e-06
*RES
1 *1117:X *1289:D 10.665 
*END

*D_NET *33 0.000696515
*CONN
*I *1290:D I *D sky130_fd_sc_hd__dfrtp_1
*I *1120:X O *D sky130_fd_sc_hd__o21a_1
*CAP
1 *1290:D 0.000277962
2 *1120:X 0.000277962
3 *1290:D *1120:A2 8.47932e-05
4 *1290:D *1120:B1 3.65579e-05
5 *1290:D *1290:CLK 1.92386e-05
*RES
1 *1120:X *1290:D 11.94 
*END

*D_NET *34 0.000299922
*CONN
*I *1291:D I *D sky130_fd_sc_hd__dfrtp_1
*I *1122:X O *D sky130_fd_sc_hd__o21ba_1
*CAP
1 *1291:D 0.000149961
2 *1122:X 0.000149961
3 *1291:D *1291:RESET_B 0
*RES
1 *1122:X *1291:D 9.12 
*END

*D_NET *35 0.000669905
*CONN
*I *1292:D I *D sky130_fd_sc_hd__dfrtp_1
*I *1126:X O *D sky130_fd_sc_hd__clkbuf_1
*CAP
1 *1292:D 0.000151729
2 *1126:X 0.000151729
3 *1292:D *1125:C 5.83121e-06
4 *1292:D *1126:A 0.000132167
5 *1292:D *136:42 0.000112284
6 *1292:D *260:121 0.000116165
*RES
1 *1126:X *1292:D 10.755 
*END

*D_NET *36 0.0003877
*CONN
*I *1299:D I *D sky130_fd_sc_hd__dfstp_1
*I *1060:X O *D sky130_fd_sc_hd__a22o_1
*CAP
1 *1299:D 0.000117182
2 *1060:X 0.000117182
3 *1299:D *1060:A2 5.12969e-06
4 *1299:D *1299:CLK 2.68464e-05
5 *1299:D *258:60 0.00012136
*RES
1 *1060:X *1299:D 5.645 
*END

*D_NET *37 0.000998378
*CONN
*I *1300:D I *D sky130_fd_sc_hd__dfrtp_4
*I *1063:Y O *D sky130_fd_sc_hd__o21ai_1
*CAP
1 *1300:D 0.000353515
2 *1063:Y 0.000353515
3 *1300:D *1063:A1 0.0001249
4 *1300:D *1063:B1 6.75122e-06
5 *1300:D *1211:S 5.73163e-05
6 *1300:D *1300:CLK 0.00010238
7 *1300:D *93:12 0
8 *1300:D *93:14 0
9 *1300:D *232:14 0
*RES
1 *1063:Y *1300:D 12.7987 
*END

*D_NET *38 0.000358977
*CONN
*I *1301:D I *D sky130_fd_sc_hd__dfrtp_4
*I *1076:X O *D sky130_fd_sc_hd__clkbuf_1
*CAP
1 *1301:D 0.000109307
2 *1076:X 0.000109307
3 *1301:D *259:12 8.8266e-05
4 *1254:D *1301:D 5.20968e-05
*RES
1 *1076:X *1301:D 9.12 
*END

*D_NET *39 0.0013694
*CONN
*I *1302:D I *D sky130_fd_sc_hd__dfrtp_4
*I *1084:X O *D sky130_fd_sc_hd__a22o_1
*CAP
1 *1302:D 0.000304724
2 *1084:X 0.000304724
3 *1302:D *1198:A 8.33066e-06
4 *1302:D *1252:A0 1.38283e-05
5 *1302:D *1302:RESET_B 4.11729e-05
6 *1302:D *108:44 0.000228863
7 *1302:D *112:86 0.00032394
8 *1302:D *257:28 0.000143816
*RES
1 *1084:X *1302:D 14.895 
*END

*D_NET *40 0.00133416
*CONN
*I *1311:D I *D sky130_fd_sc_hd__dfstp_1
*I *1069:X O *D sky130_fd_sc_hd__a21bo_1
*CAP
1 *1311:D 0.000396087
2 *1069:X 0.000396087
3 *1311:D *1250:A0 0.000197822
4 *1311:D *1374:A 0.000198987
5 *1311:D *238:86 4.82863e-05
6 *1311:D *238:97 9.68886e-05
*RES
1 *1069:X *1311:D 15.03 
*END

*D_NET *41 0.00106473
*CONN
*I *1346:A I *D sky130_fd_sc_hd__dlygate4sd3_1
*I *1072:X O *D sky130_fd_sc_hd__a22o_1
*CAP
1 *1346:A 0.000420147
2 *1072:X 0.000420147
3 *1346:A *1121:A1 1.22608e-05
4 *1346:A *1121:A2 3.00381e-05
5 *1346:A *1121:B1 0.00018214
6 *1346:A *1122:B1_N 0
*RES
1 *1072:X *1346:A 12.825 
*END

*D_NET *42 0.00134848
*CONN
*I *1313:D I *D sky130_fd_sc_hd__dfrtp_1
*I *1089:Y O *D sky130_fd_sc_hd__o21ai_1
*CAP
1 *1313:D 0.000643675
2 *1089:Y 0.000643675
3 *1313:D *1089:B1 3.00381e-05
4 *1313:D *1313:CLK 1.77665e-05
5 *1313:D *99:79 1.33293e-05
*RES
1 *1089:Y *1313:D 11.03 
*END

*D_NET *43 0.000973176
*CONN
*I *1314:D I *D sky130_fd_sc_hd__dfrtp_1
*I *1079:Y O *D sky130_fd_sc_hd__o21bai_1
*CAP
1 *1314:D 0.00042117
2 *1079:Y 0.00042117
3 *1314:D *1079:A1 2.69153e-05
4 *1314:D *1079:A2 5.96021e-05
5 *1314:D *1079:B1_N 4.40693e-06
6 *1314:D *100:10 9.23804e-06
7 *1314:D *359:19 3.06743e-05
*RES
1 *1079:Y *1314:D 12.57 
*END

*D_NET *44 0.000367779
*CONN
*I *1255:D I *D sky130_fd_sc_hd__dfrtp_1
*I *1128:X O *D sky130_fd_sc_hd__clkbuf_1
*CAP
1 *1255:D 6.60489e-05
2 *1128:X 6.60489e-05
3 *1255:D *1127:S 6.55328e-05
4 *1255:D *1372:A 0.000120186
5 *1255:D *1373:A 4.99619e-05
*RES
1 *1128:X *1255:D 9.03 
*END

*D_NET *45 0.000430615
*CONN
*I *1256:D I *D sky130_fd_sc_hd__dfrtp_1
*I *1130:X O *D sky130_fd_sc_hd__clkbuf_1
*CAP
1 *1256:D 0.000215308
2 *1130:X 0.000215308
3 *1256:D *1130:A 0
4 *1256:D *1256:CLK 0
*RES
1 *1130:X *1256:D 9.915 
*END

*D_NET *46 0.000476526
*CONN
*I *1257:D I *D sky130_fd_sc_hd__dfrtp_1
*I *1132:X O *D sky130_fd_sc_hd__clkbuf_1
*CAP
1 *1257:D 0.000238263
2 *1132:X 0.000238263
*RES
1 *1132:X *1257:D 10.155 
*END

*D_NET *47 0.000404707
*CONN
*I *1258:D I *D sky130_fd_sc_hd__dfrtp_1
*I *1134:X O *D sky130_fd_sc_hd__clkbuf_1
*CAP
1 *1258:D 0.0001538
2 *1134:X 0.0001538
3 *1258:D *1134:A 0
4 *1258:D *261:14 9.71067e-05
*RES
1 *1134:X *1258:D 9.465 
*END

*D_NET *48 0.000328945
*CONN
*I *1259:D I *D sky130_fd_sc_hd__dfrtp_1
*I *1136:X O *D sky130_fd_sc_hd__clkbuf_1
*CAP
1 *1259:D 6.98237e-05
2 *1136:X 6.98237e-05
3 *1259:D *1136:A 3.26889e-05
4 *1259:D *1259:CLK 3.00381e-05
5 *1259:D *1259:RESET_B 0.00012657
*RES
1 *1136:X *1259:D 5.045 
*END

*D_NET *49 0.000246867
*CONN
*I *1260:D I *D sky130_fd_sc_hd__dfrtp_1
*I *1138:X O *D sky130_fd_sc_hd__clkbuf_1
*CAP
1 *1260:D 0.000112879
2 *1138:X 0.000112879
3 *1260:D *1138:A 0
4 *1260:D *93:18 0
5 *1260:D *255:40 2.11084e-05
*RES
1 *1138:X *1260:D 8.775 
*END

*D_NET *50 0.000681578
*CONN
*I *1261:D I *D sky130_fd_sc_hd__dfrtp_1
*I *1140:X O *D sky130_fd_sc_hd__clkbuf_1
*CAP
1 *1261:D 0.000137274
2 *1140:X 0.000137274
3 *1261:D *1140:A 0.000142719
4 *1261:D *1261:CLK 0.000200481
5 *1261:D *236:25 6.38291e-05
*RES
1 *1140:X *1261:D 10.8337 
*END

*D_NET *51 0.000725741
*CONN
*I *1262:D I *D sky130_fd_sc_hd__dfrtp_1
*I *1142:X O *D sky130_fd_sc_hd__clkbuf_1
*CAP
1 *1262:D 9.56823e-05
2 *1142:X 9.56823e-05
3 *1262:D *1141:A1 0.000230656
4 *1262:D *1142:A 9.05535e-05
5 *1262:D *1302:CLK 0.000121036
6 *1262:D *1335:A 3.06667e-05
7 *1262:D *236:27 6.14645e-05
*RES
1 *1142:X *1262:D 10.5 
*END

*D_NET *52 0.000417959
*CONN
*I *1263:D I *D sky130_fd_sc_hd__dfrtp_2
*I *1148:X O *D sky130_fd_sc_hd__clkbuf_1
*CAP
1 *1263:D 0.000193064
2 *1148:X 0.000193064
3 *1263:D *1263:CLK 3.18305e-05
*RES
1 *1148:X *1263:D 9.675 
*END

*D_NET *53 0.000897502
*CONN
*I *1264:D I *D sky130_fd_sc_hd__dfrtp_2
*I *1153:X O *D sky130_fd_sc_hd__a32o_1
*CAP
1 *1264:D 0.000255882
2 *1153:X 0.000255882
3 *1264:D *1152:A 0.000159722
4 *1264:D *1153:A2 0.00012398
5 *1264:D *234:10 9.12759e-05
6 *1264:D *314:55 1.07593e-05
*RES
1 *1153:X *1264:D 11.19 
*END

*D_NET *54 0.000877285
*CONN
*I *1265:D I *D sky130_fd_sc_hd__dfrtp_1
*I *1157:X O *D sky130_fd_sc_hd__o211a_1
*CAP
1 *1265:D 0.000354287
2 *1157:X 0.000354287
3 *1265:D *1364:A 4.88478e-05
4 *1265:D *104:81 9.11664e-05
5 *1265:D *315:10 2.86975e-05
*RES
1 *1157:X *1265:D 9.17 
*END

*D_NET *55 0.00127674
*CONN
*I *1266:D I *D sky130_fd_sc_hd__dfrtp_1
*I *1162:Y O *D sky130_fd_sc_hd__a31oi_1
*CAP
1 *1266:D 0.000500294
2 *1162:Y 0.000500294
3 *1266:D *1162:A1 8.49205e-05
4 *1266:D *316:8 0.000191232
*RES
1 *1162:Y *1266:D 11.015 
*END

*D_NET *56 0.001935
*CONN
*I *1267:D I *D sky130_fd_sc_hd__dfrtp_2
*I *1166:X O *D sky130_fd_sc_hd__a32o_1
*CAP
1 *1267:D 0.000895955
2 *1166:X 0.000895955
3 *1267:D *1267:RESET_B 4.54998e-05
4 *1267:D *1269:RESET_B 4.76277e-05
5 *1267:D *1318:A 4.99619e-05
*RES
1 *1166:X *1267:D 17.61 
*END

*D_NET *57 0.00132968
*CONN
*I *1268:D I *D sky130_fd_sc_hd__dfrtp_1
*I *1174:X O *D sky130_fd_sc_hd__o211a_1
*CAP
1 *1268:D 0.000598475
2 *1174:X 0.000598475
3 *1268:D *1133:S 3.77371e-07
4 *1268:D *1268:CLK 3.07877e-05
5 *1268:D *1358:A 0
6 *1268:D *112:16 1.34993e-05
7 *1268:D *231:12 7.14241e-05
8 *1268:D *319:38 1.66378e-05
*RES
1 *1174:X *1268:D 15.48 
*END

*D_NET *58 0.00208769
*CONN
*I *1269:D I *D sky130_fd_sc_hd__dfrtp_4
*I *1178:X O *D sky130_fd_sc_hd__a2bb2o_1
*CAP
1 *1269:D 0.000847986
2 *1178:X 0.000847986
3 *1269:D *1175:A 0.000224786
4 *1269:D *1269:RESET_B 4.4133e-05
5 *1269:D *319:6 0.000122797
*RES
1 *1178:X *1269:D 13.325 
*END

*D_NET *59 0.00111119
*CONN
*I *1270:D I *D sky130_fd_sc_hd__dfrtp_2
*I *1181:X O *D sky130_fd_sc_hd__a32o_1
*CAP
1 *1270:D 0.000341933
2 *1181:X 0.000341933
3 *1270:D *1244:A0 0.00039046
4 *1270:D *261:14 3.68682e-05
5 *1380:A *1270:D 0
*RES
1 *1181:X *1270:D 12.225 
*END

*D_NET *60 0.00154992
*CONN
*I *1271:D I *D sky130_fd_sc_hd__dfrtp_1
*I *1185:X O *D sky130_fd_sc_hd__a31o_1
*CAP
1 *1271:D 0.000507081
2 *1185:X 0.000507081
3 *1271:D *1183:A3 4.30166e-05
4 *1271:D *1183:B1 4.89295e-05
5 *1271:D *1185:A3 4.77757e-05
6 *1271:D *319:32 0.000270638
7 *1271:D *321:8 4.57056e-05
8 *1271:D *321:37 7.96961e-05
*RES
1 *1185:X *1271:D 12.74 
*END

*D_NET *61 0.00141276
*CONN
*I *1272:D I *D sky130_fd_sc_hd__dfrtp_2
*I *1190:Y O *D sky130_fd_sc_hd__a21oi_1
*CAP
1 *1272:D 0.000596834
2 *1190:Y 0.000596834
3 *1272:D *1190:B1 9.98747e-05
4 *1272:D *1331:A 7.4027e-05
5 *1272:D *235:27 2.90102e-05
6 *1272:D *322:8 1.61831e-05
*RES
1 *1190:Y *1272:D 14.43 
*END

*D_NET *62 0.00153778
*CONN
*I *1273:D I *D sky130_fd_sc_hd__dfrtp_1
*I *1194:X O *D sky130_fd_sc_hd__clkbuf_1
*CAP
1 *1273:D 0.00024229
2 *1194:X 0.00024229
3 *1273:D *1220:S 0.000546413
4 *1273:D *311:12 0.00023628
5 *1273:D *323:10 0.000270505
*RES
1 *1194:X *1273:D 11.705 
*END

*D_NET *63 0.000966441
*CONN
*I *1274:D I *D sky130_fd_sc_hd__dfrtp_2
*I *1197:Y O *D sky130_fd_sc_hd__a21oi_1
*CAP
1 *1274:D 0.000350669
2 *1197:Y 0.000350669
3 *1274:D *1278:RESET_B 4.90227e-05
4 *1274:D *1279:RESET_B 0
5 *1274:D *232:14 3.89528e-05
6 *1274:D *255:85 4.52004e-05
7 *1274:D *255:89 0.000131927
8 *1274:D *334:8 0
*RES
1 *1197:Y *1274:D 14.49 
*END

*D_NET *64 0.000255088
*CONN
*I *1276:D I *D sky130_fd_sc_hd__dfrtp_1
*I *1201:X O *D sky130_fd_sc_hd__clkbuf_1
*CAP
1 *1276:D 9.55673e-05
2 *1201:X 9.55673e-05
3 *1276:D *1200:S 3.39151e-05
4 *1276:D *1201:A 3.00381e-05
5 *1276:D *1356:A 0
*RES
1 *1201:X *1276:D 8.775 
*END

*D_NET *65 0.000422398
*CONN
*I *1277:D I *D sky130_fd_sc_hd__dfrtp_1
*I *1205:X O *D sky130_fd_sc_hd__clkbuf_1
*CAP
1 *1277:D 0.000149537
2 *1205:X 0.000149537
3 *1277:D *1204:A1 7.23602e-05
4 *1277:D *1256:RESET_B 5.09627e-05
*RES
1 *1205:X *1277:D 9.57 
*END

*D_NET *66 0.000475894
*CONN
*I *1278:D I *D sky130_fd_sc_hd__dfrtp_1
*I *1209:X O *D sky130_fd_sc_hd__clkbuf_1
*CAP
1 *1278:D 0.000129713
2 *1209:X 0.000129713
3 *1278:D *1208:A1 0.00012398
4 *1278:D *289:12 9.24881e-05
*RES
1 *1209:X *1278:D 9.465 
*END

*D_NET *67 0.000419752
*CONN
*I *1279:D I *D sky130_fd_sc_hd__dfrtp_1
*I *1212:X O *D sky130_fd_sc_hd__clkbuf_1
*CAP
1 *1279:D 0.000179175
2 *1212:X 0.000179175
3 *1279:D *1258:RESET_B 0
4 *1279:D *112:31 6.14024e-05
*RES
1 *1212:X *1279:D 9.72 
*END

*D_NET *68 0.000293721
*CONN
*I *1280:D I *D sky130_fd_sc_hd__dfrtp_1
*I *1215:X O *D sky130_fd_sc_hd__clkbuf_1
*CAP
1 *1280:D 0.000124549
2 *1215:X 0.000124549
3 *1280:D *1215:A 1.08758e-05
4 *1280:D *1280:CLK 3.37462e-05
*RES
1 *1215:X *1280:D 5.045 
*END

*D_NET *69 0.000246253
*CONN
*I *1281:D I *D sky130_fd_sc_hd__dfrtp_1
*I *1218:X O *D sky130_fd_sc_hd__clkbuf_1
*CAP
1 *1281:D 0.000123126
2 *1218:X 0.000123126
3 *1281:D *1218:A 0
4 *1281:D *1392:A 0
*RES
1 *1218:X *1281:D 9.135 
*END

*D_NET *70 0.000301225
*CONN
*I *1282:D I *D sky130_fd_sc_hd__dfrtp_1
*I *1221:X O *D sky130_fd_sc_hd__clkbuf_1
*CAP
1 *1282:D 0.000112702
2 *1221:X 0.000112702
3 *1282:D *256:68 7.58214e-05
*RES
1 *1221:X *1282:D 5.045 
*END

*D_NET *71 0.000266225
*CONN
*I *1283:D I *D sky130_fd_sc_hd__dfrtp_1
*I *1224:X O *D sky130_fd_sc_hd__clkbuf_1
*CAP
1 *1283:D 9.75472e-05
2 *1224:X 9.75472e-05
3 *1283:D *1283:CLK 7.11301e-05
*RES
1 *1224:X *1283:D 5.045 
*END

*D_NET *72 0.000589669
*CONN
*I *1293:D I *D sky130_fd_sc_hd__dfrtp_1
*I *1227:X O *D sky130_fd_sc_hd__o22a_1
*CAP
1 *1293:D 0.000235452
2 *1227:X 0.000235452
3 *1293:D *1293:CLK 0.000118765
*RES
1 *1227:X *1293:D 7.22 
*END

*D_NET *73 0.000306181
*CONN
*I *1294:D I *D sky130_fd_sc_hd__dfrtp_4
*I *1232:X O *D sky130_fd_sc_hd__o21a_1
*CAP
1 *1294:D 0.000108151
2 *1232:X 0.000108151
3 *1294:D *237:57 3.89366e-05
4 *1294:D *260:52 5.09431e-05
*RES
1 *1232:X *1294:D 9.225 
*END

*D_NET *74 0.000332044
*CONN
*I *1295:D I *D sky130_fd_sc_hd__dfrtp_2
*I *1235:Y O *D sky130_fd_sc_hd__a21oi_1
*CAP
1 *1295:D 0.00013255
2 *1235:Y 0.00013255
3 *1295:D *1235:A2 1.37328e-05
4 *1295:D *1235:B1 4.9253e-06
5 *1295:D *1295:CLK 4.82863e-05
*RES
1 *1235:Y *1295:D 5.39 
*END

*D_NET *75 0.00049661
*CONN
*I *1296:D I *D sky130_fd_sc_hd__dfrtp_1
*I *1237:Y O *D sky130_fd_sc_hd__nor3b_1
*CAP
1 *1296:D 0.000121763
2 *1237:Y 0.000121763
3 *1296:D *1091:B 0.000124007
4 *1296:D *1296:CLK 9.30787e-05
5 *1296:D *263:40 3.59997e-05
*RES
1 *1237:Y *1296:D 9.465 
*END

*D_NET *76 0.000345528
*CONN
*I *1303:D I *D sky130_fd_sc_hd__dfrtp_1
*I *1239:X O *D sky130_fd_sc_hd__clkbuf_1
*CAP
1 *1303:D 0.000115478
2 *1239:X 0.000115478
3 *1303:D *1303:CLK 2.75229e-05
4 *1303:D *1307:CLK 5.86575e-05
5 *1303:D *233:97 2.83921e-05
*RES
1 *1239:X *1303:D 9.54 
*END

*D_NET *77 0.00111118
*CONN
*I *1304:D I *D sky130_fd_sc_hd__dfrtp_1
*I *1241:X O *D sky130_fd_sc_hd__clkbuf_1
*CAP
1 *1304:D 0.000269345
2 *1241:X 0.000269345
3 *1304:D *1090:A1 5.23992e-05
4 *1304:D *1241:A 0.00012438
5 *1304:D *1304:RESET_B 4.65607e-05
6 *1304:D *1352:A 0.000349153
7 *1304:D *1353:A 0
*RES
1 *1241:X *1304:D 9.875 
*END

*D_NET *78 0.000242261
*CONN
*I *1305:D I *D sky130_fd_sc_hd__dfrtp_1
*I *1243:X O *D sky130_fd_sc_hd__clkbuf_1
*CAP
1 *1305:D 0.000102701
2 *1243:X 0.000102701
3 *1305:D *1243:A 3.68596e-05
*RES
1 *1243:X *1305:D 8.775 
*END

*D_NET *79 0.000382138
*CONN
*I *1306:D I *D sky130_fd_sc_hd__dfrtp_1
*I *1245:X O *D sky130_fd_sc_hd__clkbuf_1
*CAP
1 *1306:D 0.000105886
2 *1245:X 0.000105886
3 *1306:D *1245:A 0.000138544
4 *1306:D *1306:RESET_B 0
5 *1306:D *234:36 3.18219e-05
*RES
1 *1245:X *1306:D 9.285 
*END

*D_NET *80 0.000169022
*CONN
*I *1307:D I *D sky130_fd_sc_hd__dfrtp_1
*I *1247:X O *D sky130_fd_sc_hd__clkbuf_1
*CAP
1 *1307:D 8.45111e-05
2 *1247:X 8.45111e-05
3 *1307:D *1238:A0 0
4 *1307:D *1246:S 0
*RES
1 *1247:X *1307:D 8.58 
*END

*D_NET *81 0.000235688
*CONN
*I *1308:D I *D sky130_fd_sc_hd__dfrtp_1
*I *1249:X O *D sky130_fd_sc_hd__clkbuf_1
*CAP
1 *1308:D 3.77785e-05
2 *1249:X 3.77785e-05
3 *1308:D *1092:A0 0.000115945
4 *1308:D *1361:A 4.41857e-05
*RES
1 *1249:X *1308:D 8.58 
*END

*D_NET *82 0.000420069
*CONN
*I *1309:D I *D sky130_fd_sc_hd__dfrtp_1
*I *1251:X O *D sky130_fd_sc_hd__clkbuf_1
*CAP
1 *1309:D 0.000175717
2 *1251:X 0.000175717
3 *1309:D *1254:CLK 1.77595e-05
4 *1309:D *1307:RESET_B 5.0876e-05
*RES
1 *1251:X *1309:D 9.825 
*END

*D_NET *83 0.000649152
*CONN
*I *1310:D I *D sky130_fd_sc_hd__dfrtp_1
*I *1253:X O *D sky130_fd_sc_hd__clkbuf_1
*CAP
1 *1310:D 0.000116318
2 *1253:X 0.000116318
3 *1310:D *1240:S 0.000148021
4 *1254:D *1310:D 0.000268496
*RES
1 *1253:X *1310:D 10.815 
*END

*D_NET *84 0.00542703
*CONN
*I *1159:A1 I *D sky130_fd_sc_hd__o31a_1
*I *1057:B I *D sky130_fd_sc_hd__or4_2
*I *1080:A I *D sky130_fd_sc_hd__or3_2
*I *1186:A1 I *D sky130_fd_sc_hd__o31a_2
*I *1053:A I *D sky130_fd_sc_hd__nor3_1
*I *1073:A1 I *D sky130_fd_sc_hd__o31a_1
*I *1050:X O *D sky130_fd_sc_hd__or3b_2
*CAP
1 *1159:A1 2.43002e-05
2 *1057:B 0
3 *1080:A 0
4 *1186:A1 0.000238633
5 *1053:A 0.000161993
6 *1073:A1 6.39727e-05
7 *1050:X 0.000407679
8 *84:37 0.000417647
9 *84:33 0.000259285
10 *84:18 0.000338893
11 *84:16 7.71544e-05
12 *84:14 0.000476477
13 *1053:A *1080:B 1.28996e-05
14 *1053:A *1168:B1 0.000157394
15 *1053:A *1184:A2 9.05592e-05
16 *1053:A *1186:A3 3.72103e-05
17 *1073:A1 *1057:C 8.23457e-05
18 *1073:A1 *1057:D 8.40269e-05
19 *1073:A1 *103:50 1.88904e-05
20 *1159:A1 *103:50 2.75145e-05
21 *1186:A1 *1167:A_N 0.000159169
22 *1186:A1 *1168:B1 0.000128216
23 *1186:A1 *91:43 0.000149224
24 *1186:A1 *333:37 7.63883e-05
25 *1186:A1 *333:54 0.000229554
26 *84:14 *1050:C_N 2.69217e-05
27 *84:14 *1146:A1 0.000114511
28 *84:14 *1146:B1 0
29 *84:14 *1153:A3 4.59927e-05
30 *84:14 *1163:B 6.90254e-05
31 *84:14 *1163:C 7.3913e-05
32 *84:14 *1163:D 0
33 *84:14 *1301:CLK 4.29258e-05
34 *84:14 *316:18 6.32495e-05
35 *84:16 *1146:A1 0.000139245
36 *84:16 *1153:A3 2.66939e-05
37 *84:16 *103:50 3.50033e-05
38 *84:18 *1146:A1 9.50342e-06
39 *84:18 *103:50 3.4222e-05
40 *84:18 *152:8 0
41 *84:18 *335:106 3.40521e-05
42 *84:33 *1153:A3 3.69251e-05
43 *84:33 *1168:A2 0.000124778
44 *84:33 *1184:B1 0.000196747
45 *84:33 *86:27 0.000121892
46 *84:33 *103:50 1.61696e-05
47 *84:33 *155:39 0.000115249
48 *84:33 *335:57 2.3228e-05
49 *84:33 *335:89 9.60006e-05
50 *84:33 *335:106 0.000152044
51 *84:37 *1184:B1 5.0096e-05
52 *84:37 *1186:A3 5.0096e-05
53 *84:37 *86:27 9.12494e-06
*RES
1 *1050:X *84:14 11.1 
2 *84:14 *84:16 1.635 
3 *84:16 *84:18 0.9975 
4 *84:18 *1073:A1 5.0775 
5 *84:18 *84:33 8.1375 
6 *84:33 *84:37 2.615 
7 *84:37 *1053:A 8.465 
8 *84:37 *1186:A1 11.105 
9 *84:33 *1080:A 3.6 
10 *84:16 *1057:B 3.6 
11 *84:14 *1159:A1 4.05 
*END

*D_NET *85 0.00270426
*CONN
*I *1186:A2 I *D sky130_fd_sc_hd__o31a_2
*I *1053:B I *D sky130_fd_sc_hd__nor3_1
*I *1080:B I *D sky130_fd_sc_hd__or3_2
*I *1051:Y O *D sky130_fd_sc_hd__nand2_1
*CAP
1 *1186:A2 0.000188367
2 *1053:B 0
3 *1080:B 0.000314021
4 *1051:Y 7.68266e-05
5 *85:6 0.000579215
6 *1080:B *1053:C 9.38917e-05
7 *1080:B *1151:A1 7.64752e-05
8 *1080:B *1184:A2 0.000197249
9 *1080:B *1186:A3 0
10 *1080:B *108:8 5.75537e-05
11 *1080:B *108:44 8.23457e-05
12 *1080:B *318:8 0
13 *1186:A2 *1167:B 0.000140965
14 *1186:A2 *1167:C 0.000232434
15 *1186:A2 *1186:B1 4.82863e-05
16 *1186:A2 *1386:A 8.23457e-05
17 *1186:A2 *87:6 0.000196073
18 *1186:A2 *91:43 0.00012295
19 *1186:A2 *104:30 1.74678e-05
20 *1186:A2 *258:60 4.66108e-05
21 *85:6 *1167:C 0.000122817
22 *85:6 *318:14 1.54665e-05
23 *1053:A *1080:B 1.28996e-05
*RES
1 *1051:Y *85:6 3.085 
2 *85:6 *1080:B 10.94 
3 *85:6 *1053:B 1.6 
4 *85:6 *1186:A2 11.36 
*END

*D_NET *86 0.0030565
*CONN
*I *1080:C I *D sky130_fd_sc_hd__or3_2
*I *1186:A3 I *D sky130_fd_sc_hd__o31a_2
*I *1053:C I *D sky130_fd_sc_hd__nor3_1
*I *1052:X O *D sky130_fd_sc_hd__or4bb_1
*CAP
1 *1080:C 5.29917e-05
2 *1186:A3 0.000274282
3 *1053:C 0.000191979
4 *1052:X 3.37871e-05
5 *86:27 0.000579623
6 *86:6 0.000478116
7 *1053:C *1151:A1 9.24825e-05
8 *1053:C *1167:C 3.40258e-05
9 *1053:C *1174:A1 4.77807e-05
10 *1053:C *318:14 1.77945e-05
11 *1080:C *1168:B1 9.65327e-05
12 *1080:C *108:8 9.12671e-06
13 *1080:C *108:44 0.000119251
14 *1186:A3 *1167:B 4.52955e-05
15 *1186:A3 *1168:A2 9.12494e-06
16 *1186:A3 *1184:B1 0.000141419
17 *1186:A3 *258:60 0.000160635
18 *86:6 *1185:B1 4.77769e-05
19 *86:27 *1168:A2 0.000121892
20 *86:27 *1184:A1 0.000136732
21 *86:27 *1184:B1 7.02508e-06
22 *86:27 *1185:B1 4.66108e-05
23 *1053:A *1186:A3 3.72103e-05
24 *1080:B *1053:C 9.38917e-05
25 *1080:B *1186:A3 0
26 *84:33 *86:27 0.000121892
27 *84:37 *1186:A3 5.0096e-05
28 *84:37 *86:27 9.12494e-06
*RES
1 *1052:X *86:6 2.05 
2 *86:6 *1053:C 9.575 
3 *86:6 *86:27 6.155 
4 *86:27 *1186:A3 8.76 
5 *86:27 *1080:C 5.46 
*END

*D_NET *87 0.00230425
*CONN
*I *1386:A I *D sky130_fd_sc_hd__clkbuf_2
*I *1184:B1 I *D sky130_fd_sc_hd__a32o_1
*I *1053:Y O *D sky130_fd_sc_hd__nor3_1
*CAP
1 *1386:A 0.000248936
2 *1184:B1 0.000293902
3 *1053:Y 0.000132372
4 *87:6 0.000675209
5 *1184:B1 *1167:B 4.7284e-05
6 *1184:B1 *1168:B1 2.87125e-05
7 *1184:B1 *1184:A1 0
8 *1184:B1 *1184:A2 0
9 *1184:B1 *1184:B2 2.49909e-05
10 *1184:B1 *91:43 0.000144985
11 *1184:B1 *335:57 2.15337e-05
12 *1386:A *1060:B2 0
13 *1386:A *104:30 1.26248e-05
14 *1186:A2 *1386:A 8.23457e-05
15 *1186:A2 *87:6 0.000196073
16 *1186:A3 *1184:B1 0.000141419
17 *84:33 *1184:B1 0.000196747
18 *84:37 *1184:B1 5.0096e-05
19 *86:27 *1184:B1 7.02508e-06
*RES
1 *1053:Y *87:6 3.43 
2 *87:6 *1184:B1 12.4325 
3 *87:6 *1386:A 4.645 
*END

*D_NET *88 0.000303633
*CONN
*I *1057:A I *D sky130_fd_sc_hd__or4_2
*I *1054:Y O *D sky130_fd_sc_hd__inv_2
*CAP
1 *1057:A 9.54536e-05
2 *1054:Y 9.54536e-05
3 *1057:A *1054:A 0.000112726
*RES
1 *1054:Y *1057:A 5.03 
*END

*D_NET *89 0.00135701
*CONN
*I *1159:A2 I *D sky130_fd_sc_hd__o31a_1
*I *1057:C I *D sky130_fd_sc_hd__or4_2
*I *1073:A2 I *D sky130_fd_sc_hd__o31a_1
*I *1055:Y O *D sky130_fd_sc_hd__nand2_1
*CAP
1 *1159:A2 3.81844e-05
2 *1057:C 5.74561e-05
3 *1073:A2 0
4 *1055:Y 7.40082e-05
5 *89:14 0.000117075
6 *89:6 0.000171811
7 *1057:C *1057:D 4.21889e-05
8 *1057:C *1073:B1 0.000193806
9 *1159:A2 *1159:A3 1.91597e-05
10 *1159:A2 *1159:B1 1.16578e-05
11 *1159:A2 *103:50 1.16578e-05
12 *1159:A2 *316:18 1.34503e-05
13 *89:6 *1159:A3 2.49909e-05
14 *89:6 *1159:B1 4.99619e-05
15 *89:6 *1177:A2 9.2741e-05
16 *89:6 *316:18 6.20088e-05
17 *89:14 *1055:B 0
18 *89:14 *1153:A3 0.000136884
19 *89:14 *1159:A3 0.000157619
20 *1073:A1 *1057:C 8.23457e-05
*RES
1 *1055:Y *89:6 3.775 
2 *89:6 *89:14 5.995 
3 *89:14 *1073:A2 1.6 
4 *89:14 *1057:C 3.43 
5 *89:6 *1159:A2 2.395 
*END

*D_NET *90 0.00217357
*CONN
*I *1159:A3 I *D sky130_fd_sc_hd__o31a_1
*I *1073:A3 I *D sky130_fd_sc_hd__o31a_1
*I *1057:D I *D sky130_fd_sc_hd__or4_2
*I *1056:X O *D sky130_fd_sc_hd__or4bb_1
*CAP
1 *1159:A3 0.000148754
2 *1073:A3 0
3 *1057:D 8.62074e-05
4 *1056:X 0.000296948
5 *90:12 8.62074e-05
6 *90:10 0.000445702
7 *1057:D *1073:B1 2.29937e-05
8 *1057:D *1177:A1 4.66108e-05
9 *1057:D *103:6 4.82919e-05
10 *1057:D *103:8 8.23457e-05
11 *1159:A3 *1052:A 0
12 *1159:A3 *1055:B 0
13 *1159:A3 *1153:A3 1.34361e-05
14 *1159:A3 *1177:A2 0.000129735
15 *1159:A3 *103:50 3.26889e-05
16 *90:10 *1052:A 0
17 *90:10 *1151:A1 7.23602e-05
18 *90:10 *1151:B1 0.000114492
19 *90:10 *1153:A3 5.74367e-05
20 *90:10 *1177:A2 0.000139245
21 *90:10 *338:27 2.21307e-05
22 *1057:C *1057:D 4.21889e-05
23 *1073:A1 *1057:D 8.40269e-05
24 *1159:A2 *1159:A3 1.91597e-05
25 *89:6 *1159:A3 2.49909e-05
26 *89:14 *1159:A3 0.000157619
*RES
1 *1056:X *90:10 8.85 
2 *90:10 *90:12 2 
3 *90:12 *1057:D 3.79 
4 *90:12 *1073:A3 1.6 
5 *90:10 *1159:A3 7.005 
*END

*D_NET *91 0.00644646
*CONN
*I *1058:B_N I *D sky130_fd_sc_hd__or2b_1
*I *1063:A2 I *D sky130_fd_sc_hd__o21ai_1
*I *1146:A1 I *D sky130_fd_sc_hd__a21oi_1
*I *1057:X O *D sky130_fd_sc_hd__or4_2
*CAP
1 *1058:B_N 0.000223725
2 *1063:A2 0.000616788
3 *1146:A1 0.000396405
4 *1057:X 0
5 *91:43 0.00171432
6 *91:4 0.00127021
7 *1058:B_N *1186:B1 4.00541e-06
8 *1058:B_N *112:16 6.0147e-06
9 *1058:B_N *184:6 2.68526e-05
10 *1058:B_N *258:60 4.89295e-05
11 *1058:B_N *333:22 3.30017e-05
12 *1058:B_N *333:37 4.88147e-05
13 *1063:A2 *1167:B 0
14 *1063:A2 *1211:A1 0
15 *1063:A2 *1316:A 0
16 *1063:A2 *112:16 4.71185e-05
17 *1063:A2 *232:14 0
18 *1063:A2 *318:8 0
19 *1146:A1 *1054:A 0.000123225
20 *1146:A1 *1073:B1 4.82863e-05
21 *1146:A1 *1146:B1 0.000122325
22 *1146:A1 *151:41 2.54522e-05
23 *1146:A1 *152:8 0
24 *91:43 *1054:A 3.57349e-05
25 *91:43 *1167:A_N 0.000154409
26 *91:43 *1167:B 5.32055e-05
27 *91:43 *1168:B1 0.000111293
28 *91:43 *1186:B1 7.23602e-05
29 *91:43 *152:8 0.000360611
30 *91:43 *333:37 1.7902e-05
31 *91:43 *333:54 0.000190207
32 *91:43 *335:55 1.48417e-05
33 *91:43 *335:89 0
34 *1184:B1 *91:43 0.000144985
35 *1186:A1 *91:43 0.000149224
36 *1186:A2 *91:43 0.00012295
37 *84:14 *1146:A1 0.000114511
38 *84:16 *1146:A1 0.000139245
39 *84:18 *1146:A1 9.50342e-06
*RES
1 *1057:X *91:4 1.6 
2 *91:4 *1146:A1 11.825 
3 *91:4 *91:43 25.535 
4 *91:43 *1063:A2 13.85 
5 *91:43 *1058:B_N 9.02 
*END

*D_NET *92 0.000682226
*CONN
*I *1060:B1 I *D sky130_fd_sc_hd__a22o_1
*I *1058:X O *D sky130_fd_sc_hd__or2b_1
*CAP
1 *1060:B1 0.000157075
2 *1058:X 0.000157075
3 *1060:B1 *1060:A1 1.64067e-05
4 *1060:B1 *1060:A2 2.68526e-05
5 *1060:B1 *1085:C 1.51325e-05
6 *1060:B1 *1299:CLK 0.000102805
7 *1060:B1 *104:30 8.35106e-05
8 *1060:B1 *254:6 1.42598e-05
9 *1060:B1 *258:60 0.000109109
*RES
1 *1058:X *1060:B1 10.68 
*END

*D_NET *93 0.0158927
*CONN
*I *1060:B2 I *D sky130_fd_sc_hd__a22o_1
*I *1063:A1 I *D sky130_fd_sc_hd__o21ai_1
*I *1211:A0 I *D sky130_fd_sc_hd__mux2_1
*I *1208:A0 I *D sky130_fd_sc_hd__mux2_1
*I *1214:A0 I *D sky130_fd_sc_hd__mux2_1
*I *1223:A0 I *D sky130_fd_sc_hd__mux2_1
*I *1220:A0 I *D sky130_fd_sc_hd__mux2_1
*I *1200:A0 I *D sky130_fd_sc_hd__mux2_1
*I *1217:A0 I *D sky130_fd_sc_hd__mux2_1
*I *1204:A0 I *D sky130_fd_sc_hd__mux2_1
*I *1059:X O *D sky130_fd_sc_hd__buf_2
*CAP
1 *1060:B2 0.00122068
2 *1063:A1 0.000113471
3 *1211:A0 0
4 *1208:A0 0
5 *1214:A0 1.76095e-05
6 *1223:A0 0.000484531
7 *1220:A0 2.76603e-05
8 *1200:A0 2.77685e-05
9 *1217:A0 0
10 *1204:A0 0.000172517
11 *1059:X 0.000142824
12 *93:107 0.00013959
13 *93:65 0.000956081
14 *93:57 0.00105162
15 *93:40 0.00109124
16 *93:33 0.00149208
17 *93:18 0.00140192
18 *93:14 0.000701668
19 *93:12 0.00100101
20 *93:8 0.0018474
21 *1060:B2 *1060:A2 2.87849e-06
22 *1060:B2 *1085:C 1.7635e-05
23 *1060:B2 *104:30 1.77595e-05
24 *1060:B2 *254:6 4.89295e-05
25 *1060:B2 *318:8 3.98126e-05
26 *1063:A1 *1211:S 0.000238919
27 *1063:A1 *1279:RESET_B 4.58257e-05
28 *1200:A0 *1200:S 7.23533e-05
29 *1200:A0 *240:10 3.86529e-05
30 *1204:A0 *1204:A1 2.11084e-05
31 *1204:A0 *1204:S 5.07419e-05
32 *1214:A0 *1214:S 4.77757e-05
33 *1220:A0 *1220:S 0.000121023
34 *1220:A0 *235:6 4.66108e-05
35 *1220:A0 *235:66 8.52883e-05
36 *1223:A0 *1220:S 2.06767e-05
37 *1223:A0 *1221:A 0.000134249
38 *1223:A0 *1223:A1 2.68464e-05
39 *1223:A0 *1223:S 1.52352e-05
40 *1223:A0 *1273:RESET_B 0
41 *1223:A0 *1321:A 9.22251e-05
42 *1223:A0 *235:10 0.000176527
43 *1223:A0 *235:21 0.00010012
44 *1223:A0 *235:27 0
45 *93:8 *1051:A 6.43093e-05
46 *93:8 *1174:A1 4.40693e-06
47 *93:12 *1211:A1 8.97486e-05
48 *93:12 *1268:RESET_B 0
49 *93:12 *1357:A 0
50 *93:12 *258:77 0
51 *93:12 *318:8 0.000249098
52 *93:14 *1212:A 0
53 *93:14 *232:25 0
54 *93:18 *1138:A 0
55 *93:18 *232:27 0
56 *93:33 *1204:S 4.47648e-05
57 *93:33 *1260:CLK 0.000123286
58 *93:33 *1260:RESET_B 0.000134535
59 *93:33 *1276:CLK 0.000503194
60 *93:33 *1338:A 7.50574e-05
61 *93:40 *1276:CLK 0.000199541
62 *93:57 *1214:S 4.77719e-05
63 *93:57 *1327:A 0.000171845
64 *93:57 *1372:A 0.000128248
65 *93:65 *1214:S 0.000279833
66 *93:65 *1220:S 0.000218676
67 *93:65 *235:10 2.84864e-05
68 *93:107 *1279:RESET_B 5.41144e-05
69 *1260:D *93:18 0
70 *1300:D *1063:A1 0.0001249
71 *1300:D *93:12 0
72 *1300:D *93:14 0
73 *1386:A *1060:B2 0
*RES
1 *1059:X *93:8 5.43 
2 *93:8 *93:12 8.46 
3 *93:12 *93:14 7.755 
4 *93:14 *93:18 4.91 
5 *93:18 *1204:A0 3.775 
6 *93:18 *93:33 15.075 
7 *93:33 *1217:A0 1.6 
8 *93:33 *93:40 5.625 
9 *93:40 *1200:A0 6.47 
10 *93:40 *93:57 8.415 
11 *93:57 *93:65 10.82 
12 *93:65 *1220:A0 4.74 
13 *93:65 *1223:A0 12.705 
14 *93:57 *1214:A0 2.05 
15 *93:14 *1208:A0 3.6 
16 *93:12 *93:107 2.615 
17 *93:107 *1211:A0 1.6 
18 *93:107 *1063:A1 4.81 
19 *93:8 *1060:B2 8.1912 
*END

*D_NET *94 0.002008
*CONN
*I *1062:B1 I *D sky130_fd_sc_hd__a41o_1
*I *1167:B I *D sky130_fd_sc_hd__and4b_1
*I *1061:Y O *D sky130_fd_sc_hd__inv_2
*CAP
1 *1062:B1 7.24999e-05
2 *1167:B 0.000457126
3 *1061:Y 7.81204e-05
4 *94:6 0.000607746
5 *1062:B1 *334:8 6.5525e-05
6 *1167:B *1186:B1 0
7 *1167:B *1197:B1 0.000131625
8 *1167:B *1299:CLK 4.47125e-05
9 *1167:B *1316:A 0.000160536
10 *1167:B *232:14 1.22676e-05
11 *1167:B *334:10 0
12 *94:6 *1197:B1 9.10874e-05
13 *1063:A2 *1167:B 0
14 *1184:B1 *1167:B 4.7284e-05
15 *1186:A2 *1167:B 0.000140965
16 *1186:A3 *1167:B 4.52955e-05
17 *91:43 *1167:B 5.32055e-05
*RES
1 *1061:Y *94:6 2.74 
2 *94:6 *1167:B 14.825 
3 *94:6 *1062:B1 6.98 
*END

*D_NET *95 0.00069908
*CONN
*I *1197:A1 I *D sky130_fd_sc_hd__a21oi_1
*I *1063:B1 I *D sky130_fd_sc_hd__o21ai_1
*I *1062:X O *D sky130_fd_sc_hd__a41o_1
*CAP
1 *1197:A1 1.55346e-05
2 *1063:B1 8.93884e-05
3 *1062:X 3.15615e-05
4 *95:6 0.000136484
5 *1063:B1 *1197:B1 3.72916e-05
6 *1063:B1 *1211:S 0.000292676
7 *1197:A1 *1197:A2 9.53428e-06
8 *95:6 *1197:B1 4.9253e-06
9 *95:6 *1211:S 7.49327e-05
10 *1300:D *1063:B1 6.75122e-06
*RES
1 *1062:X *95:6 2.395 
2 *95:6 *1063:B1 4.495 
3 *95:6 *1197:A1 1.96 
*END

*D_NET *96 0.00301723
*CONN
*I *1066:B I *D sky130_fd_sc_hd__and3_1
*I *1230:A3 I *D sky130_fd_sc_hd__a41o_1
*I *1228:C I *D sky130_fd_sc_hd__and4_1
*I *1064:X O *D sky130_fd_sc_hd__and4bb_1
*CAP
1 *1066:B 1.77753e-05
2 *1230:A3 4.66052e-05
3 *1228:C 0.000161116
4 *1064:X 0.000722565
5 *96:16 0.000331998
6 *96:14 0.000864617
7 *1228:C *1228:D 0.000173688
8 *1228:C *216:16 0.000200615
9 *1230:A3 *1228:D 9.20116e-05
10 *1230:A3 *1230:A4 4.00541e-06
11 *96:14 *1066:A 0
12 *96:14 *1067:A 5.53249e-06
13 *96:14 *1097:A 0
14 *96:14 *1108:A 7.75231e-05
15 *96:14 *1275:D 0
16 *96:14 *97:14 4.58062e-05
17 *96:14 *97:18 3.36382e-06
18 *96:14 *119:18 0
19 *96:14 *128:8 0
20 *96:16 *1066:A 1.56428e-05
21 *96:16 *1228:D 1.61831e-05
22 *96:16 *97:18 1.79916e-05
23 *1285:D *96:14 7.03219e-05
24 *1315:A *96:14 0.000149864
*RES
1 *1064:X *96:14 17.75 
2 *96:14 *96:16 2.175 
3 *96:16 *1228:C 5.425 
4 *96:16 *1230:A3 3.01 
5 *96:14 *1066:B 1.96 
*END

*D_NET *97 0.00369453
*CONN
*I *1066:C I *D sky130_fd_sc_hd__and3_1
*I *1230:A4 I *D sky130_fd_sc_hd__a41o_1
*I *1228:D I *D sky130_fd_sc_hd__and4_1
*I *1065:X O *D sky130_fd_sc_hd__and4bb_1
*CAP
1 *1066:C 0
2 *1230:A4 5.11363e-06
3 *1228:D 0.000214013
4 *1065:X 0.000848782
5 *97:18 0.000334304
6 *97:14 0.00096396
7 *1228:D *1228:B 0.000229227
8 *1228:D *216:16 1.33293e-05
9 *1230:A4 *1066:A 1.85674e-05
10 *97:14 *1065:B_N 1.32102e-05
11 *97:14 *1123:A 8.51175e-05
12 *97:14 *1125:A 3.57349e-05
13 *97:14 *1125:B 3.45117e-05
14 *97:14 *1125:C 0.000107979
15 *97:14 *1292:CLK 3.00141e-05
16 *97:14 *120:6 0.000194295
17 *97:14 *346:54 0.000161292
18 *97:18 *1066:A 5.20263e-05
19 *1228:C *1228:D 0.000173688
20 *1230:A3 *1228:D 9.20116e-05
21 *1230:A3 *1230:A4 4.00541e-06
22 *96:14 *97:14 4.58062e-05
23 *96:14 *97:18 3.36382e-06
24 *96:16 *1228:D 1.61831e-05
25 *96:16 *97:18 1.79916e-05
*RES
1 *1065:X *97:14 17.1725 
2 *97:14 *97:18 1.5975 
3 *97:18 *1228:D 7.48 
4 *97:18 *1230:A4 1.96 
5 *97:14 *1066:C 1.6 
*END

*D_NET *98 0.00021011
*CONN
*I *1067:A I *D sky130_fd_sc_hd__buf_2
*I *1066:X O *D sky130_fd_sc_hd__and3_1
*CAP
1 *1067:A 0.000102289
2 *1066:X 0.000102289
3 *1067:A *1097:A 0
4 *1067:A *1275:D 0
5 *96:14 *1067:A 5.53249e-06
*RES
1 *1066:X *1067:A 8.835 
*END

*D_NET *99 0.00899064
*CONN
*I *1121:C1 I *D sky130_fd_sc_hd__a211o_1
*I *1072:A2 I *D sky130_fd_sc_hd__a22o_1
*I *1097:A I *D sky130_fd_sc_hd__nor2_1
*I *1071:A I *D sky130_fd_sc_hd__nand2_1
*I *1089:A2 I *D sky130_fd_sc_hd__o21ai_1
*I *1069:A2 I *D sky130_fd_sc_hd__a21bo_1
*I *1226:A2 I *D sky130_fd_sc_hd__a21boi_1
*I *1079:A2 I *D sky130_fd_sc_hd__o21bai_1
*I *1078:B I *D sky130_fd_sc_hd__and3_1
*I *1067:X O *D sky130_fd_sc_hd__buf_2
*CAP
1 *1121:C1 0.000224125
2 *1072:A2 0
3 *1097:A 0.000164066
4 *1071:A 0
5 *1089:A2 0
6 *1069:A2 0.000365374
7 *1226:A2 0.000116256
8 *1079:A2 0.000109894
9 *1078:B 0.000349879
10 *1067:X 9.96044e-05
11 *99:114 0.000533223
12 *99:79 0.000594679
13 *99:53 0.000538145
14 *99:47 0.000781359
15 *99:30 0.000674529
16 *99:22 0.000361272
17 *99:10 0.000521317
18 *1069:A2 *1089:B1 7.03276e-05
19 *1069:A2 *1094:B1 0.000265933
20 *1069:A2 *1368:A 0.000111256
21 *1069:A2 *238:86 0.000199184
22 *1069:A2 *309:8 0.000383672
23 *1078:B *1078:A 0
24 *1078:B *1079:B1_N 0
25 *1078:B *107:8 0
26 *1078:B *215:10 0.000179008
27 *1078:B *262:54 0.000239807
28 *1079:A2 *1079:A1 4.89395e-05
29 *1079:A2 *1079:B1_N 2.69153e-05
30 *1097:A *1072:A1 1.22762e-05
31 *1097:A *119:12 9.68865e-05
32 *1097:A *119:14 0.000100308
33 *1097:A *119:18 5.53249e-06
34 *1121:C1 *1121:A1 8.50369e-06
35 *1121:C1 *1121:B1 0.000178813
36 *1226:A2 *1079:A1 7.76471e-05
37 *1226:A2 *1226:A1 6.81928e-05
38 *1226:A2 *1250:A0 0.000121039
39 *1226:A2 *1314:CLK 1.64067e-05
40 *1226:A2 *100:10 7.28465e-06
41 *99:10 *1072:A1 2.96466e-05
42 *99:10 *1275:D 0
43 *99:22 *1072:A1 0
44 *99:22 *1072:B1 0.000201503
45 *99:22 *1275:D 0.000139238
46 *99:22 *262:54 0.000175312
47 *99:30 *1071:B 5.58436e-05
48 *99:30 *1078:A 1.08758e-05
49 *99:30 *1275:D 0
50 *99:30 *215:10 7.06865e-05
51 *99:30 *262:54 2.05056e-05
52 *99:30 *360:56 9.54399e-05
53 *99:47 *1079:B1_N 0
54 *99:47 *1094:A3 0
55 *99:47 *1094:B1 0.000238983
56 *99:47 *1275:D 0
57 *99:53 *1079:A1 4.28112e-06
58 *99:79 *1089:B1 2.69153e-05
59 *99:114 *1072:A1 1.58555e-05
60 *99:114 *1072:B1 0.000167816
61 *99:114 *1121:B1 1.31519e-05
62 *1067:A *1097:A 0
63 *1313:D *99:79 1.33293e-05
64 *1314:D *1079:A2 5.96021e-05
65 *96:14 *1097:A 0
*RES
1 *1067:X *99:10 7.49 
2 *99:10 *99:22 9.655 
3 *99:22 *99:30 4.3175 
4 *99:30 *1078:B 9.0975 
5 *99:30 *99:47 7.0775 
6 *99:47 *99:53 5.81 
7 *99:53 *1079:A2 6.15 
8 *99:53 *1226:A2 6.63 
9 *99:47 *99:79 2.52 
10 *99:79 *1069:A2 18.855 
11 *99:79 *1089:A2 1.6 
12 *99:22 *1071:A 1.6 
13 *99:10 *99:114 2.79 
14 *99:114 *1097:A 9.785 
15 *99:114 *1072:A2 1.6 
16 *99:114 *1121:C1 5.635 
*END

*D_NET *100 0.00238574
*CONN
*I *1069:B1_N I *D sky130_fd_sc_hd__a21bo_1
*I *1226:A1 I *D sky130_fd_sc_hd__a21boi_1
*I *1068:X O *D sky130_fd_sc_hd__or2b_1
*CAP
1 *1069:B1_N 0.000578994
2 *1226:A1 0.000192743
3 *1068:X 0.000111716
4 *100:10 0.000883453
5 *1069:B1_N *1077:A 0.000200307
6 *1069:B1_N *1250:A0 1.45663e-05
7 *1069:B1_N *1314:CLK 1.08758e-05
8 *1069:B1_N *1314:RESET_B 2.35512e-05
9 *1069:B1_N *362:6 3.56402e-05
10 *1226:A1 *1077:A 2.21074e-05
11 *1226:A1 *1250:A0 2.50267e-05
12 *1226:A1 *1314:CLK 4.77769e-05
13 *100:10 *1314:CLK 0.000154269
14 *100:10 *359:19 0
15 *1226:A2 *1226:A1 6.81928e-05
16 *1226:A2 *100:10 7.28465e-06
17 *1314:D *100:10 9.23804e-06
*RES
1 *1068:X *100:10 7.745 
2 *100:10 *1226:A1 4.12 
3 *100:10 *1069:B1_N 8.95 
*END

*D_NET *101 0.000933022
*CONN
*I *1071:B I *D sky130_fd_sc_hd__nand2_1
*I *1078:C I *D sky130_fd_sc_hd__and3_1
*I *1070:X O *D sky130_fd_sc_hd__and3_1
*CAP
1 *1071:B 0.000224481
2 *1078:C 0
3 *1070:X 0.000108803
4 *101:6 0.000333284
5 *1071:B *1078:A 7.89178e-05
6 *1071:B *262:54 2.63688e-05
7 *101:6 *1237:A 8.40213e-05
8 *101:6 *262:54 2.13032e-05
9 *99:30 *1071:B 5.58436e-05
*RES
1 *1070:X *101:6 2.9875 
2 *101:6 *1078:C 1.6 
3 *101:6 *1071:B 4.8325 
*END

*D_NET *102 0.00135545
*CONN
*I *1072:B1 I *D sky130_fd_sc_hd__a22o_1
*I *1071:Y O *D sky130_fd_sc_hd__nand2_1
*CAP
1 *1072:B1 0.000299867
2 *1071:Y 0.000299867
3 *1072:B1 *1072:A1 2.68526e-05
4 *1072:B1 *1072:B2 4.99619e-05
5 *1072:B1 *1345:A 0.000161529
6 *1072:B1 *215:10 7.4027e-05
7 *1072:B1 *360:10 7.4027e-05
8 *99:22 *1072:B1 0.000201503
9 *99:114 *1072:B1 0.000167816
*RES
1 *1071:Y *1072:B1 14.325 
*END

*D_NET *103 0.00415624
*CONN
*I *1075:A I *D sky130_fd_sc_hd__or2b_1
*I *1158:A1 I *D sky130_fd_sc_hd__o21bai_1
*I *1151:B1 I *D sky130_fd_sc_hd__a21o_1
*I *1177:A1 I *D sky130_fd_sc_hd__o22a_1
*I *1073:X O *D sky130_fd_sc_hd__o31a_1
*CAP
1 *1075:A 0.000114374
2 *1158:A1 1.79211e-05
3 *1151:B1 6.14106e-05
4 *1177:A1 0.000480976
5 *1073:X 2.62388e-05
6 *103:50 0.000691196
7 *103:8 0.000599523
8 *103:6 0.000642276
9 *1075:A *104:81 0.00011852
10 *1075:A *151:29 0.00011852
11 *1151:B1 *1151:A1 1.16578e-05
12 *1151:B1 *1153:A3 0.000114492
13 *1151:B1 *1177:A2 4.66108e-05
14 *1177:A1 *1052:A 0
15 *1177:A1 *1073:B1 8.73389e-06
16 *1177:A1 *157:23 8.47542e-05
17 *103:50 *1153:A3 0.000176647
18 *103:50 *1158:A2 0.000122801
19 *103:50 *1158:B1_N 0.000196669
20 *103:50 *1160:A 2.75145e-05
21 *103:50 *1160:B 2.75229e-05
22 *1057:D *1177:A1 4.66108e-05
23 *1057:D *103:6 4.82919e-05
24 *1057:D *103:8 8.23457e-05
25 *1073:A1 *103:50 1.88904e-05
26 *1159:A1 *103:50 2.75145e-05
27 *1159:A2 *103:50 1.16578e-05
28 *1159:A3 *103:50 3.26889e-05
29 *84:16 *103:50 3.50033e-05
30 *84:18 *103:50 3.4222e-05
31 *84:33 *103:50 1.61696e-05
32 *90:10 *1151:B1 0.000114492
*RES
1 *1073:X *103:6 2.05 
2 *103:6 *103:8 0.795 
3 *103:8 *1177:A1 12.17 
4 *103:8 *1151:B1 7.43 
5 *103:6 *103:50 14.32 
6 *103:50 *1158:A1 1.96 
7 *103:50 *1075:A 8.12 
*END

*D_NET *104 0.00912517
*CONN
*I *1157:A1 I *D sky130_fd_sc_hd__o211a_1
*I *1153:A2 I *D sky130_fd_sc_hd__a32o_1
*I *1075:B_N I *D sky130_fd_sc_hd__or2b_1
*I *1167:D I *D sky130_fd_sc_hd__and4b_1
*I *1184:A2 I *D sky130_fd_sc_hd__a32o_1
*I *1074:X O *D sky130_fd_sc_hd__or2b_2
*CAP
1 *1157:A1 3.2765e-05
2 *1153:A2 0.000358093
3 *1075:B_N 0
4 *1167:D 0
5 *1184:A2 0.000369456
6 *1074:X 9.43301e-05
7 *104:81 0.00114387
8 *104:64 0.000903178
9 *104:30 0.00133598
10 *104:10 0.00121102
11 *1153:A2 *1153:A3 4.77769e-05
12 *1153:A2 *1156:A3 8.12896e-06
13 *1153:A2 *1156:B1 0.000280226
14 *1153:A2 *1157:B1 3.20268e-05
15 *1153:A2 *314:55 9.8172e-05
16 *1157:A1 *1157:B1 5.12969e-06
17 *1184:A2 *1151:A1 9.69437e-05
18 *1184:A2 *1167:C 8.8031e-05
19 *1184:A2 *1168:A2 5.40823e-05
20 *1184:A2 *1174:A1 8.35157e-05
21 *1184:A2 *1184:A1 3.83657e-05
22 *1184:A2 *1184:A3 3.84608e-05
23 *104:10 *1085:B 0.00011138
24 *104:10 *1145:A2 0.000269931
25 *104:10 *338:38 8.52883e-05
26 *104:30 *1060:A1 6.90254e-05
27 *104:30 *1085:B 0.000102488
28 *104:30 *1085:C 3.66219e-05
29 *104:30 *1167:C 1.52517e-05
30 *104:30 *112:16 8.33066e-06
31 *104:30 *151:8 7.15571e-05
32 *104:30 *151:29 3.40433e-05
33 *104:30 *155:10 0.000156474
34 *104:30 *254:6 3.15789e-05
35 *104:30 *334:48 0
36 *104:30 *335:55 0.000132283
37 *104:64 *151:29 0.000169591
38 *104:81 *1157:B1 1.32026e-05
39 *104:81 *1158:B1_N 6.66907e-05
40 *104:81 *1162:A1 0.000181369
41 *104:81 *1162:B1 7.98007e-06
42 *104:81 *1240:A0 0
43 *104:81 *1364:A 4.11806e-05
44 *104:81 *151:29 0.000407242
45 *104:81 *151:89 0
46 *104:81 *151:93 0
47 *104:81 *159:10 3.4353e-05
48 *104:81 *315:10 6.91408e-06
49 *1053:A *1184:A2 9.05592e-05
50 *1060:B1 *104:30 8.35106e-05
51 *1060:B2 *104:30 1.77595e-05
52 *1075:A *104:81 0.00011852
53 *1080:B *1184:A2 0.000197249
54 *1184:B1 *1184:A2 0
55 *1186:A2 *104:30 1.74678e-05
56 *1264:D *1153:A2 0.00012398
57 *1265:D *104:81 9.11664e-05
58 *1386:A *104:30 1.26248e-05
*RES
1 *1074:X *104:10 6.48 
2 *104:10 *104:30 20.7938 
3 *104:30 *1184:A2 13.7113 
4 *104:30 *1167:D 1.6 
5 *104:10 *104:64 3.42 
6 *104:64 *1075:B_N 3.6 
7 *104:64 *104:81 16.835 
8 *104:81 *1153:A2 7.69 
9 *104:81 *1157:A1 2.215 
*END

*D_NET *105 0.000359145
*CONN
*I *1076:A I *D sky130_fd_sc_hd__clkbuf_1
*I *1075:X O *D sky130_fd_sc_hd__or2b_1
*CAP
1 *1076:A 0.000107179
2 *1075:X 0.000107179
3 *1076:A *250:28 7.4027e-05
4 *1076:A *259:12 7.0761e-05
*RES
1 *1075:X *1076:A 9.48 
*END

*D_NET *106 0.000992729
*CONN
*I *1227:B2 I *D sky130_fd_sc_hd__o22a_1
*I *1079:A1 I *D sky130_fd_sc_hd__o21bai_1
*I *1077:Y O *D sky130_fd_sc_hd__inv_2
*CAP
1 *1227:B2 7.10898e-05
2 *1079:A1 0.000156969
3 *1077:Y 6.20783e-05
4 *106:8 0.000290137
5 *1079:A1 *1227:B1 2.85623e-05
6 *1227:B2 *1227:A2 1.89685e-05
7 *1227:B2 *1227:B1 0.000138423
8 *106:8 *1227:B1 4.66108e-05
9 *106:8 *1250:A0 2.21074e-05
10 *1079:A2 *1079:A1 4.89395e-05
11 *1226:A2 *1079:A1 7.76471e-05
12 *1314:D *1079:A1 2.69153e-05
13 *99:53 *1079:A1 4.28112e-06
*RES
1 *1077:Y *106:8 4.395 
2 *106:8 *1079:A1 6.705 
3 *106:8 *1227:B2 5.235 
*END

*D_NET *107 0.0028426
*CONN
*I *1079:B1_N I *D sky130_fd_sc_hd__o21bai_1
*I *1237:A I *D sky130_fd_sc_hd__nor3b_1
*I *1078:X O *D sky130_fd_sc_hd__and3_1
*CAP
1 *1079:B1_N 0.000564658
2 *1237:A 0.000386868
3 *1078:X 5.73431e-05
4 *107:8 0.00100887
5 *1079:B1_N *1094:A3 0
6 *1079:B1_N *262:54 0.000105266
7 *1237:A *1070:A 4.8854e-05
8 *1237:A *1070:C 6.87121e-05
9 *1237:A *1091:B 0.000186316
10 *1237:A *1236:A1 1.41095e-05
11 *1237:A *1237:B 2.30292e-05
12 *1237:A *1237:C_N 0.000125262
13 *1237:A *262:54 1.56428e-05
14 *1237:A *348:53 1.16854e-05
15 *1237:A *348:67 3.52249e-05
16 *107:8 *262:54 7.5416e-05
17 *1078:B *1079:B1_N 0
18 *1078:B *107:8 0
19 *1079:A2 *1079:B1_N 2.69153e-05
20 *1314:D *1079:B1_N 4.40693e-06
21 *99:47 *1079:B1_N 0
22 *101:6 *1237:A 8.40213e-05
*RES
1 *1078:X *107:8 4.725 
2 *107:8 *1237:A 10.755 
3 *107:8 *1079:B1_N 12.33 
*END

*D_NET *108 0.0068692
*CONN
*I *1084:A2 I *D sky130_fd_sc_hd__a22o_1
*I *1083:B I *D sky130_fd_sc_hd__nor3_1
*I *1151:A1 I *D sky130_fd_sc_hd__a21o_1
*I *1168:A1 I *D sky130_fd_sc_hd__a21o_1
*I *1080:X O *D sky130_fd_sc_hd__or3_2
*CAP
1 *1084:A2 0.000144331
2 *1083:B 9.46155e-05
3 *1151:A1 0.000425016
4 *1168:A1 1.61587e-05
5 *1080:X 0
6 *108:44 0.00105393
7 *108:8 0.000479331
8 *108:4 0.000853138
9 *1083:B *1084:B1 0.000156911
10 *1083:B *1198:C 5.69216e-05
11 *1083:B *1302:RESET_B 5.00903e-05
12 *1083:B *1326:A 1.56261e-05
13 *1083:B *1331:A 2.14995e-05
14 *1084:A2 *1084:B1 0.000402627
15 *1084:A2 *1302:RESET_B 9.05592e-05
16 *1084:A2 *112:80 2.10841e-05
17 *1084:A2 *335:43 0.000267561
18 *1151:A1 *1052:A 2.36226e-05
19 *1151:A1 *1153:A3 6.45236e-05
20 *1151:A1 *1168:B1 2.62526e-05
21 *1151:A1 *1177:A2 2.05056e-05
22 *1151:A1 *1184:A3 0.000228773
23 *1151:A1 *155:35 9.53428e-06
24 *1168:A1 *1168:B1 5.19006e-06
25 *108:8 *1168:B1 7.11365e-05
26 *108:44 *1167:A_N 0.00027108
27 *108:44 *1168:B1 6.5716e-05
28 *108:44 *112:86 0.000192502
29 *108:44 *155:10 8.46717e-05
30 *108:44 *336:6 0.000196686
31 *108:44 *336:8 0.000196699
32 *108:44 *336:12 0.000415848
33 *1053:C *1151:A1 9.24825e-05
34 *1080:B *1151:A1 7.64752e-05
35 *1080:B *108:8 5.75537e-05
36 *1080:B *108:44 8.23457e-05
37 *1080:C *108:8 9.12671e-06
38 *1080:C *108:44 0.000119251
39 *1151:B1 *1151:A1 1.16578e-05
40 *1184:A2 *1151:A1 9.69437e-05
41 *1302:D *108:44 0.000228863
42 *90:10 *1151:A1 7.23602e-05
*RES
1 *1080:X *108:4 1.6 
2 *108:4 *108:8 1.5 
3 *108:8 *1168:A1 1.96 
4 *108:8 *1151:A1 14.63 
5 *108:4 *108:44 18.32 
6 *108:44 *1083:B 6 
7 *108:44 *1084:A2 8.46 
*END

*D_NET *109 0.00620765
*CONN
*I *1213:A I *D sky130_fd_sc_hd__or4_1
*I *1083:A I *D sky130_fd_sc_hd__nor3_1
*I *1222:A I *D sky130_fd_sc_hd__or4_1
*I *1196:B1 I *D sky130_fd_sc_hd__o31a_1
*I *1219:A I *D sky130_fd_sc_hd__or4_1
*I *1216:A I *D sky130_fd_sc_hd__or4_1
*I *1081:Y O *D sky130_fd_sc_hd__inv_2
*CAP
1 *1213:A 0.000180907
2 *1083:A 0.000147802
3 *1222:A 0
4 *1196:B1 1.36534e-05
5 *1219:A 2.89741e-05
6 *1216:A 0.000149321
7 *1081:Y 0
8 *109:51 0.000557591
9 *109:32 0.000574099
10 *109:21 0.000220659
11 *109:8 0.000350924
12 *109:4 0.000341482
13 *1083:A *1083:C 0.000209879
14 *1083:A *1198:C 6.63221e-05
15 *1083:A *1223:S 5.83121e-06
16 *1083:A *1331:A 0.000173869
17 *1083:A *110:55 3.64998e-06
18 *1083:A *258:46 0.000196077
19 *1083:A *311:12 3.29364e-05
20 *1196:B1 *1189:A2 4.66108e-05
21 *1196:B1 *1196:A3 4.66108e-05
22 *1213:A *184:51 0.00015856
23 *1216:A *1203:B 4.9253e-06
24 *1216:A *184:26 8.64599e-05
25 *1216:A *193:40 2.02316e-05
26 *1216:A *193:52 0.000333351
27 *1216:A *250:28 0.000217486
28 *1219:A *322:32 2.49909e-05
29 *109:8 *1207:B 4.66108e-05
30 *109:8 *184:51 0.000102792
31 *109:21 *1210:C 6.30012e-05
32 *109:21 *193:40 7.03276e-05
33 *109:21 *250:28 0.000124998
34 *109:32 *1192:A 7.21296e-06
35 *109:32 *1196:A1 6.99988e-05
36 *109:32 *1210:C 0.000335434
37 *109:32 *250:28 0.000498207
38 *109:32 *334:78 7.21296e-06
39 *109:51 *1084:B2 6.69341e-05
40 *109:51 *1196:A1 1.99498e-05
41 *109:51 *1222:D 2.49909e-05
42 *109:51 *110:55 8.40057e-05
43 *109:51 *184:96 0.000155436
44 *109:51 *250:28 0.000155504
45 *109:51 *334:78 0.000181837
*RES
1 *1081:Y *109:4 1.6 
2 *109:4 *109:8 4.175 
3 *109:8 *1216:A 8.085 
4 *109:8 *109:21 1.635 
5 *109:21 *1219:A 4.05 
6 *109:21 *109:32 5.97 
7 *109:32 *1196:B1 4.05 
8 *109:32 *109:51 10.985 
9 *109:51 *1222:A 1.6 
10 *109:51 *1083:A 10.37 
11 *109:4 *1213:A 4.75 
*END

*D_NET *110 0.00466176
*CONN
*I *1083:C I *D sky130_fd_sc_hd__nor3_1
*I *1222:B I *D sky130_fd_sc_hd__or4_1
*I *1192:B I *D sky130_fd_sc_hd__and3_1
*I *1196:A1 I *D sky130_fd_sc_hd__o31a_1
*I *1210:B I *D sky130_fd_sc_hd__or4_1
*I *1082:Y O *D sky130_fd_sc_hd__nand2_1
*CAP
1 *1083:C 0.000114371
2 *1222:B 0
3 *1192:B 3.81341e-05
4 *1196:A1 0.000280793
5 *1210:B 0.000210537
6 *1082:Y 0.000114544
7 *110:55 0.000627341
8 *110:14 0.000608993
9 *110:12 0.000155797
10 *110:10 0.000627514
11 *1083:C *1198:C 0.000121043
12 *1083:C *1331:A 1.10951e-05
13 *1083:C *258:46 1.91597e-05
14 *1083:C *311:12 0.00013186
15 *1192:B *1062:A3 3.1562e-06
16 *1192:B *1192:C 2.65814e-06
17 *1196:A1 *1189:A1 0
18 *1196:A1 *1189:A2 2.8185e-05
19 *1196:A1 *1192:A 9.30717e-05
20 *1196:A1 *1196:A3 0.000140005
21 *1196:A1 *1210:C 5.23362e-05
22 *1210:B *1062:A3 3.1562e-06
23 *1210:B *1210:C 0.00013106
24 *110:10 *1192:C 7.06865e-05
25 *110:10 *1210:C 0
26 *110:10 *323:20 1.56428e-05
27 *110:10 *323:24 1.83756e-05
28 *110:14 *1062:A3 7.64231e-06
29 *110:14 *1192:A 3.07153e-05
30 *110:55 *1084:B2 8.53113e-06
31 *110:55 *1188:A 2.77795e-05
32 *110:55 *1192:A 4.11281e-05
33 *110:55 *1192:C 0.000100162
34 *110:55 *1320:A 0
35 *110:55 *185:10 0.000136884
36 *110:55 *250:28 0
37 *110:55 *333:14 0.00022372
38 *110:55 *334:78 7.81946e-05
39 *1083:A *1083:C 0.000209879
40 *1083:A *110:55 3.64998e-06
41 *109:32 *1196:A1 6.99988e-05
42 *109:51 *1196:A1 1.99498e-05
43 *109:51 *110:55 8.40057e-05
*RES
1 *1082:Y *110:10 5.265 
2 *110:10 *110:12 2 
3 *110:12 *110:14 1.485 
4 *110:14 *1210:B 4.12 
5 *110:14 *1196:A1 10.64 
6 *110:12 *1192:B 2.05 
7 *110:10 *110:55 12.23 
8 *110:55 *1222:B 1.6 
9 *110:55 *1083:C 8.825 
*END

*D_NET *111 0.00146627
*CONN
*I *1084:B1 I *D sky130_fd_sc_hd__a22o_1
*I *1083:Y O *D sky130_fd_sc_hd__nor3_1
*CAP
1 *1084:B1 0.000252628
2 *1083:Y 0.000252628
3 *1084:B1 *1084:A1 2.87688e-05
4 *1084:B1 *1331:A 0.000239139
5 *1084:B1 *112:80 1.07593e-05
6 *1084:B1 *335:43 0.000122814
7 *1083:B *1084:B1 0.000156911
8 *1084:A2 *1084:B1 0.000402627
*RES
1 *1083:Y *1084:B1 14.295 
*END

*D_NET *112 0.0230758
*CONN
*I *1086:A I *D sky130_fd_sc_hd__inv_2
*I *1139:S I *D sky130_fd_sc_hd__mux2_1
*I *1135:S I *D sky130_fd_sc_hd__mux2_1
*I *1127:S I *D sky130_fd_sc_hd__mux2_1
*I *1141:S I *D sky130_fd_sc_hd__mux2_1
*I *1131:S I *D sky130_fd_sc_hd__mux2_1
*I *1137:S I *D sky130_fd_sc_hd__mux2_1
*I *1129:S I *D sky130_fd_sc_hd__mux2_1
*I *1133:S I *D sky130_fd_sc_hd__mux2_1
*I *1085:Y O *D sky130_fd_sc_hd__nand3_4
*CAP
1 *1086:A 0.000228143
2 *1139:S 0.000105746
3 *1135:S 0
4 *1127:S 0.000536608
5 *1141:S 3.43921e-05
6 *1131:S 8.45885e-05
7 *1137:S 0.000803254
8 *1129:S 0.000153508
9 *1133:S 0.000156599
10 *1085:Y 0
11 *112:103 0.0011309
12 *112:99 0.00155271
13 *112:86 0.00173995
14 *112:80 0.00145941
15 *112:33 0.00117804
16 *112:31 0.000946005
17 *112:16 0.0029972
18 *112:4 0.00257884
19 *1086:A *1252:A0 3.72081e-05
20 *1127:S *1127:A0 4.77719e-05
21 *1127:S *1127:A1 2.20014e-05
22 *1127:S *1136:A 3.59997e-05
23 *1127:S *1214:A1 0.000278117
24 *1127:S *1372:A 3.98782e-05
25 *1127:S *1373:A 0.000327033
26 *1127:S *1387:A 0.000270601
27 *1127:S *256:31 3.67779e-05
28 *1127:S *256:53 4.13249e-05
29 *1127:S *270:6 0.000158543
30 *1129:S *1129:A0 8.80056e-05
31 *1129:S *1389:A 0.000161977
32 *1131:S *1131:A0 8.73389e-06
33 *1131:S *1131:A1 4.32699e-05
34 *1133:S *1268:CLK 2.34379e-05
35 *1133:S *231:31 7.08493e-05
36 *1137:S *1137:A0 5.30673e-05
37 *1137:S *1256:RESET_B 0.000318933
38 *1137:S *232:35 1.12578e-05
39 *1137:S *255:40 0.000690608
40 *1139:S *1140:A 5.05521e-05
41 *1139:S *256:102 0.000314745
42 *112:16 *1085:A 8.41384e-05
43 *112:16 *1085:B 7.98007e-06
44 *112:16 *1143:B 7.82738e-05
45 *112:16 *151:8 0.000154857
46 *112:16 *184:10 8.70923e-05
47 *112:16 *250:28 5.48959e-05
48 *112:16 *333:22 0.000348742
49 *112:16 *334:37 6.23949e-05
50 *112:16 *334:48 0.000106531
51 *112:16 *335:55 1.91597e-05
52 *112:31 *1277:CLK 3.52241e-05
53 *112:31 *1279:CLK 0.000140184
54 *112:31 *244:10 0.000123359
55 *112:33 *1389:A 0.000383791
56 *112:33 *244:10 9.09788e-06
57 *112:80 *1084:A1 0.000320696
58 *112:80 *1085:A 8.8781e-05
59 *112:80 *335:43 8.41384e-05
60 *112:86 *1252:A0 9.23937e-05
61 *112:86 *1302:CLK 0.000124406
62 *112:86 *335:43 3.54721e-05
63 *112:99 *1140:A 0
64 *112:99 *1220:A1 0
65 *112:99 *1261:CLK 0.000276057
66 *112:99 *1302:CLK 0.000126366
67 *112:99 *1341:A 0
68 *112:99 *236:25 0.000485586
69 *112:99 *236:27 6.81928e-05
70 *112:99 *236:51 2.49909e-05
71 *112:99 *257:44 1.56261e-05
72 *112:99 *282:10 0
73 *112:103 *1140:A 0
74 *112:103 *1220:A1 0
75 *112:103 *256:53 0
76 *112:103 *256:62 0
77 *112:103 *284:10 6.55406e-05
78 *1058:B_N *112:16 6.0147e-06
79 *1063:A2 *112:16 4.71185e-05
80 *1084:A2 *112:80 2.10841e-05
81 *1084:B1 *112:80 1.07593e-05
82 *1254:D *1086:A 4.6368e-06
83 *1255:D *1127:S 6.55328e-05
84 *1268:D *1133:S 3.77371e-07
85 *1268:D *112:16 1.34993e-05
86 *1279:D *112:31 6.14024e-05
87 *1302:D *112:86 0.00032394
88 *104:30 *112:16 8.33066e-06
89 *108:44 *112:86 0.000192502
*RES
1 *1085:Y *112:4 1.6 
2 *112:4 *112:16 34.3 
3 *112:16 *1133:S 4.15 
4 *112:16 *112:31 13.835 
5 *112:31 *112:33 4.695 
6 *112:33 *1129:S 6.81 
7 *112:33 *1137:S 16.95 
8 *112:31 *1131:S 5.115 
9 *112:4 *112:80 7.745 
10 *112:80 *112:86 13.91 
11 *112:86 *1141:S 2.215 
12 *112:86 *112:99 17.66 
13 *112:99 *112:103 12.05 
14 *112:103 *1127:S 18.65 
15 *112:103 *1135:S 1.6 
16 *112:99 *1139:S 6.465 
17 *112:80 *1086:A 7.26 
*END

*D_NET *113 0.00106202
*CONN
*I *1089:A1 I *D sky130_fd_sc_hd__o21ai_1
*I *1087:Y O *D sky130_fd_sc_hd__inv_2
*CAP
1 *1089:A1 0.000432648
2 *1087:Y 0.000432648
3 *1089:A1 *1087:A 3.00381e-05
4 *1089:A1 *1095:C 1.73877e-05
5 *1089:A1 *359:19 0
6 *1089:A1 *361:12 0.00011893
7 *1089:A1 *361:23 3.03684e-05
*RES
1 *1087:Y *1089:A1 12.825 
*END

*D_NET *114 0.012724
*CONN
*I *1089:B1 I *D sky130_fd_sc_hd__o21ai_1
*I *1250:S I *D sky130_fd_sc_hd__mux2_1
*I *1248:S I *D sky130_fd_sc_hd__mux2_1
*I *1246:S I *D sky130_fd_sc_hd__mux2_1
*I *1238:S I *D sky130_fd_sc_hd__mux2_1
*I *1244:S I *D sky130_fd_sc_hd__mux2_1
*I *1242:S I *D sky130_fd_sc_hd__mux2_1
*I *1240:S I *D sky130_fd_sc_hd__mux2_1
*I *1252:S I *D sky130_fd_sc_hd__mux2_1
*I *1225:A I *D sky130_fd_sc_hd__inv_2
*I *1088:Y O *D sky130_fd_sc_hd__nand2_4
*CAP
1 *1089:B1 0.000421978
2 *1250:S 0
3 *1248:S 2.09808e-05
4 *1246:S 0.000234826
5 *1238:S 0
6 *1244:S 0.0001953
7 *1242:S 2.15109e-05
8 *1240:S 0.000297504
9 *1252:S 0.000202029
10 *1225:A 0
11 *1088:Y 5.33511e-05
12 *114:71 0.000665803
13 *114:65 0.000669915
14 *114:63 0.00077161
15 *114:59 0.00077288
16 *114:44 0.000832583
17 *114:40 0.000359171
18 *114:25 0.00110763
19 *114:12 0.00111043
20 *114:6 0.000940287
21 *1089:B1 *1068:A 0
22 *1089:B1 *1088:A 5.93844e-05
23 *1089:B1 *1311:SET_B 0
24 *1089:B1 *359:19 0.000193703
25 *1240:S *263:56 0
26 *1242:S *1244:A0 3.00381e-05
27 *1244:S *1244:A0 0.00024946
28 *1244:S *1244:A1 2.11084e-05
29 *1244:S *1245:A 5.05521e-05
30 *1246:S *1246:A1 1.19928e-05
31 *1246:S *234:62 0.0003172
32 *1252:S *1252:A0 7.08297e-05
33 *1252:S *1252:A1 0.000158552
34 *1252:S *1340:A 8.33066e-06
35 *114:12 *1088:A 8.65961e-05
36 *114:12 *1227:A1 1.08758e-05
37 *114:12 *1227:A2 4.66108e-05
38 *114:12 *312:8 0
39 *114:25 *1092:A2 0
40 *114:25 *1227:A1 1.39967e-05
41 *114:25 *1347:A 0
42 *114:25 *1396:A 0.000111285
43 *114:25 *252:12 0
44 *114:25 *252:23 0.000465676
45 *114:40 *1250:A0 0.00034779
46 *114:44 *1250:A1 1.82111e-05
47 *114:59 *1248:A1 7.29165e-05
48 *114:63 *1248:A0 2.69272e-05
49 *114:63 *1248:A1 5.06989e-05
50 *114:63 *1249:A 7.11301e-05
51 *114:65 *1238:A1 0.000272903
52 *114:71 *1242:A1 0.000102125
53 *114:71 *1303:RESET_B 0.000500749
54 *114:71 *233:97 0
55 *114:71 *234:23 0
56 data_ready *114:25 0.000165698
57 *1069:A2 *1089:B1 7.03276e-05
58 *1254:D *1240:S 9.82788e-05
59 *1254:D *114:44 7.88484e-05
60 *1307:D *1246:S 0
61 *1310:D *1240:S 0.000148021
62 *1313:D *1089:B1 3.00381e-05
63 *1385:A *114:6 5.0751e-05
64 *1385:A *114:12 7.67415e-06
65 *99:79 *1089:B1 2.69153e-05
*RES
1 *1088:Y *114:6 2.74 
2 *114:6 *114:12 7.035 
3 *114:12 *1225:A 1.6 
4 *114:12 *114:25 14.93 
5 *114:25 *1252:S 7.485 
6 *114:25 *114:40 7.625 
7 *114:40 *114:44 4.4 
8 *114:44 *1240:S 9.57 
9 *114:44 *114:59 8.33 
10 *114:59 *114:63 4.7775 
11 *114:63 *114:65 4.4175 
12 *114:65 *114:71 14.05 
13 *114:71 *1242:S 2.05 
14 *114:71 *1244:S 6.19 
15 *114:65 *1238:S 1.6 
16 *114:63 *1246:S 10.6175 
17 *114:59 *1248:S 1.96 
18 *114:40 *1250:S 1.6 
19 *114:6 *1089:B1 14.06 
*END

*D_NET *115 0.00202308
*CONN
*I *1091:B I *D sky130_fd_sc_hd__or2_1
*I *1090:X O *D sky130_fd_sc_hd__mux4_1
*CAP
1 *1091:B 0.000686035
2 *1090:X 0.000686035
3 *1091:B *1091:A 4.77757e-05
4 *1091:B *1237:B 1.61831e-05
5 *1091:B *1296:CLK 0
6 *1091:B *1296:RESET_B 8.35068e-05
7 *1091:B *262:54 4.75991e-05
8 *1091:B *348:67 7.01303e-05
9 *1091:B *349:32 4.80285e-05
10 *1091:B *350:8 8.73389e-06
11 *1091:B *350:12 1.87328e-05
12 *1237:A *1091:B 0.000186316
13 *1296:D *1091:B 0.000124007
*RES
1 *1090:X *1091:B 18.675 
*END

*D_NET *116 0.000906462
*CONN
*I *1094:A2 I *D sky130_fd_sc_hd__a311o_1
*I *1091:X O *D sky130_fd_sc_hd__or2_1
*CAP
1 *1094:A2 0.000170449
2 *1091:X 0.000170449
3 *1094:A2 *1094:A3 0.000198945
4 *1094:A2 *1094:C1 0
5 *1094:A2 *1229:A_N 0.000110107
6 *1094:A2 *1229:B 0.000238137
7 *1094:A2 *262:54 1.83756e-05
*RES
1 *1091:X *1094:A2 7.805 
*END

*D_NET *117 0.00146847
*CONN
*I *1093:A I *D sky130_fd_sc_hd__or2b_1
*I *1092:X O *D sky130_fd_sc_hd__mux4_1
*CAP
1 *1093:A 0.000648693
2 *1092:X 0.000648693
3 *1093:A *1310:RESET_B 7.28313e-05
4 *1093:A *263:40 2.42236e-05
5 *1093:A *358:8 7.4027e-05
*RES
1 *1092:X *1093:A 15.42 
*END

*D_NET *118 0.00116015
*CONN
*I *1094:A3 I *D sky130_fd_sc_hd__a311o_1
*I *1093:X O *D sky130_fd_sc_hd__or2b_1
*CAP
1 *1094:A3 0.000380296
2 *1093:X 0.000380296
3 *1094:A3 *1229:A_N 0.000200615
4 *1079:B1_N *1094:A3 0
5 *1094:A2 *1094:A3 0.000198945
6 *99:47 *1094:A3 0
*RES
1 *1093:X *1094:A3 13.185 
*END

*D_NET *119 0.00561445
*CONN
*I *1121:B1 I *D sky130_fd_sc_hd__a211o_1
*I *1369:A I *D sky130_fd_sc_hd__dlygate4sd3_1
*I *1097:B I *D sky130_fd_sc_hd__nor2_1
*I *1119:A I *D sky130_fd_sc_hd__nor2_1
*I *1108:A I *D sky130_fd_sc_hd__or2_1
*I *1104:A_N I *D sky130_fd_sc_hd__and3b_1
*I *1095:Y O *D sky130_fd_sc_hd__nor3_2
*CAP
1 *1121:B1 0.000103999
2 *1369:A 0.000190669
3 *1097:B 0
4 *1119:A 9.37732e-05
5 *1108:A 0.000113781
6 *1104:A_N 0.000393429
7 *1095:Y 0.000340941
8 *119:20 0.000650122
9 *119:18 0.000708709
10 *119:14 0.00051873
11 *119:12 0.000337591
12 *119:10 0.000545156
13 *1104:A_N *1107:A 4.82863e-05
14 *1104:A_N *1107:B 0.000119636
15 *1104:A_N *1107:C 4.82919e-05
16 *1104:A_N *1107:D 1.47347e-05
17 *1108:A *1064:C 4.82919e-05
18 *1108:A *128:8 0
19 *1108:A *128:14 0
20 *1108:A *128:34 4.99619e-05
21 *1119:A *1119:B 0
22 *1121:B1 *1121:A1 5.12969e-06
23 *1121:B1 *1121:A2 8.50369e-06
24 *1369:A *260:103 0.000248031
25 *119:10 *1072:A1 0
26 *119:10 *238:49 0
27 *119:10 *238:60 0
28 *119:12 *1285:RESET_B 5.23362e-05
29 *119:12 *238:49 0
30 *119:14 *1285:RESET_B 0.000187759
31 *119:18 *1285:RESET_B 0.000132233
32 *119:18 *120:16 0
33 *1097:A *119:12 9.68865e-05
34 *1097:A *119:14 0.000100308
35 *1097:A *119:18 5.53249e-06
36 *1121:C1 *1121:B1 0.000178813
37 *1346:A *1121:B1 0.00018214
38 *96:14 *1108:A 7.75231e-05
39 *96:14 *119:18 0
40 *99:114 *1121:B1 1.31519e-05
*RES
1 *1095:Y *119:10 8.415 
2 *119:10 *119:12 2.145 
3 *119:12 *119:14 2.145 
4 *119:14 *119:18 10.01 
5 *119:18 *119:20 2.175 
6 *119:20 *1104:A_N 8.26 
7 *119:20 *1108:A 7.94 
8 *119:18 *1119:A 3.1 
9 *119:14 *1097:B 3.6 
10 *119:12 *1369:A 7.5 
11 *119:10 *1121:B1 7.185 
*END

*D_NET *120 0.00435342
*CONN
*I *1125:A I *D sky130_fd_sc_hd__and3_1
*I *1100:A I *D sky130_fd_sc_hd__and3_1
*I *1116:B I *D sky130_fd_sc_hd__and3b_1
*I *1112:A I *D sky130_fd_sc_hd__and3_1
*I *1097:Y O *D sky130_fd_sc_hd__nor2_1
*CAP
1 *1125:A 2.11462e-05
2 *1100:A 0.000398046
3 *1116:B 0.000107024
4 *1112:A 0.000219963
5 *1097:Y 8.3364e-05
6 *120:16 0.000755951
7 *120:10 0.000974013
8 *120:6 0.000251512
9 *1100:A *1066:A 5.13485e-05
10 *1100:A *1100:B 2.21074e-05
11 *1100:A *1100:C 4.52004e-05
12 *1100:A *1101:A 0.000122202
13 *1100:A *1102:A2 1.22325e-05
14 *1112:A *257:58 0.000163199
15 *1112:A *344:38 0
16 *1116:B *344:38 0.000160314
17 *1125:A *1292:CLK 5.83121e-06
18 *120:10 *1285:RESET_B 3.58956e-05
19 *120:10 *1290:CLK 0.000221846
20 *120:10 *238:38 8.12784e-05
21 *120:16 *1119:B 3.35139e-05
22 *120:16 *1290:CLK 0.000357399
23 *120:16 *344:38 0
24 *97:14 *1125:A 3.57349e-05
25 *97:14 *120:6 0.000194295
26 *119:18 *120:16 0
*RES
1 *1097:Y *120:6 3.43 
2 *120:6 *120:10 5.675 
3 *120:10 *120:16 8.31 
4 *120:16 *1112:A 7.485 
5 *120:16 *1116:B 5.085 
6 *120:10 *1100:A 10.53 
7 *120:6 *1125:A 2.05 
*END

*D_NET *121 0.00105642
*CONN
*I *1100:B I *D sky130_fd_sc_hd__and3_1
*I *1098:Y O *D sky130_fd_sc_hd__nand2_1
*CAP
1 *1100:B 0.000347626
2 *1098:Y 0.000347626
3 *1100:B *1066:A 0.000154982
4 *1100:B *1096:B 3.72081e-05
5 *1100:B *1104:B 4.89395e-05
6 *1100:B *339:23 9.7934e-05
7 *1100:A *1100:B 2.21074e-05
*RES
1 *1098:Y *1100:B 11.97 
*END

*D_NET *122 0.000875404
*CONN
*I *1100:C I *D sky130_fd_sc_hd__and3_1
*I *1099:X O *D sky130_fd_sc_hd__or2_1
*CAP
1 *1100:C 0.000231556
2 *1099:X 0.000231556
3 *1100:C *1066:A 1.08036e-05
4 *1100:C *1275:D 0.000155106
5 *1100:C *238:12 0.000155106
6 *1100:C *340:8 4.6075e-05
7 *1100:A *1100:C 4.52004e-05
*RES
1 *1099:X *1100:C 11.445 
*END

*D_NET *123 0.000296316
*CONN
*I *1101:A I *D sky130_fd_sc_hd__clkbuf_1
*I *1100:X O *D sky130_fd_sc_hd__and3_1
*CAP
1 *1101:A 8.70569e-05
2 *1100:X 8.70569e-05
3 *1100:A *1101:A 0.000122202
*RES
1 *1100:X *1101:A 4.955 
*END

*D_NET *124 0.00105664
*CONN
*I *1104:B I *D sky130_fd_sc_hd__and3b_1
*I *1102:X O *D sky130_fd_sc_hd__a21o_1
*CAP
1 *1104:B 0.000319017
2 *1102:X 0.000319017
3 *1104:B *1102:B1 0
4 *1104:B *339:10 0.000116702
5 *1104:B *339:23 0.000235382
6 *1104:B *339:59 1.75871e-05
7 *1100:B *1104:B 4.89395e-05
*RES
1 *1102:X *1104:B 13.86 
*END

*D_NET *125 0.0013384
*CONN
*I *1104:C I *D sky130_fd_sc_hd__and3b_1
*I *1109:A2 I *D sky130_fd_sc_hd__a21oi_1
*I *1103:Y O *D sky130_fd_sc_hd__nand3_1
*CAP
1 *1104:C 4.65742e-05
2 *1109:A2 0.000334306
3 *1103:Y 0.000173017
4 *125:8 0.000553897
5 *1104:C *1103:B 2.67022e-05
6 *1109:A2 *1102:B1 0
7 *1109:A2 *1103:B 1.22676e-05
8 *125:8 *1103:B 0.0001249
9 *125:8 *341:6 1.61831e-05
10 *1287:D *1109:A2 5.05521e-05
*RES
1 *1103:Y *125:8 5.775 
2 *125:8 *1109:A2 9.135 
3 *125:8 *1104:C 4.47 
*END

*D_NET *126 0.000985623
*CONN
*I *1105:A I *D sky130_fd_sc_hd__clkbuf_1
*I *1104:X O *D sky130_fd_sc_hd__and3b_1
*CAP
1 *1105:A 0.000422193
2 *1104:X 0.000422193
3 *1105:A *1286:RESET_B 4.46422e-05
4 *1105:A *260:14 3.64998e-06
5 *1105:A *339:6 2.03795e-05
6 *1284:D *1105:A 8.30853e-06
7 *1286:D *1105:A 6.42571e-05
*RES
1 *1104:X *1105:A 13.605 
*END

*D_NET *127 0.000803173
*CONN
*I *1109:A1 I *D sky130_fd_sc_hd__a21oi_1
*I *1106:Y O *D sky130_fd_sc_hd__inv_2
*CAP
1 *1109:A1 0.000307164
2 *1106:Y 0.000307164
3 *1109:A1 *1106:A 4.82863e-05
4 *1109:A1 *1109:B1 4.82863e-05
5 *1287:D *1109:A1 9.22715e-05
*RES
1 *1106:Y *1109:A1 8.15 
*END

*D_NET *128 0.00377891
*CONN
*I *1118:D I *D sky130_fd_sc_hd__and4_2
*I *1115:A2 I *D sky130_fd_sc_hd__a21o_1
*I *1114:C I *D sky130_fd_sc_hd__and3_1
*I *1108:B I *D sky130_fd_sc_hd__or2_1
*I *1111:B I *D sky130_fd_sc_hd__or2_1
*I *1110:B I *D sky130_fd_sc_hd__nand2_1
*I *1107:X O *D sky130_fd_sc_hd__and4_1
*CAP
1 *1118:D 0
2 *1115:A2 0.000134988
3 *1114:C 4.02354e-05
4 *1108:B 0
5 *1111:B 2.6124e-05
6 *1110:B 1.90984e-05
7 *1107:X 4.67751e-05
8 *128:52 0.000249165
9 *128:41 0.000194377
10 *128:34 0.000141432
11 *128:14 0.000263426
12 *128:8 0.000366446
13 *1110:B *257:58 4.00541e-06
14 *1111:B *1111:A 4.82919e-05
15 *1111:B *1112:B 1.61831e-05
16 *1111:B *257:58 0.000124007
17 *1114:C *1064:C 9.53428e-06
18 *1115:A2 *1116:A_N 0.00014102
19 *1115:A2 *1116:C 4.94457e-05
20 *1115:A2 *1117:A 4.82863e-05
21 *1115:A2 *1118:A 8.20052e-05
22 *1115:A2 *1118:B 4.66108e-05
23 *1115:A2 *1120:A2 2.92496e-05
24 *1115:A2 *133:8 8.6076e-05
25 *1115:A2 *136:29 3.73484e-05
26 *1115:A2 *343:27 1.91597e-05
27 *1115:A2 *344:24 7.06347e-05
28 *128:8 *1275:D 8.76033e-05
29 *128:14 *1275:D 0.000360604
30 *128:14 *257:58 8.65961e-05
31 *128:14 *343:51 0
32 *128:34 *1064:C 0.000226953
33 *128:34 *1064:D 4.82863e-05
34 *128:34 *1109:B1 4.58257e-05
35 *128:34 *341:30 1.37328e-05
36 *128:34 *343:38 0.000136838
37 *128:41 *1064:C 7.35729e-05
38 *128:41 *343:38 8.82557e-05
39 *128:52 *133:8 0.000129845
40 *128:52 *136:29 8.64421e-05
41 *128:52 *343:27 2.7441e-05
42 *128:52 *343:38 2.30292e-05
43 *1108:A *128:8 0
44 *1108:A *128:14 0
45 *1108:A *128:34 4.99619e-05
46 *96:14 *128:8 0
*RES
1 *1107:X *128:8 4.725 
2 *128:8 *128:14 6.98 
3 *128:14 *1110:B 1.96 
4 *128:14 *1111:B 2.74 
5 *128:8 *128:34 5.915 
6 *128:34 *1108:B 1.6 
7 *128:34 *128:41 1.485 
8 *128:41 *1114:C 2.47 
9 *128:41 *128:52 3.21 
10 *128:52 *1115:A2 9.695 
11 *128:52 *1118:D 1.6 
*END

*D_NET *129 0.00124907
*CONN
*I *1109:B1 I *D sky130_fd_sc_hd__a21oi_1
*I *1108:X O *D sky130_fd_sc_hd__or2_1
*CAP
1 *1109:B1 0.000420829
2 *1108:X 0.000420829
3 *1109:B1 *1064:A_N 4.82919e-05
4 *1109:B1 *1064:D 2.16833e-05
5 *1109:B1 *341:30 1.91597e-05
6 *1109:B1 *342:10 8.53113e-06
7 *1109:B1 *342:19 0.00012904
8 *1109:B1 *343:38 8.65961e-05
9 *1109:A1 *1109:B1 4.82863e-05
10 *1287:D *1109:B1 0
11 *128:34 *1109:B1 4.58257e-05
*RES
1 *1108:X *1109:B1 13.185 
*END

*D_NET *130 0.00055498
*CONN
*I *1112:B I *D sky130_fd_sc_hd__and3_1
*I *1110:Y O *D sky130_fd_sc_hd__nand2_1
*CAP
1 *1112:B 0.000193808
2 *1110:Y 0.000193808
3 *1112:B *1111:A 7.60965e-05
4 *1112:B *1112:C 4.78458e-05
5 *1112:B *257:58 2.72381e-05
6 *1111:B *1112:B 1.61831e-05
*RES
1 *1110:Y *1112:B 6.77 
*END

*D_NET *131 0.000196812
*CONN
*I *1112:C I *D sky130_fd_sc_hd__and3_1
*I *1111:X O *D sky130_fd_sc_hd__or2_1
*CAP
1 *1112:C 1.78595e-05
2 *1111:X 1.78595e-05
3 *1112:C *257:58 0.000113247
4 *1112:B *1112:C 4.78458e-05
*RES
1 *1111:X *1112:C 4.22 
*END

*D_NET *132 0.000505117
*CONN
*I *1113:A I *D sky130_fd_sc_hd__clkbuf_1
*I *1112:X O *D sky130_fd_sc_hd__and3_1
*CAP
1 *1113:A 0.00023503
2 *1112:X 0.00023503
3 *1288:D *1113:A 3.50571e-05
*RES
1 *1112:X *1113:A 11.175 
*END

*D_NET *133 0.00222564
*CONN
*I *1120:A2 I *D sky130_fd_sc_hd__o21a_1
*I *1116:A_N I *D sky130_fd_sc_hd__and3b_1
*I *1114:X O *D sky130_fd_sc_hd__and3_1
*CAP
1 *1120:A2 0.000263169
2 *1116:A_N 0.000244456
3 *1114:X 6.00348e-05
4 *133:8 0.000567659
5 *1116:A_N *1116:C 8.696e-05
6 *1116:A_N *1117:A 1.08758e-05
7 *1116:A_N *1289:CLK 0
8 *1116:A_N *344:38 0.000124331
9 *1120:A2 *1118:C 0
10 *1120:A2 *1120:A1 5.83121e-06
11 *1120:A2 *1120:B1 8.26793e-05
12 *1120:A2 *345:21 0
13 *133:8 *343:27 0.000308664
14 *1115:A2 *1116:A_N 0.00014102
15 *1115:A2 *1120:A2 2.92496e-05
16 *1115:A2 *133:8 8.6076e-05
17 *1290:D *1120:A2 8.47932e-05
18 *128:52 *133:8 0.000129845
*RES
1 *1114:X *133:8 6.465 
2 *133:8 *1116:A_N 8.22 
3 *133:8 *1120:A2 7.98 
*END

*D_NET *134 0.000622743
*CONN
*I *1116:C I *D sky130_fd_sc_hd__and3b_1
*I *1115:X O *D sky130_fd_sc_hd__a21o_1
*CAP
1 *1116:C 0.000124483
2 *1115:X 0.000124483
3 *1116:C *1117:A 3.13256e-05
4 *1116:C *343:25 8.38605e-05
5 *1116:C *344:18 7.44125e-05
6 *1116:C *344:24 4.77719e-05
7 *1115:A2 *1116:C 4.94457e-05
8 *1116:A_N *1116:C 8.696e-05
*RES
1 *1115:X *1116:C 6.065 
*END

*D_NET *135 0.000732584
*CONN
*I *1117:A I *D sky130_fd_sc_hd__clkbuf_1
*I *1116:X O *D sky130_fd_sc_hd__and3b_1
*CAP
1 *1117:A 0.000172762
2 *1116:X 0.000172762
3 *1117:A *344:18 0.000173634
4 *1117:A *344:24 4.66108e-05
5 *1117:A *344:38 7.63277e-05
6 *1115:A2 *1117:A 4.82863e-05
7 *1116:A_N *1117:A 1.08758e-05
8 *1116:C *1117:A 3.13256e-05
*RES
1 *1116:X *1117:A 7.13 
*END

*D_NET *136 0.0048747
*CONN
*I *1122:A2 I *D sky130_fd_sc_hd__o21ba_1
*I *1121:A2 I *D sky130_fd_sc_hd__a211o_1
*I *1124:A2 I *D sky130_fd_sc_hd__a21o_1
*I *1123:C I *D sky130_fd_sc_hd__nand3_1
*I *1119:B I *D sky130_fd_sc_hd__nor2_1
*I *1118:X O *D sky130_fd_sc_hd__and4_2
*CAP
1 *1122:A2 6.43914e-05
2 *1121:A2 0.000143012
3 *1124:A2 0
4 *1123:C 0
5 *1119:B 0.000174135
6 *1118:X 0
7 *136:53 0.000281286
8 *136:42 0.000285419
9 *136:29 0.000658141
10 *136:4 0.00062074
11 *1119:B *1120:B1 3.66977e-05
12 *1121:A2 *1121:A1 1.61484e-05
13 *1121:A2 *1122:B1_N 7.27003e-05
14 *1121:A2 *346:35 0.000169692
15 *1122:A2 *1122:B1_N 8.74345e-06
16 *1122:A2 *1291:RESET_B 0.000207797
17 *1122:A2 *346:18 0.000169341
18 *136:29 *1065:B_N 0.000136296
19 *136:29 *1118:B 0.000122801
20 *136:29 *1118:C 0.000341591
21 *136:29 *1290:RESET_B 0.000333148
22 *136:29 *1393:A 0
23 *136:29 *345:21 0.000245352
24 *136:42 *1124:B1 0
25 *136:42 *1290:RESET_B 0.000136704
26 *136:42 *260:121 5.7054e-05
27 *136:42 *346:54 0
28 *136:53 *1124:A1 0.000112284
29 *136:53 *1291:RESET_B 0.000133075
30 *136:53 *260:121 3.09164e-05
31 *136:53 *346:18 9.09788e-06
32 *136:53 *346:54 0
33 *1115:A2 *136:29 3.73484e-05
34 *1119:A *1119:B 0
35 *1121:B1 *1121:A2 8.50369e-06
36 *1292:D *136:42 0.000112284
37 *1346:A *1121:A2 3.00381e-05
38 *120:16 *1119:B 3.35139e-05
39 *128:52 *136:29 8.64421e-05
*RES
1 *1118:X *136:4 1.6 
2 *136:4 *1119:B 8.585 
3 *136:4 *136:29 14.015 
4 *136:29 *1123:C 3.6 
5 *136:29 *136:42 4.74 
6 *136:42 *1124:A2 3.6 
7 *136:42 *136:53 2.34 
8 *136:53 *1121:A2 7.185 
9 *136:53 *1122:A2 6 
*END

*D_NET *137 0.0010665
*CONN
*I *1120:B1 I *D sky130_fd_sc_hd__o21a_1
*I *1119:Y O *D sky130_fd_sc_hd__nor2_1
*CAP
1 *1120:B1 0.00043114
2 *1119:Y 0.00043114
3 *1120:B1 *1120:A1 4.82863e-05
4 *1119:B *1120:B1 3.66977e-05
5 *1120:A2 *1120:B1 8.26793e-05
6 *1290:D *1120:B1 3.65579e-05
*RES
1 *1119:Y *1120:B1 13.185 
*END

*D_NET *138 0.000469327
*CONN
*I *1122:B1_N I *D sky130_fd_sc_hd__o21ba_1
*I *1121:X O *D sky130_fd_sc_hd__a211o_1
*CAP
1 *1122:B1_N 0.000163241
2 *1121:X 0.000163241
3 *1122:B1_N *346:18 6.14024e-05
4 *1121:A2 *1122:B1_N 7.27003e-05
5 *1122:A2 *1122:B1_N 8.74345e-06
6 *1346:A *1122:B1_N 0
*RES
1 *1121:X *1122:B1_N 9.975 
*END

*D_NET *139 0.00115313
*CONN
*I *1125:B I *D sky130_fd_sc_hd__and3_1
*I *1123:Y O *D sky130_fd_sc_hd__nand3_1
*CAP
1 *1125:B 0.00036689
2 *1123:Y 0.00036689
3 *1125:B *1065:B_N 8.23697e-05
4 *1125:B *1124:B1 4.77757e-05
5 *1125:B *1290:CLK 2.56752e-06
6 *1125:B *1292:CLK 4.77719e-05
7 *1125:B *238:38 4.2444e-05
8 *1125:B *238:49 1.0555e-05
9 *1125:B *346:54 2.74056e-05
10 *1125:B *347:12 0.000123955
11 *97:14 *1125:B 3.45117e-05
*RES
1 *1123:Y *1125:B 12.765 
*END

*D_NET *140 0.000740321
*CONN
*I *1125:C I *D sky130_fd_sc_hd__and3_1
*I *1124:X O *D sky130_fd_sc_hd__a21o_1
*CAP
1 *1125:C 0.000188698
2 *1124:X 0.000188698
3 *1125:C *1124:B1 0.000162325
4 *1125:C *1126:A 2.45737e-05
5 *1125:C *1292:CLK 6.22166e-05
6 *1292:D *1125:C 5.83121e-06
7 *97:14 *1125:C 0.000107979
*RES
1 *1124:X *1125:C 11.145 
*END

*D_NET *141 0.00118501
*CONN
*I *1126:A I *D sky130_fd_sc_hd__clkbuf_1
*I *1125:X O *D sky130_fd_sc_hd__and3_1
*CAP
1 *1126:A 0.000428987
2 *1125:X 0.000428987
3 *1126:A *1292:CLK 2.86975e-05
4 *1126:A *1394:A 0
5 *1126:A *260:121 0.000141599
6 *1125:C *1126:A 2.45737e-05
7 *1292:D *1126:A 0.000132167
*RES
1 *1125:X *1126:A 13.08 
*END

*D_NET *142 0.00130126
*CONN
*I *1373:A I *D sky130_fd_sc_hd__dlygate4sd3_1
*I *1127:X O *D sky130_fd_sc_hd__mux2_1
*CAP
1 *1373:A 0.000353931
2 *1127:X 0.000353931
3 *1373:A *1128:A 5.30673e-05
4 *1373:A *1387:A 0.000163337
5 *1127:S *1373:A 0.000327033
6 *1255:D *1373:A 4.99619e-05
*RES
1 *1127:X *1373:A 10.22 
*END

*D_NET *143 0.000118089
*CONN
*I *1351:A I *D sky130_fd_sc_hd__dlygate4sd3_1
*I *1129:X O *D sky130_fd_sc_hd__mux2_1
*CAP
1 *1351:A 4.40253e-05
2 *1129:X 4.40253e-05
3 *1351:A *1388:A 3.00381e-05
*RES
1 *1129:X *1351:A 4.01 
*END

*D_NET *144 0.000827547
*CONN
*I *1349:A I *D sky130_fd_sc_hd__dlygate4sd3_1
*I *1131:X O *D sky130_fd_sc_hd__mux2_1
*CAP
1 *1349:A 0.000283209
2 *1131:X 0.000283209
3 *1349:A *1132:A 0.000242872
4 *1349:A *1258:RESET_B 1.82571e-05
*RES
1 *1131:X *1349:A 12.45 
*END

*D_NET *145 0.000599332
*CONN
*I *1358:A I *D sky130_fd_sc_hd__dlygate4sd3_1
*I *1133:X O *D sky130_fd_sc_hd__mux2_1
*CAP
1 *1358:A 0.000170342
2 *1133:X 0.000170342
3 *1358:A *1134:A 0
4 *1358:A *1390:A 8.5242e-05
5 *1358:A *231:31 0.000164874
6 *1358:A *245:14 8.53113e-06
7 *1268:D *1358:A 0
*RES
1 *1133:X *1358:A 10.065 
*END

*D_NET *146 0.000418577
*CONN
*I *1344:A I *D sky130_fd_sc_hd__dlygate4sd3_1
*I *1135:X O *D sky130_fd_sc_hd__mux2_1
*CAP
1 *1344:A 0.000158746
2 *1135:X 0.000158746
3 *1344:A *1135:A1 7.99757e-05
4 *1344:A *1136:A 2.11084e-05
*RES
1 *1135:X *1344:A 6.08 
*END

*D_NET *147 0.000889127
*CONN
*I *1339:A I *D sky130_fd_sc_hd__dlygate4sd3_1
*I *1137:X O *D sky130_fd_sc_hd__mux2_1
*CAP
1 *1339:A 0.000304047
2 *1137:X 0.000304047
3 *1339:A *1392:A 0
4 *1339:A *232:27 0
5 *1339:A *232:35 0.000164874
6 *1339:A *255:40 0.000116158
7 *1339:A *255:83 0
*RES
1 *1137:X *1339:A 12.105 
*END

*D_NET *148 0.00135846
*CONN
*I *1140:A I *D sky130_fd_sc_hd__clkbuf_1
*I *1139:X O *D sky130_fd_sc_hd__mux2_1
*CAP
1 *1140:A 0.00051725
2 *1139:X 0.00051725
3 *1140:A *1261:CLK 4.06643e-05
4 *1140:A *1282:RESET_B 2.75229e-05
5 *1140:A *236:25 2.03321e-05
6 *1140:A *256:62 0
7 *1140:A *256:102 4.21666e-05
8 *1139:S *1140:A 5.05521e-05
9 *1261:D *1140:A 0.000142719
10 *112:99 *1140:A 0
11 *112:103 *1140:A 0
*RES
1 *1139:X *1140:A 16.11 
*END

*D_NET *149 0.000601352
*CONN
*I *1142:A I *D sky130_fd_sc_hd__clkbuf_1
*I *1141:X O *D sky130_fd_sc_hd__mux2_1
*CAP
1 *1142:A 0.000159949
2 *1141:X 0.000159949
3 *1142:A *257:44 0.000190901
4 *1262:D *1142:A 9.05535e-05
*RES
1 *1141:X *1142:A 10.845 
*END

*D_NET *150 0.000423064
*CONN
*I *1144:A I *D sky130_fd_sc_hd__buf_2
*I *1143:X O *D sky130_fd_sc_hd__or3_1
*CAP
1 *1144:A 6.77051e-05
2 *1143:X 6.77051e-05
3 *1144:A *1060:A1 4.77807e-05
4 *1144:A *250:28 0.000132827
5 *1144:A *336:12 4.66108e-05
6 *1144:A *336:38 6.04361e-05
*RES
1 *1143:X *1144:A 9.285 
*END

*D_NET *151 0.0124888
*CONN
*I *1161:A1 I *D sky130_fd_sc_hd__a21oi_1
*I *1155:A I *D sky130_fd_sc_hd__nand2_1
*I *1157:A2 I *D sky130_fd_sc_hd__o211a_1
*I *1156:A3 I *D sky130_fd_sc_hd__a31o_1
*I *1146:A2 I *D sky130_fd_sc_hd__a21oi_1
*I *1147:A0 I *D sky130_fd_sc_hd__mux2_1
*I *1173:A I *D sky130_fd_sc_hd__nand2_1
*I *1159:B1 I *D sky130_fd_sc_hd__o31a_1
*I *1145:A2 I *D sky130_fd_sc_hd__o21ba_1
*I *1144:X O *D sky130_fd_sc_hd__buf_2
*CAP
1 *1161:A1 0
2 *1155:A 0
3 *1157:A2 4.06077e-05
4 *1156:A3 6.25891e-05
5 *1146:A2 0
6 *1147:A0 4.35279e-05
7 *1173:A 0.000699866
8 *1159:B1 0.000104318
9 *1145:A2 0.000181847
10 *1144:X 0.0001081
11 *151:93 0.00028222
12 *151:89 0.000290311
13 *151:60 0.00153292
14 *151:43 0.000893844
15 *151:41 0.00034615
16 *151:33 0.00056005
17 *151:29 0.00051784
18 *151:8 0.000705175
19 *1145:A2 *1074:B_N 0.00027109
20 *1145:A2 *333:54 3.56826e-05
21 *1145:A2 *338:38 0.000104821
22 *1147:A0 *1147:S 1.22325e-05
23 *1156:A3 *1156:A2 3.12916e-05
24 *1156:A3 *1156:B1 2.58336e-05
25 *1156:A3 *1157:B1 4.77719e-05
26 *1156:A3 *1157:C1 5.21868e-05
27 *1156:A3 *314:49 2.68526e-05
28 *1156:A3 *315:10 0.000233126
29 *1157:A2 *1157:B1 1.46781e-05
30 *1159:B1 *1052:A 0
31 *1159:B1 *1153:A3 0.000154013
32 *1159:B1 *316:18 2.75229e-05
33 *1173:A *1166:A2 6.30024e-05
34 *1173:A *1170:A 4.89395e-05
35 *1173:A *1170:B 2.69217e-05
36 *1173:A *1172:A 9.30787e-05
37 *1173:A *1178:A2_N 6.43692e-05
38 *1173:A *174:19 0.000133204
39 *1173:A *174:21 5.31158e-06
40 *1173:A *174:68 0.000126407
41 *1173:A *338:10 0.000393797
42 *151:8 *250:28 0.00015278
43 *151:29 *1161:A2 2.01504e-05
44 *151:29 *1161:B1 4.82863e-05
45 *151:29 *1240:A0 1.01661e-05
46 *151:29 *1370:A 0.00011852
47 *151:29 *250:28 0.000441584
48 *151:33 *1161:A2 2.86975e-05
49 *151:41 *1146:B1 0.000161829
50 *151:41 *1162:A3 0.000313103
51 *151:41 *1163:D 0
52 *151:41 *153:8 0.000119762
53 *151:41 *316:8 0.000355918
54 *151:60 *1147:S 0.000349102
55 *151:60 *1153:A3 0.000345489
56 *151:60 *1153:B1 0
57 *151:60 *234:10 3.54721e-05
58 *151:60 *313:25 0.000257923
59 *151:89 *1163:A 0
60 *151:93 *1157:B1 4.75977e-05
61 *151:93 *314:16 0
62 *1075:A *151:29 0.00011852
63 *1146:A1 *151:41 2.54522e-05
64 *1153:A2 *1156:A3 8.12896e-06
65 *1159:A2 *1159:B1 1.16578e-05
66 *89:6 *1159:B1 4.99619e-05
67 *104:10 *1145:A2 0.000269931
68 *104:30 *151:8 7.15571e-05
69 *104:30 *151:29 3.40433e-05
70 *104:64 *151:29 0.000169591
71 *104:81 *151:29 0.000407242
72 *104:81 *151:89 0
73 *104:81 *151:93 0
74 *112:16 *151:8 0.000154857
*RES
1 *1144:X *151:8 7.02 
2 *151:8 *1145:A2 8.91 
3 *151:8 *151:29 14.75 
4 *151:29 *151:33 3.485 
5 *151:33 *151:41 11.42 
6 *151:41 *151:43 2 
7 *151:43 *1159:B1 5.94 
8 *151:43 *151:60 14.375 
9 *151:60 *1173:A 21.065 
10 *151:60 *1147:A0 2.47 
11 *151:41 *1146:A2 1.6 
12 *151:33 *151:89 1.635 
13 *151:89 *151:93 2.685 
14 *151:93 *1156:A3 6.135 
15 *151:93 *1157:A2 4.215 
16 *151:89 *1155:A 3.6 
17 *151:29 *1161:A1 1.6 
*END

*D_NET *152 0.00181998
*CONN
*I *1146:B1 I *D sky130_fd_sc_hd__a21oi_1
*I *1160:A I *D sky130_fd_sc_hd__or2_1
*I *1145:X O *D sky130_fd_sc_hd__o21ba_1
*CAP
1 *1146:B1 0.000193434
2 *1160:A 2.43002e-05
3 *1145:X 0.000210766
4 *152:8 0.0004285
5 *1146:B1 *1162:A3 1.05827e-05
6 *1146:B1 *164:8 0.000105159
7 *152:8 *1158:A2 0
8 *152:8 *164:8 3.09164e-05
9 *152:8 *335:89 4.18603e-06
10 *152:8 *335:106 0.000139853
11 *1146:A1 *1146:B1 0.000122325
12 *1146:A1 *152:8 0
13 *84:14 *1146:B1 0
14 *84:18 *152:8 0
15 *91:43 *152:8 0.000360611
16 *103:50 *1160:A 2.75145e-05
17 *151:41 *1146:B1 0.000161829
*RES
1 *1145:X *152:8 9.315 
2 *152:8 *1160:A 4.05 
3 *152:8 *1146:B1 7.755 
*END

*D_NET *153 0.00537674
*CONN
*I *1147:A1 I *D sky130_fd_sc_hd__mux2_1
*I *1166:B1 I *D sky130_fd_sc_hd__a32o_1
*I *1181:B1 I *D sky130_fd_sc_hd__a32o_1
*I *1146:Y O *D sky130_fd_sc_hd__a21oi_1
*CAP
1 *1147:A1 0.000148296
2 *1166:B1 6.14403e-06
3 *1181:B1 0.000779387
4 *1146:Y 0.000491058
5 *153:29 0.000208594
6 *153:8 0.0013246
7 *1147:A1 *1166:B2 2.0794e-05
8 *1147:A1 *317:30 0.000134226
9 *1147:A1 *338:10 0.000317367
10 *1166:B1 *1166:A1 2.09749e-05
11 *1166:B1 *1318:A 2.09749e-05
12 *1181:B1 *1178:B1 0.000198658
13 *1181:B1 *1179:B1 0.000111728
14 *1181:B1 *1180:C 1.43191e-05
15 *1181:B1 *1181:A1 1.1534e-05
16 *1181:B1 *1181:A2 2.90156e-05
17 *1181:B1 *174:17 4.66108e-05
18 *1181:B1 *317:36 3.31204e-05
19 *1181:B1 *317:38 9.95272e-05
20 *1181:B1 *319:32 6.20952e-05
21 *1181:B1 *320:8 0.000121643
22 *1181:B1 *320:18 3.37446e-05
23 *1181:B1 *320:83 0.000143928
24 *1181:B1 *338:10 0.000444865
25 *153:8 *1175:A 2.05056e-05
26 *153:8 *1178:A1_N 0.000122337
27 *153:8 *316:8 4.82919e-05
28 *153:29 *317:30 3.96088e-05
29 *153:29 *317:36 5.09008e-05
30 *153:29 *338:10 0.000152127
31 *151:41 *153:8 0.000119762
*RES
1 *1146:Y *153:8 10.95 
2 *153:8 *1181:B1 20.7775 
3 *153:8 *153:29 1.89 
4 *153:29 *1166:B1 3.8025 
5 *153:29 *1147:A1 7.53 
*END

*D_NET *154 0.00012739
*CONN
*I *1148:A I *D sky130_fd_sc_hd__clkbuf_1
*I *1147:X O *D sky130_fd_sc_hd__mux2_1
*CAP
1 *1148:A 6.3695e-05
2 *1147:X 6.3695e-05
*RES
1 *1147:X *1148:A 4.265 
*END

*D_NET *155 0.00599509
*CONN
*I *1158:A2 I *D sky130_fd_sc_hd__o21bai_1
*I *1151:A2 I *D sky130_fd_sc_hd__a21o_1
*I *1150:B I *D sky130_fd_sc_hd__nor2_1
*I *1168:A2 I *D sky130_fd_sc_hd__a21o_1
*I *1177:A2 I *D sky130_fd_sc_hd__o22a_1
*I *1149:X O *D sky130_fd_sc_hd__or2_2
*CAP
1 *1158:A2 0.000297195
2 *1151:A2 0
3 *1150:B 1.53801e-05
4 *1168:A2 0.00027821
5 *1177:A2 0.000469354
6 *1149:X 0.000361507
7 *155:39 0.000355321
8 *155:35 8.03001e-05
9 *155:18 0.000943808
10 *155:10 0.00111459
11 *1150:B *156:8 1.79174e-05
12 *1150:B *338:27 2.69217e-05
13 *1158:A2 *1162:A2 4.8854e-05
14 *1168:A2 *1184:A3 0.00014975
15 *1177:A2 *1052:A 0.000109338
16 *1177:A2 *1055:B 0.000162311
17 *155:10 *1085:C 5.94242e-05
18 *155:10 *335:55 7.27587e-05
19 *155:39 *1153:A3 0.000139245
20 *155:39 *1184:A3 6.54664e-05
21 *1151:A1 *1177:A2 2.05056e-05
22 *1151:A1 *155:35 9.53428e-06
23 *1151:B1 *1177:A2 4.66108e-05
24 *1159:A3 *1177:A2 0.000129735
25 *1184:A2 *1168:A2 5.40823e-05
26 *1186:A3 *1168:A2 9.12494e-06
27 *84:33 *1168:A2 0.000124778
28 *84:33 *155:39 0.000115249
29 *86:27 *1168:A2 0.000121892
30 *89:6 *1177:A2 9.2741e-05
31 *90:10 *1177:A2 0.000139245
32 *103:50 *1158:A2 0.000122801
33 *104:30 *155:10 0.000156474
34 *108:44 *155:10 8.46717e-05
35 *152:8 *1158:A2 0
*RES
1 *1149:X *155:10 10.2375 
2 *155:10 *155:18 7.9625 
3 *155:18 *1177:A2 13.46 
4 *155:18 *155:35 0.36 
5 *155:35 *155:39 4.4 
6 *155:39 *1168:A2 9.5025 
7 *155:39 *1150:B 4.05 
8 *155:35 *1151:A2 1.6 
9 *155:10 *1158:A2 8.7975 
*END

*D_NET *156 0.00410628
*CONN
*I *1153:A3 I *D sky130_fd_sc_hd__a32o_1
*I *1184:A3 I *D sky130_fd_sc_hd__a32o_1
*I *1150:Y O *D sky130_fd_sc_hd__nor2_1
*CAP
1 *1153:A3 0.000657248
2 *1184:A3 0.000129946
3 *1150:Y 7.2571e-05
4 *156:8 0.000859765
5 *1153:A3 *1052:A 0
6 *1153:A3 *1163:B 1.92979e-05
7 *1153:A3 *1163:C 0.000129735
8 *1153:A3 *313:29 8.32328e-05
9 *1153:A3 *313:31 6.42062e-05
10 *1153:A3 *314:55 4.77769e-05
11 *1153:A3 *316:18 0.000177939
12 *1184:A3 *1184:A1 1.48095e-06
13 *156:8 *338:27 3.1562e-06
14 *1150:B *156:8 1.79174e-05
15 *1151:A1 *1153:A3 6.45236e-05
16 *1151:A1 *1184:A3 0.000228773
17 *1151:B1 *1153:A3 0.000114492
18 *1153:A2 *1153:A3 4.77769e-05
19 *1159:A3 *1153:A3 1.34361e-05
20 *1159:B1 *1153:A3 0.000154013
21 *1168:A2 *1184:A3 0.00014975
22 *1184:A2 *1184:A3 3.84608e-05
23 *84:14 *1153:A3 4.59927e-05
24 *84:16 *1153:A3 2.66939e-05
25 *84:33 *1153:A3 3.69251e-05
26 *89:14 *1153:A3 0.000136884
27 *90:10 *1153:A3 5.74367e-05
28 *103:50 *1153:A3 0.000176647
29 *151:60 *1153:A3 0.000345489
30 *155:39 *1153:A3 0.000139245
31 *155:39 *1184:A3 6.54664e-05
*RES
1 *1150:Y *156:8 4.395 
2 *156:8 *1184:A3 7.545 
3 *156:8 *1153:A3 19.725 
*END

*D_NET *157 0.00587706
*CONN
*I *1153:B1 I *D sky130_fd_sc_hd__a32o_1
*I *1166:A1 I *D sky130_fd_sc_hd__a32o_1
*I *1181:A1 I *D sky130_fd_sc_hd__a32o_1
*I *1151:X O *D sky130_fd_sc_hd__a21o_1
*CAP
1 *1153:B1 0.000444108
2 *1166:A1 0.000102158
3 *1181:A1 0.000794872
4 *1151:X 0.000324159
5 *157:23 0.000937676
6 *157:6 0.00151044
7 *1153:B1 *1152:A 0.000214844
8 *1153:B1 *1153:B2 8.52972e-05
9 *1153:B1 *1318:A 7.00889e-06
10 *1153:B1 *166:8 9.4366e-05
11 *1153:B1 *313:12 3.12855e-05
12 *1153:B1 *313:25 7.4445e-05
13 *1166:A1 *1165:B 4.82919e-05
14 *1166:A1 *1166:A3 0.000213262
15 *1166:A1 *1318:A 0.00011146
16 *1181:A1 *1171:A 3.04704e-05
17 *1181:A1 *1179:A3 1.83756e-05
18 *1181:A1 *1181:A2 3.02729e-05
19 *1181:A1 *1181:A3 5.4155e-06
20 *1181:A1 *1181:B2 2.79137e-05
21 *1181:A1 *1334:A 4.30228e-05
22 *1181:A1 *166:27 0.000145106
23 *1181:A1 *320:18 6.79434e-05
24 *157:23 *1052:A 0
25 *157:23 *1169:A2 3.05373e-05
26 *157:23 *166:12 0.000367064
27 *157:23 *316:18 0
28 *1166:B1 *1166:A1 2.09749e-05
29 *1177:A1 *157:23 8.47542e-05
30 *1181:B1 *1181:A1 1.1534e-05
31 *151:60 *1153:B1 0
*RES
1 *1151:X *157:6 5.155 
2 *157:6 *1181:A1 11.545 
3 *157:6 *157:23 12.88 
4 *157:23 *1166:A1 4.48 
5 *157:23 *1153:B1 14.2175 
*END

*D_NET *158 0.000199814
*CONN
*I *1153:B2 I *D sky130_fd_sc_hd__a32o_1
*I *1152:X O *D sky130_fd_sc_hd__xor2_1
*CAP
1 *1153:B2 1.46098e-05
2 *1152:X 1.46098e-05
3 *1153:B2 *313:25 8.52972e-05
4 *1153:B1 *1153:B2 8.52972e-05
*RES
1 *1152:X *1153:B2 3.995 
*END

*D_NET *159 0.00235989
*CONN
*I *1155:B I *D sky130_fd_sc_hd__nand2_1
*I *1161:A2 I *D sky130_fd_sc_hd__a21oi_1
*I *1158:B1_N I *D sky130_fd_sc_hd__o21bai_1
*I *1154:X O *D sky130_fd_sc_hd__and3_1
*CAP
1 *1155:B 5.39699e-05
2 *1161:A2 7.78185e-05
3 *1158:B1_N 0.000381474
4 *1154:X 0.000196132
5 *159:10 0.000579109
6 *159:6 0.000369918
7 *1155:B *1301:CLK 0.000123955
8 *1158:B1_N *1162:A1 1.25877e-05
9 *1158:B1_N *1162:B1 0.000133665
10 *159:6 *1301:CLK 5.68841e-05
11 *159:10 *1162:A1 2.78196e-05
12 *103:50 *1158:B1_N 0.000196669
13 *104:81 *1158:B1_N 6.66907e-05
14 *104:81 *159:10 3.4353e-05
15 *151:29 *1161:A2 2.01504e-05
16 *151:33 *1161:A2 2.86975e-05
*RES
1 *1154:X *159:6 4.12 
2 *159:6 *159:10 3.89 
3 *159:10 *1158:B1_N 10.725 
4 *159:10 *1161:A2 5.115 
5 *159:6 *1155:B 3.355 
*END

*D_NET *160 0.000575959
*CONN
*I *1157:B1 I *D sky130_fd_sc_hd__o211a_1
*I *1155:Y O *D sky130_fd_sc_hd__nand2_1
*CAP
1 *1157:B1 0.000163995
2 *1155:Y 0.000163995
3 *1157:B1 *1157:C1 1.75875e-05
4 *1157:B1 *1301:CLK 2.86975e-05
5 *1157:B1 *315:10 4.12775e-05
6 *1153:A2 *1157:B1 3.20268e-05
7 *1156:A3 *1157:B1 4.77719e-05
8 *1157:A1 *1157:B1 5.12969e-06
9 *1157:A2 *1157:B1 1.46781e-05
10 *104:81 *1157:B1 1.32026e-05
11 *151:93 *1157:B1 4.75977e-05
*RES
1 *1155:Y *1157:B1 10.53 
*END

*D_NET *161 0.000142252
*CONN
*I *1157:C1 I *D sky130_fd_sc_hd__o211a_1
*I *1156:X O *D sky130_fd_sc_hd__a31o_1
*CAP
1 *1157:C1 2.189e-05
2 *1156:X 2.189e-05
3 *1157:C1 *1156:B1 2.86975e-05
4 *1156:A3 *1157:C1 5.21868e-05
5 *1157:B1 *1157:C1 1.75875e-05
*RES
1 *1156:X *1157:C1 4.01 
*END

*D_NET *162 0.000473611
*CONN
*I *1162:A2 I *D sky130_fd_sc_hd__a31oi_1
*I *1158:Y O *D sky130_fd_sc_hd__o21bai_1
*CAP
1 *1162:A2 0.000197194
2 *1158:Y 0.000197194
3 *1162:A2 *1162:A3 2.64607e-05
4 *1162:A2 *164:8 0
5 *1162:A2 *316:8 3.90873e-06
6 *1158:A2 *1162:A2 4.8854e-05
*RES
1 *1158:Y *1162:A2 9.66 
*END

*D_NET *163 7.60921e-05
*CONN
*I *1160:B I *D sky130_fd_sc_hd__or2_1
*I *1159:X O *D sky130_fd_sc_hd__o31a_1
*CAP
1 *1160:B 2.42846e-05
2 *1159:X 2.42846e-05
3 *103:50 *1160:B 2.75229e-05
*RES
1 *1159:X *1160:B 3.65 
*END

*D_NET *164 0.0034925
*CONN
*I *1162:A3 I *D sky130_fd_sc_hd__a31oi_1
*I *1178:A2_N I *D sky130_fd_sc_hd__a2bb2o_1
*I *1160:X O *D sky130_fd_sc_hd__or2_1
*CAP
1 *1162:A3 0.000183428
2 *1178:A2_N 0.00119414
3 *1160:X 6.92033e-05
4 *164:8 0.00144677
5 *1162:A3 *316:8 1.52352e-05
6 *1178:A2_N *230:96 0
7 *1178:A2_N *338:10 3.31217e-05
8 *1146:B1 *1162:A3 1.05827e-05
9 *1146:B1 *164:8 0.000105159
10 *1162:A2 *1162:A3 2.64607e-05
11 *1162:A2 *164:8 0
12 *1173:A *1178:A2_N 6.43692e-05
13 *151:41 *1162:A3 0.000313103
14 *152:8 *164:8 3.09164e-05
*RES
1 *1160:X *164:8 5.1075 
2 *164:8 *1178:A2_N 7.24503 
3 *164:8 *1162:A3 7.6575 
*END

*D_NET *165 0.000408171
*CONN
*I *1162:B1 I *D sky130_fd_sc_hd__a31oi_1
*I *1161:Y O *D sky130_fd_sc_hd__a21oi_1
*CAP
1 *1162:B1 7.9015e-05
2 *1161:Y 7.9015e-05
3 *1162:B1 *1162:A1 0.000108496
4 *1158:B1_N *1162:B1 0.000133665
5 *104:81 *1162:B1 7.98007e-06
*RES
1 *1161:Y *1162:B1 9.39 
*END

*D_NET *166 0.00570253
*CONN
*I *1164:B I *D sky130_fd_sc_hd__or2_1
*I *1165:B I *D sky130_fd_sc_hd__nand2_1
*I *1171:B I *D sky130_fd_sc_hd__and2_1
*I *1179:A3 I *D sky130_fd_sc_hd__a31o_1
*I *1169:A2 I *D sky130_fd_sc_hd__a21o_1
*I *1163:X O *D sky130_fd_sc_hd__and4_1
*CAP
1 *1164:B 0.000117403
2 *1165:B 9.71884e-06
3 *1171:B 0
4 *1179:A3 0.000326508
5 *1169:A2 0.000253194
6 *1163:X 0.000340136
7 *166:27 0.000529909
8 *166:12 0.000738911
9 *166:10 0.000316736
10 *166:8 0.000482241
11 *1164:B *1166:B2 3.94563e-05
12 *1164:B *1318:A 3.72081e-05
13 *1164:B *317:17 3.5678e-06
14 *1164:B *317:30 0
15 *1165:B *1318:A 4.82919e-05
16 *1169:A2 *1051:A 4.28112e-06
17 *1169:A2 *1052:A 0
18 *1169:A2 *1052:C_N 6.38147e-05
19 *1169:A2 *1056:B 0
20 *1169:A2 *1182:D 6.09029e-05
21 *1169:A2 *1185:B1 7.03219e-05
22 *1169:A2 *317:38 0.000109676
23 *1169:A2 *317:40 0.000134227
24 *1169:A2 *318:30 3.75882e-06
25 *1169:A2 *318:47 6.53352e-05
26 *1179:A3 *1177:B1 0
27 *1179:A3 *1179:A2 2.68464e-05
28 *1179:A3 *1179:B1 0.000198622
29 *1179:A3 *174:19 0.000137571
30 *1179:A3 *174:68 0.000197599
31 *1179:A3 *319:106 3.03477e-05
32 *166:8 *1318:A 8.49205e-05
33 *166:10 *1166:B2 2.38449e-05
34 *166:10 *1318:A 1.49561e-05
35 *166:12 *1165:A 4.12825e-05
36 *166:12 *1178:B2 7.00115e-05
37 *166:12 *317:36 0.00020327
38 *166:12 *317:38 0.000186407
39 *166:27 *1172:A 2.75145e-05
40 *1153:B1 *166:8 9.4366e-05
41 *1166:A1 *1165:B 4.82919e-05
42 *1181:A1 *1179:A3 1.83756e-05
43 *1181:A1 *166:27 0.000145106
44 *157:23 *1169:A2 3.05373e-05
45 *157:23 *166:12 0.000367064
*RES
1 *1163:X *166:8 7.845 
2 *166:8 *166:10 0.615 
3 *166:10 *166:12 8.52 
4 *166:12 *1169:A2 9.825 
5 *166:12 *166:27 5.915 
6 *166:27 *1179:A3 12.185 
7 *166:27 *1171:B 1.6 
8 *166:10 *1165:B 4.05 
9 *166:8 *1164:B 5.73 
*END

*D_NET *167 0.000255225
*CONN
*I *1166:A2 I *D sky130_fd_sc_hd__a32o_1
*I *1164:X O *D sky130_fd_sc_hd__or2_1
*CAP
1 *1166:A2 3.85318e-05
2 *1164:X 3.85318e-05
3 *1166:A2 *338:10 0.000115159
4 *1173:A *1166:A2 6.30024e-05
*RES
1 *1164:X *1166:A2 8.58 
*END

*D_NET *168 0.000595458
*CONN
*I *1166:A3 I *D sky130_fd_sc_hd__a32o_1
*I *1165:Y O *D sky130_fd_sc_hd__nand2_1
*CAP
1 *1166:A3 0.000175644
2 *1165:Y 0.000175644
3 *1166:A3 *1318:A 3.09088e-05
4 *1166:A1 *1166:A3 0.000213262
*RES
1 *1165:Y *1166:A3 6.335 
*END

*D_NET *169 0.00219161
*CONN
*I *1174:A1 I *D sky130_fd_sc_hd__o211a_1
*I *1167:X O *D sky130_fd_sc_hd__and4b_1
*CAP
1 *1174:A1 0.00080274
2 *1167:X 0.00080274
3 *1174:A1 *1051:A 0.000109514
4 *1174:A1 *1167:C 3.35221e-05
5 *1174:A1 *1185:A1 9.12494e-06
6 *1174:A1 *258:77 2.53645e-05
7 *1174:A1 *318:14 0.000272903
8 *1053:C *1174:A1 4.77807e-05
9 *1184:A2 *1174:A1 8.35157e-05
10 *93:8 *1174:A1 4.40693e-06
*RES
1 *1167:X *1174:A1 17.655 
*END

*D_NET *170 0.00157454
*CONN
*I *1174:A2 I *D sky130_fd_sc_hd__o211a_1
*I *1185:A1 I *D sky130_fd_sc_hd__a31o_1
*I *1168:X O *D sky130_fd_sc_hd__a21o_1
*CAP
1 *1174:A2 0
2 *1185:A1 0.000163846
3 *1168:X 0.000416179
4 *170:8 0.000580025
5 *1185:A1 *1174:C1 9.59268e-05
6 *170:8 *1169:A1 4.77807e-05
7 *170:8 *1169:B1 0.000107593
8 *170:8 *1174:B1 5.14211e-05
9 *170:8 *1174:C1 4.89395e-05
10 *170:8 *319:38 1.19028e-05
11 *170:8 *319:57 4.1804e-05
12 *1174:A1 *1185:A1 9.12494e-06
*RES
1 *1168:X *170:8 8.62 
2 *170:8 *1185:A1 8.195 
3 *170:8 *1174:A2 1.6 
*END

*D_NET *171 0.000267406
*CONN
*I *1174:B1 I *D sky130_fd_sc_hd__o211a_1
*I *1169:X O *D sky130_fd_sc_hd__a21o_1
*CAP
1 *1174:B1 5.00056e-05
2 *1169:X 5.00056e-05
3 *1174:B1 *1174:C1 4.77807e-05
4 *1174:B1 *319:38 4.80058e-05
5 *1174:B1 *319:57 2.0187e-05
6 *170:8 *1174:B1 5.14211e-05
*RES
1 *1169:X *1174:B1 4.7 
*END

*D_NET *172 0.00195608
*CONN
*I *1179:A2 I *D sky130_fd_sc_hd__a31o_1
*I *1171:A I *D sky130_fd_sc_hd__and2_1
*I *1170:X O *D sky130_fd_sc_hd__and2_1
*CAP
1 *1179:A2 0.000279515
2 *1171:A 8.37385e-05
3 *1170:X 0.00023169
4 *172:10 0.000594943
5 *1171:A *1181:A2 4.77757e-05
6 *1171:A *1181:A3 2.20014e-05
7 *1171:A *1334:A 8.52883e-05
8 *1171:A *320:18 8.41307e-05
9 *1179:A2 *1181:A2 0.000257363
10 *1179:A2 *1270:RESET_B 0
11 *1179:A2 *319:12 1.59888e-05
12 *1179:A2 *320:18 0.000121566
13 *172:10 *319:32 0
14 *172:10 *320:18 9.09788e-06
15 *172:10 *320:22 5.71481e-05
16 *172:10 *320:43 8.52044e-06
17 *1179:A3 *1179:A2 2.68464e-05
18 *1181:A1 *1171:A 3.04704e-05
*RES
1 *1170:X *172:10 6.72 
2 *172:10 *1171:A 5.775 
3 *172:10 *1179:A2 9.27 
*END

*D_NET *173 0.000362366
*CONN
*I *1172:A I *D sky130_fd_sc_hd__clkbuf_2
*I *1171:X O *D sky130_fd_sc_hd__and2_1
*CAP
1 *1172:A 7.0085e-05
2 *1171:X 7.0085e-05
3 *1172:A *174:19 9.30717e-05
4 *1172:A *174:68 8.53113e-06
5 *1173:A *1172:A 9.30787e-05
6 *166:27 *1172:A 2.75145e-05
*RES
1 *1171:X *1172:A 8.775 
*END

*D_NET *174 0.00416488
*CONN
*I *1176:B I *D sky130_fd_sc_hd__nand2_1
*I *1177:B1 I *D sky130_fd_sc_hd__o22a_1
*I *1173:B I *D sky130_fd_sc_hd__nand2_1
*I *1182:D I *D sky130_fd_sc_hd__nand4_1
*I *1183:A3 I *D sky130_fd_sc_hd__a31o_1
*I *1180:C I *D sky130_fd_sc_hd__nand3_1
*I *1172:X O *D sky130_fd_sc_hd__clkbuf_2
*CAP
1 *1176:B 7.62777e-06
2 *1177:B1 0.000169434
3 *1173:B 2.91108e-05
4 *1182:D 0.000431027
5 *1183:A3 0.000168826
6 *1180:C 6.10742e-05
7 *1172:X 0
8 *174:68 0.000298769
9 *174:21 0.000679739
10 *174:19 0.000267702
11 *174:17 0.000301689
12 *174:4 8.23519e-05
13 *1176:B *1176:A 7.34961e-06
14 *1176:B *319:106 3.15452e-05
15 *1177:B1 *1055:B 6.90981e-05
16 *1177:B1 *1176:A 9.53428e-06
17 *1177:B1 *1177:B2 0.000184377
18 *1177:B1 *1178:B1 8.23457e-05
19 *1177:B1 *319:106 1.6408e-05
20 *1180:C *1179:B1 4.77719e-05
21 *1182:D *317:40 6.09029e-05
22 *1183:A3 *1174:C1 0
23 *1183:A3 *1185:A3 4.77757e-05
24 *1183:A3 *320:43 5.1985e-06
25 *1183:A3 *321:37 0.000118114
26 *174:21 *320:43 5.78474e-05
27 *174:68 *319:106 6.27114e-05
28 *1169:A2 *1182:D 6.09029e-05
29 *1172:A *174:19 9.30717e-05
30 *1172:A *174:68 8.53113e-06
31 *1173:A *174:19 0.000133204
32 *1173:A *174:21 5.31158e-06
33 *1173:A *174:68 0.000126407
34 *1179:A3 *1177:B1 0
35 *1179:A3 *174:19 0.000137571
36 *1179:A3 *174:68 0.000197599
37 *1181:B1 *1180:C 1.43191e-05
38 *1181:B1 *174:17 4.66108e-05
39 *1271:D *1183:A3 4.30166e-05
*RES
1 *1172:X *174:4 1.6 
2 *174:4 *1180:C 2.755 
3 *174:4 *174:17 2.45 
4 *174:17 *174:19 3.93 
5 *174:19 *174:21 1.2525 
6 *174:21 *1183:A3 6.4875 
7 *174:21 *1182:D 5.9049 
8 *174:19 *1173:B 4.05 
9 *174:17 *174:68 5.795 
10 *174:68 *1177:B1 6.16 
11 *174:68 *1176:B 2.335 
*END

*D_NET *175 0.000791848
*CONN
*I *1174:C1 I *D sky130_fd_sc_hd__o211a_1
*I *1173:Y O *D sky130_fd_sc_hd__nand2_1
*CAP
1 *1174:C1 0.000180316
2 *1173:Y 0.000180316
3 *1174:C1 *1059:A 9.51328e-05
4 *1174:C1 *1182:A 0.000110791
5 *1174:C1 *320:43 3.26448e-05
6 *1174:B1 *1174:C1 4.77807e-05
7 *1183:A3 *1174:C1 0
8 *1185:A1 *1174:C1 9.59268e-05
9 *170:8 *1174:C1 4.89395e-05
*RES
1 *1173:Y *1174:C1 11.325 
*END

*D_NET *176 0.00055723
*CONN
*I *1178:A1_N I *D sky130_fd_sc_hd__a2bb2o_1
*I *1175:Y O *D sky130_fd_sc_hd__inv_2
*CAP
1 *1178:A1_N 9.98686e-05
2 *1175:Y 9.98686e-05
3 *1178:A1_N *1175:A 0.000235156
4 *153:8 *1178:A1_N 0.000122337
*RES
1 *1175:Y *1178:A1_N 5.72 
*END

*D_NET *177 0.000769188
*CONN
*I *1178:B1 I *D sky130_fd_sc_hd__a2bb2o_1
*I *1176:Y O *D sky130_fd_sc_hd__nand2_1
*CAP
1 *1178:B1 0.00014476
2 *1176:Y 0.00014476
3 *1178:B1 *317:36 0.000169415
4 *1178:B1 *317:38 2.92496e-05
5 *1177:B1 *1178:B1 8.23457e-05
6 *1181:B1 *1178:B1 0.000198658
*RES
1 *1176:Y *1178:B1 10.395 
*END

*D_NET *178 0.000506939
*CONN
*I *1178:B2 I *D sky130_fd_sc_hd__a2bb2o_1
*I *1177:X O *D sky130_fd_sc_hd__o22a_1
*CAP
1 *1178:B2 0.000149095
2 *1177:X 0.000149095
3 *1178:B2 *1175:A 6.87258e-05
4 *1178:B2 *317:36 7.00115e-05
5 *166:12 *1178:B2 7.00115e-05
*RES
1 *1177:X *1178:B2 9.57 
*END

*D_NET *179 0.00127587
*CONN
*I *1181:A2 I *D sky130_fd_sc_hd__a32o_1
*I *1179:X O *D sky130_fd_sc_hd__a31o_1
*CAP
1 *1181:A2 0.000187638
2 *1179:X 0.000187638
3 *1181:A2 *1181:A3 0.000456543
4 *1181:A2 *1181:B2 2.86975e-05
5 *1181:A2 *319:18 2.99137e-05
6 *1181:A2 *320:18 2.10152e-05
7 *1171:A *1181:A2 4.77757e-05
8 *1179:A2 *1181:A2 0.000257363
9 *1181:A1 *1181:A2 3.02729e-05
10 *1181:B1 *1181:A2 2.90156e-05
*RES
1 *1179:X *1181:A2 13.23 
*END

*D_NET *180 0.00130594
*CONN
*I *1181:A3 I *D sky130_fd_sc_hd__a32o_1
*I *1180:Y O *D sky130_fd_sc_hd__nand3_1
*CAP
1 *1181:A3 0.0003967
2 *1180:Y 0.0003967
3 *1181:A3 *319:18 2.85837e-05
4 *1171:A *1181:A3 2.20014e-05
5 *1181:A1 *1181:A3 5.4155e-06
6 *1181:A2 *1181:A3 0.000456543
*RES
1 *1180:Y *1181:A3 13.26 
*END

*D_NET *181 0.000457391
*CONN
*I *1185:A2 I *D sky130_fd_sc_hd__a31o_1
*I *1182:Y O *D sky130_fd_sc_hd__nand4_1
*CAP
1 *1185:A2 7.68528e-05
2 *1182:Y 7.68528e-05
3 *1185:A2 *1182:A 4.66108e-05
4 *1185:A2 *1185:A3 5.19006e-06
5 *1185:A2 *1185:B1 4.95255e-05
6 *1185:A2 *320:43 9.84609e-06
7 *1185:A2 *321:37 0.000192513
*RES
1 *1182:Y *1185:A2 5.39 
*END

*D_NET *182 0.000281321
*CONN
*I *1185:A3 I *D sky130_fd_sc_hd__a31o_1
*I *1183:X O *D sky130_fd_sc_hd__a31o_1
*CAP
1 *1185:A3 4.17345e-05
2 *1183:X 4.17345e-05
3 *1185:A3 *1185:B1 5.19006e-06
4 *1185:A3 *321:37 9.19201e-05
5 *1183:A3 *1185:A3 4.77757e-05
6 *1185:A2 *1185:A3 5.19006e-06
7 *1271:D *1185:A3 4.77757e-05
*RES
1 *1183:X *1185:A3 4.91 
*END

*D_NET *183 0.00178018
*CONN
*I *1185:B1 I *D sky130_fd_sc_hd__a31o_1
*I *1184:X O *D sky130_fd_sc_hd__a32o_1
*CAP
1 *1185:B1 0.000345336
2 *1184:X 0.000345336
3 *1185:B1 *1052:B 8.53011e-05
4 *1185:B1 *1052:C_N 9.78672e-05
5 *1185:B1 *1182:A 2.49909e-05
6 *1185:B1 *1184:A1 0.000308641
7 *1185:B1 *318:47 1.11025e-05
8 *1185:B1 *320:43 0.000195465
9 *1185:B1 *321:37 2.42739e-05
10 *1185:B1 *321:50 0.000122444
11 *1169:A2 *1185:B1 7.03219e-05
12 *1185:A2 *1185:B1 4.95255e-05
13 *1185:A3 *1185:B1 5.19006e-06
14 *86:6 *1185:B1 4.77769e-05
15 *86:27 *1185:B1 4.66108e-05
*RES
1 *1184:X *1185:B1 15.99 
*END

*D_NET *184 0.00752866
*CONN
*I *1222:D I *D sky130_fd_sc_hd__or4_1
*I *1188:A I *D sky130_fd_sc_hd__nor2_1
*I *1196:A2 I *D sky130_fd_sc_hd__o31a_1
*I *1210:D I *D sky130_fd_sc_hd__or4_1
*I *1219:C I *D sky130_fd_sc_hd__or4_1
*I *1213:C I *D sky130_fd_sc_hd__or4_1
*I *1199:C I *D sky130_fd_sc_hd__or4_1
*I *1207:C I *D sky130_fd_sc_hd__or4_1
*I *1216:C I *D sky130_fd_sc_hd__or4_1
*I *1203:C I *D sky130_fd_sc_hd__or4_1
*I *1186:X O *D sky130_fd_sc_hd__o31a_2
*CAP
1 *1222:D 5.3588e-05
2 *1188:A 0.000100462
3 *1196:A2 0
4 *1210:D 1.71225e-05
5 *1219:C 5.77495e-05
6 *1213:C 0
7 *1199:C 9.12359e-05
8 *1207:C 0
9 *1216:C 0
10 *1203:C 9.0266e-05
11 *1186:X 0.000512622
12 *184:96 0.000511254
13 *184:51 0.000245764
14 *184:44 0.000154528
15 *184:26 0.000273618
16 *184:16 0.000290811
17 *184:14 0.000378789
18 *184:12 0.000333427
19 *184:10 0.000261941
20 *184:6 0.00102904
21 *1188:A *1320:A 3.09164e-05
22 *1188:A *185:10 7.09999e-05
23 *1188:A *230:24 0.000283514
24 *1188:A *333:14 0.000116853
25 *1199:C *1199:B 0.000112375
26 *1199:C *1199:D 4.96188e-05
27 *1199:C *188:8 9.23804e-06
28 *1203:C *1203:B 0.000125264
29 *1203:C *1203:D 7.00742e-05
30 *1203:C *193:52 1.85674e-05
31 *1210:D *1062:A3 8.65905e-05
32 *1210:D *1210:C 5.05437e-05
33 *1219:C *199:10 1.56428e-05
34 *1219:C *322:32 8.23457e-05
35 *184:6 *1367:A 3.45679e-05
36 *184:6 *258:60 0.00012809
37 *184:10 *250:28 0.000170535
38 *184:12 *250:28 7.36562e-05
39 *184:14 *1207:D 9.12494e-06
40 *184:14 *199:10 4.28943e-05
41 *184:14 *250:28 0.000179835
42 *184:16 *1207:D 0.000177023
43 *184:26 *1203:B 9.27255e-06
44 *184:26 *1207:D 2.98587e-05
45 *184:26 *250:28 5.68531e-05
46 *184:51 *1207:B 8.23457e-05
47 *184:51 *1207:D 4.66108e-05
48 *184:51 *1213:D 8.53011e-05
49 *184:51 *324:42 0.000203573
50 *184:96 *1084:B2 4.39911e-06
51 *1058:B_N *184:6 2.68526e-05
52 *1213:A *184:51 0.00015856
53 *1216:A *184:26 8.64599e-05
54 *109:8 *184:51 0.000102792
55 *109:51 *1222:D 2.49909e-05
56 *109:51 *184:96 0.000155436
57 *110:55 *1188:A 2.77795e-05
58 *112:16 *184:10 8.70923e-05
*RES
1 *1186:X *184:6 7.57 
2 *184:6 *184:10 5.675 
3 *184:10 *184:12 1.635 
4 *184:12 *184:14 4.44 
5 *184:14 *184:16 2.145 
6 *184:16 *184:26 5.495 
7 *184:26 *1203:C 4.06 
8 *184:26 *1216:C 1.6 
9 *184:16 *184:44 2 
10 *184:44 *1207:C 1.6 
11 *184:44 *184:51 4.59 
12 *184:51 *1199:C 8 
13 *184:51 *1213:C 1.6 
14 *184:14 *1219:C 4.755 
15 *184:12 *1210:D 4.395 
16 *184:10 *1196:A2 3.6 
17 *184:6 *184:96 4.245 
18 *184:96 *1188:A 9.275 
19 *184:96 *1222:D 2.41 
*END

*D_NET *185 0.00115632
*CONN
*I *1188:B I *D sky130_fd_sc_hd__nor2_1
*I *1196:A3 I *D sky130_fd_sc_hd__o31a_1
*I *1187:Y O *D sky130_fd_sc_hd__nor2_1
*CAP
1 *1188:B 0
2 *1196:A3 0.00011366
3 *1187:Y 5.31928e-05
4 *185:10 0.000166853
5 *1196:A3 *1189:A1 3.95698e-05
6 *1196:A3 *1189:A2 5.69147e-05
7 *1196:A3 *1189:B1 0.000124007
8 *1196:A3 *230:41 0.000207628
9 *1188:A *185:10 7.09999e-05
10 *1196:A1 *1196:A3 0.000140005
11 *1196:B1 *1196:A3 4.66108e-05
12 *110:55 *185:10 0.000136884
*RES
1 *1187:Y *185:10 7.235 
2 *185:10 *1196:A3 5.635 
3 *185:10 *1188:B 1.6 
*END

*D_NET *186 0.00184958
*CONN
*I *1190:A2 I *D sky130_fd_sc_hd__a21oi_1
*I *1193:S I *D sky130_fd_sc_hd__mux2_1
*I *1188:Y O *D sky130_fd_sc_hd__nor2_1
*CAP
1 *1190:A2 3.21542e-05
2 *1193:S 0.00018116
3 *1188:Y 0.000203605
4 *186:8 0.000416919
5 *1190:A2 *1190:A1 0.000141599
6 *1190:A2 *311:12 0.000133068
7 *1193:S *1190:A1 7.47215e-05
8 *1193:S *1193:A0 7.70431e-05
9 *1193:S *1331:A 0.000105791
10 *1193:S *311:12 0.000266625
11 *186:8 *1190:B1 0.000216897
*RES
1 *1188:Y *186:8 6.12 
2 *186:8 *1193:S 8.265 
3 *186:8 *1190:A2 5.235 
*END

*D_NET *187 0.00150805
*CONN
*I *1190:B1 I *D sky130_fd_sc_hd__a21oi_1
*I *1189:Y O *D sky130_fd_sc_hd__a21oi_1
*CAP
1 *1190:B1 0.000325402
2 *1189:Y 0.000325402
3 *1190:B1 *1190:A1 9.7335e-05
4 *1190:B1 *1331:A 6.5313e-05
5 *1190:B1 *230:41 0.000232105
6 *1190:B1 *258:38 7.25036e-05
7 *1190:B1 *322:8 4.99619e-05
8 *1190:B1 *322:16 2.32597e-05
9 *1272:D *1190:B1 9.98747e-05
10 *186:8 *1190:B1 0.000216897
*RES
1 *1189:Y *1190:B1 15.195 
*END

*D_NET *188 0.00174081
*CONN
*I *1192:C I *D sky130_fd_sc_hd__and3_1
*I *1213:D I *D sky130_fd_sc_hd__or4_1
*I *1199:D I *D sky130_fd_sc_hd__or4_1
*I *1191:X O *D sky130_fd_sc_hd__or2_1
*CAP
1 *1192:C 0.000171412
2 *1213:D 3.64581e-05
3 *1199:D 7.90531e-05
4 *1191:X 0
5 *188:8 0.000306562
6 *188:6 0.000362463
7 *1192:C *1062:A3 1.70906e-05
8 *1192:C *1193:A0 0.00012904
9 *1192:C *1210:C 0
10 *1192:C *1320:A 3.77199e-05
11 *1192:C *323:16 0.000117327
12 *1199:D *1199:A 0.00012477
13 *188:8 *322:32 9.96427e-06
14 *188:8 *323:16 3.12855e-05
15 *1192:B *1192:C 2.65814e-06
16 *1199:C *1199:D 4.96188e-05
17 *1199:C *188:8 9.23804e-06
18 *110:10 *1192:C 7.06865e-05
19 *110:55 *1192:C 0.000100162
20 *184:51 *1213:D 8.53011e-05
*RES
1 *1191:X *188:6 3.6 
2 *188:6 *188:8 2.91 
3 *188:8 *1199:D 5.685 
4 *188:8 *1213:D 4.395 
5 *188:6 *1192:C 7.695 
*END

*D_NET *189 0.000368841
*CONN
*I *1193:A1 I *D sky130_fd_sc_hd__mux2_1
*I *1192:X O *D sky130_fd_sc_hd__and3_1
*CAP
1 *1193:A1 0.00012325
2 *1192:X 0.00012325
3 *1193:A1 *1062:A3 8.40213e-05
4 *1193:A1 *1193:A0 3.83194e-05
*RES
1 *1192:X *1193:A1 4.685 
*END

*D_NET *190 0.000880119
*CONN
*I *1194:A I *D sky130_fd_sc_hd__clkbuf_1
*I *1193:X O *D sky130_fd_sc_hd__mux2_1
*CAP
1 *1194:A 0.000145206
2 *1193:X 0.000145206
3 *1194:A *1331:A 0.000163428
4 *1194:A *258:38 0.000116628
5 *1194:A *311:12 0.000112408
6 *1194:A *323:10 0.000197243
*RES
1 *1193:X *1194:A 12.45 
*END

*D_NET *191 0.000272993
*CONN
*I *1197:A2 I *D sky130_fd_sc_hd__a21oi_1
*I *1195:X O *D sky130_fd_sc_hd__or2_1
*CAP
1 *1197:A2 5.16695e-05
2 *1195:X 5.16695e-05
3 *1197:A2 *1062:A1 0
4 *1197:A2 *1197:B1 8.6093e-05
5 *1197:A2 *334:8 7.4027e-05
6 *1197:A1 *1197:A2 9.53428e-06
*RES
1 *1195:X *1197:A2 8.685 
*END

*D_NET *192 0.00180935
*CONN
*I *1197:B1 I *D sky130_fd_sc_hd__a21oi_1
*I *1196:X O *D sky130_fd_sc_hd__o31a_1
*CAP
1 *1197:B1 0.000441485
2 *1196:X 0.000441485
3 *1197:B1 *1061:A 4.94474e-05
4 *1197:B1 *1189:A2 0.000218997
5 *1197:B1 *1299:CLK 0.000284569
6 *1197:B1 *232:14 0
7 *1197:B1 *334:8 1.69508e-05
8 *1197:B1 *334:10 5.38986e-06
9 *1063:B1 *1197:B1 3.72916e-05
10 *1167:B *1197:B1 0.000131625
11 *1197:A2 *1197:B1 8.6093e-05
12 *94:6 *1197:B1 9.10874e-05
13 *95:6 *1197:B1 4.9253e-06
*RES
1 *1196:X *1197:B1 16.515 
*END

*D_NET *193 0.00757682
*CONN
*I *1222:C I *D sky130_fd_sc_hd__or4_1
*I *1219:B I *D sky130_fd_sc_hd__or4_1
*I *1210:C I *D sky130_fd_sc_hd__or4_1
*I *1207:B I *D sky130_fd_sc_hd__or4_1
*I *1216:B I *D sky130_fd_sc_hd__or4_1
*I *1203:B I *D sky130_fd_sc_hd__or4_1
*I *1213:B I *D sky130_fd_sc_hd__or4_1
*I *1199:B I *D sky130_fd_sc_hd__or4_1
*I *1198:X O *D sky130_fd_sc_hd__or3_2
*CAP
1 *1222:C 0
2 *1219:B 0
3 *1210:C 0.000295808
4 *1207:B 5.60178e-05
5 *1216:B 0
6 *1203:B 0.00010432
7 *1213:B 0
8 *1199:B 0.000230766
9 *1198:X 0.000157521
10 *193:52 0.000350081
11 *193:40 0.000358778
12 *193:38 0.000352808
13 *193:36 0.000277715
14 *193:14 0.000287806
15 *193:12 0.000673582
16 *193:10 0.000496349
17 *1199:B *1199:A 4.9253e-06
18 *1199:B *1200:S 8.53113e-06
19 *1199:B *1331:A 0
20 *1199:B *1356:A 0
21 *1210:C *1062:A3 6.83538e-05
22 *193:10 *230:24 5.53549e-06
23 *193:10 *258:46 0.000118081
24 *193:10 *311:12 0.000112068
25 *193:10 *333:14 0
26 *193:12 *1320:A 3.57846e-05
27 *193:12 *230:24 0.000195738
28 *193:12 *311:12 0.000841549
29 *193:12 *322:16 9.14049e-05
30 *193:12 *322:18 0.000204463
31 *193:12 *322:20 0.000182674
32 *193:12 *322:32 4.51809e-05
33 *193:36 *1220:S 9.60565e-05
34 *193:36 *322:32 0.000308645
35 *193:52 *1217:S 0.000160635
36 *193:52 *1356:A 0
37 *1192:C *1210:C 0
38 *1196:A1 *1210:C 5.23362e-05
39 *1199:C *1199:B 0.000112375
40 *1203:C *1203:B 0.000125264
41 *1203:C *193:52 1.85674e-05
42 *1210:B *1210:C 0.00013106
43 *1210:D *1210:C 5.05437e-05
44 *1216:A *1203:B 4.9253e-06
45 *1216:A *193:40 2.02316e-05
46 *1216:A *193:52 0.000333351
47 *109:8 *1207:B 4.66108e-05
48 *109:21 *1210:C 6.30012e-05
49 *109:21 *193:40 7.03276e-05
50 *109:32 *1210:C 0.000335434
51 *110:10 *1210:C 0
52 *184:26 *1203:B 9.27255e-06
53 *184:51 *1207:B 8.23457e-05
*RES
1 *1198:X *193:10 6.12 
2 *193:10 *193:12 11.07 
3 *193:12 *193:14 0.87 
4 *193:14 *1199:B 7.47 
5 *193:14 *1213:B 3.6 
6 *193:12 *193:36 5.9 
7 *193:36 *193:38 2 
8 *193:38 *193:40 1.125 
9 *193:40 *193:52 7.655 
10 *193:52 *1203:B 3.085 
11 *193:52 *1216:B 1.6 
12 *193:40 *1207:B 4.755 
13 *193:38 *1210:C 10.815 
14 *193:36 *1219:B 1.6 
15 *193:10 *1222:C 3.6 
*END

*D_NET *194 0.000726272
*CONN
*I *1200:S I *D sky130_fd_sc_hd__mux2_1
*I *1199:X O *D sky130_fd_sc_hd__or4_1
*CAP
1 *1200:S 0.000241166
2 *1199:X 0.000241166
3 *1200:S *1200:A1 2.79099e-05
4 *1200:S *1201:A 0
5 *1200:S *1324:A 2.66586e-05
6 *1200:S *1331:A 4.49328e-05
7 *1200:S *1356:A 0
8 *1200:S *240:10 2.96383e-05
9 *1199:B *1200:S 8.53113e-06
10 *1200:A0 *1200:S 7.23533e-05
11 *1276:D *1200:S 3.39151e-05
*RES
1 *1199:X *1200:S 12.225 
*END

*D_NET *195 0.000243394
*CONN
*I *1201:A I *D sky130_fd_sc_hd__clkbuf_1
*I *1200:X O *D sky130_fd_sc_hd__mux2_1
*CAP
1 *1201:A 6.97079e-05
2 *1200:X 6.97079e-05
3 *1201:A *1200:A1 0
4 *1201:A *1324:A 7.394e-05
5 *1200:S *1201:A 0
6 *1276:D *1201:A 3.00381e-05
*RES
1 *1200:X *1201:A 4.955 
*END

*D_NET *196 0.000401531
*CONN
*I *1216:D I *D sky130_fd_sc_hd__or4_1
*I *1203:D I *D sky130_fd_sc_hd__or4_1
*I *1202:X O *D sky130_fd_sc_hd__or2b_1
*CAP
1 *1216:D 0
2 *1203:D 9.1736e-05
3 *1202:X 7.22415e-05
4 *196:8 0.000163977
5 *1203:D *1203:A 3.50152e-06
6 *1203:C *1203:D 7.00742e-05
*RES
1 *1202:X *196:8 4.725 
2 *196:8 *1203:D 5.025 
3 *196:8 *1216:D 3.6 
*END

*D_NET *197 0.00252327
*CONN
*I *1204:S I *D sky130_fd_sc_hd__mux2_1
*I *1203:X O *D sky130_fd_sc_hd__or4_1
*CAP
1 *1204:S 0.000946964
2 *1203:X 0.000946964
3 *1204:S *1204:A1 0
4 *1204:S *1260:CLK 0.000184849
5 *1204:S *1260:RESET_B 5.87263e-05
6 *1204:S *1276:CLK 1.83847e-05
7 *1204:S *1338:A 0.000271871
8 *1204:A0 *1204:S 5.07419e-05
9 *93:33 *1204:S 4.47648e-05
*RES
1 *1203:X *1204:S 19.935 
*END

*D_NET *198 0.000224499
*CONN
*I *1205:A I *D sky130_fd_sc_hd__clkbuf_1
*I *1204:X O *D sky130_fd_sc_hd__mux2_1
*CAP
1 *1205:A 6.81163e-05
2 *1204:X 6.81163e-05
3 *1205:A *1204:A1 8.8266e-05
*RES
1 *1204:X *1205:A 4.61 
*END

*D_NET *199 0.00112595
*CONN
*I *1219:D I *D sky130_fd_sc_hd__or4_1
*I *1207:D I *D sky130_fd_sc_hd__or4_1
*I *1206:X O *D sky130_fd_sc_hd__or2b_1
*CAP
1 *1219:D 0
2 *1207:D 7.20626e-05
3 *1206:X 0.000158554
4 *199:10 0.000230616
5 *1207:D *250:28 0.000197255
6 *1207:D *324:42 4.77769e-05
7 *199:10 *250:28 5.20193e-05
8 *199:10 *322:32 4.65119e-05
9 *1219:C *199:10 1.56428e-05
10 *184:14 *1207:D 9.12494e-06
11 *184:14 *199:10 4.28943e-05
12 *184:16 *1207:D 0.000177023
13 *184:26 *1207:D 2.98587e-05
14 *184:51 *1207:D 4.66108e-05
*RES
1 *1206:X *199:10 6.045 
2 *199:10 *1207:D 6.45 
3 *199:10 *1219:D 3.6 
*END

*D_NET *200 0.0024193
*CONN
*I *1208:S I *D sky130_fd_sc_hd__mux2_1
*I *1207:X O *D sky130_fd_sc_hd__or4_1
*CAP
1 *1208:S 0.00100231
2 *1207:X 0.00100231
3 *1208:S *1138:A 4.66108e-05
4 *1208:S *1202:A 4.89295e-05
5 *1208:S *1202:B_N 9.47017e-05
6 *1208:S *1209:A 0
7 *1208:S *1274:RESET_B 1.33269e-05
8 *1208:S *255:83 0.000136415
9 *1208:S *324:29 7.46876e-05
*RES
1 *1207:X *1208:S 22.515 
*END

*D_NET *201 0.000218354
*CONN
*I *1209:A I *D sky130_fd_sc_hd__clkbuf_1
*I *1208:X O *D sky130_fd_sc_hd__mux2_1
*CAP
1 *1209:A 6.59468e-05
2 *1208:X 6.59468e-05
3 *1209:A *1208:A1 8.64599e-05
4 *1208:S *1209:A 0
*RES
1 *1208:X *1209:A 4.61 
*END

*D_NET *202 0.00218622
*CONN
*I *1211:S I *D sky130_fd_sc_hd__mux2_1
*I *1210:X O *D sky130_fd_sc_hd__or4_1
*CAP
1 *1211:S 0.000487981
2 *1210:X 0.000487981
3 *1211:S *1062:A1 4.57056e-05
4 *1211:S *1062:A3 0.000233742
5 *1211:S *1279:RESET_B 0.000266963
6 *1063:A1 *1211:S 0.000238919
7 *1063:B1 *1211:S 0.000292676
8 *1300:D *1211:S 5.73163e-05
9 *95:6 *1211:S 7.49327e-05
*RES
1 *1210:X *1211:S 14.12 
*END

*D_NET *203 0.000794421
*CONN
*I *1212:A I *D sky130_fd_sc_hd__clkbuf_1
*I *1211:X O *D sky130_fd_sc_hd__mux2_1
*CAP
1 *1212:A 0.000397211
2 *1211:X 0.000397211
3 *93:14 *1212:A 0
*RES
1 *1211:X *1212:A 13.185 
*END

*D_NET *204 0.00248321
*CONN
*I *1214:S I *D sky130_fd_sc_hd__mux2_1
*I *1213:X O *D sky130_fd_sc_hd__or4_1
*CAP
1 *1214:S 0.000882683
2 *1213:X 0.000882683
3 *1214:S *1214:A1 4.89295e-05
4 *1214:S *1215:A 0.000135002
5 *1214:S *1372:A 0.000158536
6 *1214:A0 *1214:S 4.77757e-05
7 *93:57 *1214:S 4.77719e-05
8 *93:65 *1214:S 0.000279833
*RES
1 *1213:X *1214:S 19.455 
*END

*D_NET *205 0.000529756
*CONN
*I *1215:A I *D sky130_fd_sc_hd__clkbuf_1
*I *1214:X O *D sky130_fd_sc_hd__mux2_1
*CAP
1 *1215:A 0.000167474
2 *1214:X 0.000167474
3 *1215:A *1372:A 4.89295e-05
4 *1214:S *1215:A 0.000135002
5 *1280:D *1215:A 1.08758e-05
*RES
1 *1214:X *1215:A 10.08 
*END

*D_NET *206 0.000614134
*CONN
*I *1217:S I *D sky130_fd_sc_hd__mux2_1
*I *1216:X O *D sky130_fd_sc_hd__or4_1
*CAP
1 *1217:S 0.000161035
2 *1216:X 0.000161035
3 *1217:S *1217:A1 0.000119868
4 *1217:S *1356:A 0
5 *1217:S *250:28 1.1561e-05
6 *193:52 *1217:S 0.000160635
*RES
1 *1216:X *1217:S 10.425 
*END

*D_NET *207 0.000832548
*CONN
*I *1218:A I *D sky130_fd_sc_hd__clkbuf_1
*I *1217:X O *D sky130_fd_sc_hd__mux2_1
*CAP
1 *1218:A 0.000416274
2 *1217:X 0.000416274
3 *1218:A *1276:CLK 0
4 *1218:A *250:20 0
5 *1218:A *250:28 0
6 *1281:D *1218:A 0
*RES
1 *1217:X *1218:A 13.395 
*END

*D_NET *208 0.00341862
*CONN
*I *1220:S I *D sky130_fd_sc_hd__mux2_1
*I *1219:X O *D sky130_fd_sc_hd__or4_1
*CAP
1 *1220:S 0.000984024
2 *1219:X 0.000984024
3 *1220:S *1220:A1 4.89295e-05
4 *1220:S *1273:RESET_B 0
5 *1220:S *235:6 1.91597e-05
6 *1220:S *235:66 1.53053e-05
7 *1220:S *322:32 0.000134515
8 *1220:S *323:10 0.000180874
9 *1220:S *323:16 4.89395e-05
10 *1220:A0 *1220:S 0.000121023
11 *1223:A0 *1220:S 2.06767e-05
12 *1273:D *1220:S 0.000546413
13 *93:65 *1220:S 0.000218676
14 *193:36 *1220:S 9.60565e-05
*RES
1 *1219:X *1220:S 24.885 
*END

*D_NET *209 0.000359328
*CONN
*I *1221:A I *D sky130_fd_sc_hd__clkbuf_1
*I *1220:X O *D sky130_fd_sc_hd__mux2_1
*CAP
1 *1221:A 9.91162e-05
2 *1220:X 9.91162e-05
3 *1221:A *1273:RESET_B 0
4 *1221:A *256:68 2.68464e-05
5 *1223:A0 *1221:A 0.000134249
*RES
1 *1220:X *1221:A 9.285 
*END

*D_NET *210 0.00115327
*CONN
*I *1223:S I *D sky130_fd_sc_hd__mux2_1
*I *1222:X O *D sky130_fd_sc_hd__or4_1
*CAP
1 *1223:S 0.000421735
2 *1222:X 0.000421735
3 *1223:S *1223:A1 4.89295e-05
4 *1223:S *1224:A 0.000239807
5 *1083:A *1223:S 5.83121e-06
6 *1223:A0 *1223:S 1.52352e-05
*RES
1 *1222:X *1223:S 10.325 
*END

*D_NET *211 0.000851612
*CONN
*I *1224:A I *D sky130_fd_sc_hd__clkbuf_1
*I *1223:X O *D sky130_fd_sc_hd__mux2_1
*CAP
1 *1224:A 0.000233107
2 *1223:X 0.000233107
3 *1224:A *1326:A 5.20249e-05
4 *1224:A *235:27 0
5 *1224:A *258:38 9.35656e-05
6 *1223:S *1224:A 0.000239807
*RES
1 *1223:X *1224:A 11.01 
*END

*D_NET *212 0.000402458
*CONN
*I *1227:A2 I *D sky130_fd_sc_hd__o22a_1
*I *1225:Y O *D sky130_fd_sc_hd__inv_2
*CAP
1 *1227:A2 0.000112845
2 *1225:Y 0.000112845
3 *1227:A2 *1227:A1 0.000111189
4 *1227:A2 *1314:CLK 0
5 *1227:B2 *1227:A2 1.89685e-05
6 *114:12 *1227:A2 4.66108e-05
*RES
1 *1225:Y *1227:A2 9.285 
*END

*D_NET *213 0.000755184
*CONN
*I *1227:B1 I *D sky130_fd_sc_hd__o22a_1
*I *1226:Y O *D sky130_fd_sc_hd__a21boi_1
*CAP
1 *1227:B1 0.000142338
2 *1226:Y 0.000142338
3 *1227:B1 *1250:A0 0.000197243
4 *1227:B1 *1314:CLK 5.96684e-05
5 *1079:A1 *1227:B1 2.85623e-05
6 *1227:B2 *1227:B1 0.000138423
7 *106:8 *1227:B1 4.66108e-05
*RES
1 *1226:Y *1227:B1 10.92 
*END

*D_NET *214 0.00122439
*CONN
*I *1234:A3 I *D sky130_fd_sc_hd__a31o_1
*I *1232:A2 I *D sky130_fd_sc_hd__o21a_1
*I *1228:X O *D sky130_fd_sc_hd__and4_1
*CAP
1 *1234:A3 9.45284e-05
2 *1232:A2 3.11861e-05
3 *1228:X 0.000287488
4 *214:6 0.000413203
5 *1232:A2 *1232:A1 1.16578e-05
6 *1234:A3 *1232:B1 3.68682e-05
7 *1234:A3 *1235:A1 0
8 *1234:A3 *237:57 0
9 *1234:A3 *348:25 0
10 *214:6 *1232:A1 0.000224193
11 *214:6 *216:16 0.000125264
*RES
1 *1228:X *214:6 6.535 
2 *214:6 *1232:A2 2.05 
3 *214:6 *1234:A3 7.235 
*END

*D_NET *215 0.00414702
*CONN
*I *1234:B1 I *D sky130_fd_sc_hd__a31o_1
*I *1237:B I *D sky130_fd_sc_hd__nor3b_1
*I *1230:B1 I *D sky130_fd_sc_hd__a41o_1
*I *1229:X O *D sky130_fd_sc_hd__and2b_1
*CAP
1 *1234:B1 4.58535e-05
2 *1237:B 0.000321588
3 *1230:B1 0.000135936
4 *1229:X 0.000271811
5 *215:23 0.00104649
6 *215:10 0.00108679
7 *1230:B1 *1096:B 0.000116158
8 *1230:B1 *260:103 0
9 *1230:B1 *360:14 0.000159755
10 *1234:B1 *1234:A1 0.00011432
11 *1234:B1 *348:25 2.10871e-05
12 *1234:B1 *348:51 1.94182e-05
13 *1237:B *1234:A1 6.89704e-05
14 *1237:B *1237:C_N 4.99619e-05
15 *1237:B *1296:CLK 0
16 *1237:B *237:68 0
17 *1237:B *348:51 0
18 *1237:B *348:67 4.00541e-06
19 *1237:B *349:38 8.43478e-06
20 *1237:B *349:55 3.1562e-06
21 *215:10 *1078:A 1.88904e-05
22 *215:10 *1229:A_N 0.00016063
23 *215:10 *360:10 3.47757e-05
24 *215:10 *360:14 3.05373e-05
25 *215:10 *360:37 1.25121e-05
26 *215:10 *360:56 3.32209e-05
27 *215:23 *349:55 1.9784e-05
28 *1072:B1 *215:10 7.4027e-05
29 *1078:B *215:10 0.000179008
30 *1091:B *1237:B 1.61831e-05
31 *1237:A *1237:B 2.30292e-05
32 *99:30 *215:10 7.06865e-05
*RES
1 *1229:X *215:10 9.27 
2 *215:10 *1230:B1 7.02 
3 *215:10 *215:23 9.35 
4 *215:23 *1237:B 10.745 
5 *215:23 *1234:B1 6.98 
*END

*D_NET *216 0.00234786
*CONN
*I *1231:B I *D sky130_fd_sc_hd__nand2_1
*I *1236:A3 I *D sky130_fd_sc_hd__a31o_1
*I *1230:X O *D sky130_fd_sc_hd__a41o_1
*CAP
1 *1231:B 0
2 *1236:A3 0.000292761
3 *1230:X 0.000499634
4 *216:16 0.000792394
5 *1236:A3 *1236:A1 3.07656e-05
6 *1236:A3 *348:25 5.1875e-05
7 *1236:A3 *348:51 0.000240391
8 *1236:A3 *348:67 9.09788e-06
9 *1236:A3 *349:55 7.01359e-05
10 *216:16 *1234:A2 1.24578e-05
11 *216:16 *348:31 9.13949e-06
12 *1228:C *216:16 0.000200615
13 *1228:D *216:16 1.33293e-05
14 *214:6 *216:16 0.000125264
*RES
1 *1230:X *216:16 12.725 
2 *216:16 *1236:A3 10.775 
3 *216:16 *1231:B 1.6 
*END

*D_NET *217 0.000988228
*CONN
*I *1235:A2 I *D sky130_fd_sc_hd__a21oi_1
*I *1232:B1 I *D sky130_fd_sc_hd__o21a_1
*I *1231:Y O *D sky130_fd_sc_hd__nand2_1
*CAP
1 *1235:A2 2.9682e-05
2 *1232:B1 8.56963e-05
3 *1231:Y 0.00020084
4 *217:6 0.000316219
5 *1232:B1 *1232:A1 1.37328e-05
6 *1232:B1 *1235:A1 9.54399e-05
7 *217:6 *1234:A2 0.000161467
8 *217:6 *1235:B1 1.4399e-05
9 *217:6 *348:31 2.01504e-05
10 *1234:A3 *1232:B1 3.68682e-05
11 *1295:D *1235:A2 1.37328e-05
*RES
1 *1231:Y *217:6 4.81 
2 *217:6 *1232:B1 7.595 
3 *217:6 *1235:A2 2.215 
*END

*D_NET *218 0.000643949
*CONN
*I *1235:A1 I *D sky130_fd_sc_hd__a21oi_1
*I *1233:Y O *D sky130_fd_sc_hd__inv_2
*CAP
1 *1235:A1 0.000246688
2 *1233:Y 0.000246688
3 *1235:A1 *1234:A1 0
4 *1235:A1 *237:57 5.21627e-05
5 *1235:A1 *237:68 2.97004e-06
6 *1235:A1 *348:25 0
7 *1232:B1 *1235:A1 9.54399e-05
8 *1234:A3 *1235:A1 0
*RES
1 *1233:Y *1235:A1 10.665 
*END

*D_NET *219 0.000329
*CONN
*I *1235:B1 I *D sky130_fd_sc_hd__a21oi_1
*I *1234:X O *D sky130_fd_sc_hd__a31o_1
*CAP
1 *1235:B1 0.000154838
2 *1234:X 0.000154838
3 *1295:D *1235:B1 4.9253e-06
4 *217:6 *1235:B1 1.4399e-05
*RES
1 *1234:X *1235:B1 5.045 
*END

*D_NET *220 0.000248404
*CONN
*I *1237:C_N I *D sky130_fd_sc_hd__nor3b_1
*I *1236:X O *D sky130_fd_sc_hd__a31o_1
*CAP
1 *1237:C_N 3.65897e-05
2 *1236:X 3.65897e-05
3 *1237:A *1237:C_N 0.000125262
4 *1237:B *1237:C_N 4.99619e-05
*RES
1 *1236:X *1237:C_N 4.34 
*END

*D_NET *221 0.000224097
*CONN
*I *1239:A I *D sky130_fd_sc_hd__clkbuf_1
*I *1238:X O *D sky130_fd_sc_hd__mux2_1
*CAP
1 *1239:A 0.000112048
2 *1238:X 0.000112048
*RES
1 *1238:X *1239:A 4.955 
*END

*D_NET *222 0.000823177
*CONN
*I *1241:A I *D sky130_fd_sc_hd__clkbuf_1
*I *1240:X O *D sky130_fd_sc_hd__mux2_1
*CAP
1 *1241:A 0.00031321
2 *1240:X 0.00031321
3 *1241:A *1090:A1 3.04704e-05
4 *1241:A *1090:S0 4.19059e-05
5 *1241:A *1240:A0 0
6 *1304:D *1241:A 0.00012438
*RES
1 *1240:X *1241:A 12.705 
*END

*D_NET *223 0.000441481
*CONN
*I *1243:A I *D sky130_fd_sc_hd__clkbuf_1
*I *1242:X O *D sky130_fd_sc_hd__mux2_1
*CAP
1 *1243:A 0.00016354
2 *1242:X 0.00016354
3 *1243:A *1242:A1 0
4 *1243:A *233:86 0
5 *1243:A *233:97 7.75412e-05
6 *1305:D *1243:A 3.68596e-05
*RES
1 *1242:X *1243:A 10.62 
*END

*D_NET *224 0.000766104
*CONN
*I *1245:A I *D sky130_fd_sc_hd__clkbuf_1
*I *1244:X O *D sky130_fd_sc_hd__mux2_1
*CAP
1 *1245:A 0.000191088
2 *1244:X 0.000191088
3 *1245:A *1303:RESET_B 0
4 *1245:A *1306:RESET_B 0
5 *1245:A *1362:A 0.00011852
6 *1245:A *234:23 7.63125e-05
7 *1245:A *234:36 0
8 *1244:S *1245:A 5.05521e-05
9 *1306:D *1245:A 0.000138544
*RES
1 *1244:X *1245:A 11.415 
*END

*D_NET *225 0.000362368
*CONN
*I *1247:A I *D sky130_fd_sc_hd__clkbuf_1
*I *1246:X O *D sky130_fd_sc_hd__mux2_1
*CAP
1 *1247:A 0.000181184
2 *1246:X 0.000181184
*RES
1 *1246:X *1247:A 5.99 
*END

*D_NET *226 0.000249142
*CONN
*I *1249:A I *D sky130_fd_sc_hd__clkbuf_1
*I *1248:X O *D sky130_fd_sc_hd__mux2_1
*CAP
1 *1249:A 8.90059e-05
2 *1248:X 8.90059e-05
3 *114:63 *1249:A 7.11301e-05
*RES
1 *1248:X *1249:A 4.955 
*END

*D_NET *227 0.000424149
*CONN
*I *1251:A I *D sky130_fd_sc_hd__clkbuf_1
*I *1250:X O *D sky130_fd_sc_hd__mux2_1
*CAP
1 *1251:A 0.000112577
2 *1250:X 0.000112577
3 *1251:A *1307:RESET_B 0.000198994
*RES
1 *1250:X *1251:A 5.645 
*END

*D_NET *228 0.000135725
*CONN
*I *1253:A I *D sky130_fd_sc_hd__clkbuf_1
*I *1252:X O *D sky130_fd_sc_hd__mux2_1
*CAP
1 *1253:A 6.78625e-05
2 *1252:X 6.78625e-05
*RES
1 *1252:X *1253:A 4.265 
*END

*D_NET *229 0.00701723
*CONN
*I *1275:D I *D sky130_fd_sc_hd__dfstp_1
*I *1094:X O *D sky130_fd_sc_hd__a311o_1
*CAP
1 *1275:D 0.00216909
2 *1094:X 0.00216909
3 *1275:D *1066:A 0.000301552
4 *1275:D *1072:A1 0
5 *1275:D *1094:B1 1.73877e-05
6 *1275:D *1094:C1 4.82919e-05
7 *1275:D *1095:A 1.03323e-05
8 *1275:D *1095:C 0
9 *1275:D *1103:A 0
10 *1275:D *1107:C 4.2857e-05
11 *1275:D *1107:D 5.2089e-05
12 *1275:D *1141:A1 6.91448e-05
13 *1275:D *1229:B 0.000234674
14 *1275:D *1262:RESET_B 1.48236e-05
15 *1275:D *1275:CLK 8.64488e-05
16 *1275:D *1275:SET_B 0.000381097
17 *1275:D *1394:A 0.000283473
18 *1275:D *236:51 0.000190459
19 *1275:D *238:12 8.0157e-05
20 *1275:D *257:44 0
21 *1275:D *262:54 0
22 *1275:D *262:61 0
23 *1275:D *340:32 0
24 *1275:D *342:10 4.70343e-05
25 *1275:D *342:19 6.14602e-05
26 *1275:D *343:51 0
27 *1275:D *359:19 1.52184e-05
28 *1275:D *360:10 0
29 *1275:D *360:14 0
30 *1275:D *360:37 0
31 *1275:D *360:56 0
32 *1067:A *1275:D 0
33 *1100:C *1275:D 0.000155106
34 *1287:D *1275:D 0
35 *96:14 *1275:D 0
36 *99:10 *1275:D 0
37 *99:22 *1275:D 0.000139238
38 *99:30 *1275:D 0
39 *99:47 *1275:D 0
40 *128:8 *1275:D 8.76033e-05
41 *128:14 *1275:D 0.000360604
*RES
1 *1094:X *1275:D 49.335 
*END

*D_NET *230 0.020158
*CONN
*I *1322:A I *D sky130_fd_sc_hd__clkbuf_16
*I *1323:A I *D sky130_fd_sc_hd__clkbuf_16
*I *1319:A I *D sky130_fd_sc_hd__clkbuf_16
*I *1318:A I *D sky130_fd_sc_hd__clkbuf_16
*I *1321:A I *D sky130_fd_sc_hd__clkbuf_16
*I *1316:A I *D sky130_fd_sc_hd__clkbuf_16
*I *1317:A I *D sky130_fd_sc_hd__clkbuf_16
*I *1320:A I *D sky130_fd_sc_hd__clkbuf_16
*I *1315:X O *D sky130_fd_sc_hd__clkbuf_16
*CAP
1 *1322:A 0
2 *1323:A 0.000300275
3 *1319:A 6.17405e-05
4 *1318:A 0.000319862
5 *1321:A 0.00112096
6 *1316:A 0.000191392
7 *1317:A 0.000436756
8 *1320:A 0.000168829
9 *1315:X 0
10 *230:126 0.000990116
11 *230:96 0.00223461
12 *230:90 0.00277746
13 *230:41 0.00121155
14 *230:24 0.000887358
15 *230:20 0.00269904
16 *230:6 0.00167756
17 *1316:A *258:60 2.75229e-05
18 *1317:A *1211:A1 0.000160635
19 *1317:A *1299:CLK 4.82919e-05
20 *1320:A *1193:A0 7.63204e-05
21 *1320:A *322:16 8.45475e-05
22 *1320:A *322:18 0.000198286
23 *1320:A *322:20 3.09164e-05
24 *1320:A *323:16 4.43871e-06
25 *1321:A *1223:A1 0
26 *1321:A *235:27 0
27 *1323:A *1329:A 0.000123955
28 *1323:A *237:10 0
29 *1323:A *260:8 4.66108e-05
30 *230:20 *1252:A0 0.000120217
31 *230:20 *1301:CLK 0
32 *230:20 *259:12 0
33 *230:24 *333:14 4.07522e-05
34 *230:41 *1189:A2 0.000522495
35 *230:41 *1189:B1 6.6564e-05
36 *230:41 *1190:A1 5.83121e-06
37 *230:41 *1299:CLK 0.000556103
38 *230:41 *334:16 0.000269916
39 *230:90 *1301:CLK 0.000539305
40 *230:126 *237:8 4.71134e-05
41 *230:126 *263:40 1.92979e-05
42 *1063:A2 *1316:A 0
43 *1153:B1 *1318:A 7.00889e-06
44 *1164:B *1318:A 3.72081e-05
45 *1165:B *1318:A 4.82919e-05
46 *1166:A1 *1318:A 0.00011146
47 *1166:A3 *1318:A 3.09088e-05
48 *1166:B1 *1318:A 2.09749e-05
49 *1167:B *1316:A 0.000160536
50 *1178:A2_N *230:96 0
51 *1188:A *1320:A 3.09164e-05
52 *1188:A *230:24 0.000283514
53 *1190:B1 *230:41 0.000232105
54 *1192:C *1320:A 3.77199e-05
55 *1196:A3 *230:41 0.000207628
56 *1223:A0 *1321:A 9.22251e-05
57 *1254:D *230:20 0.000152503
58 *1254:D *230:90 0.000251431
59 *1267:D *1318:A 4.99619e-05
60 *110:55 *1320:A 0
61 *166:8 *1318:A 8.49205e-05
62 *166:10 *1318:A 1.49561e-05
63 *193:10 *230:24 5.53549e-06
64 *193:12 *1320:A 3.57846e-05
65 *193:12 *230:24 0.000195738
*RES
1 *1315:X *230:6 3.6 
2 *230:6 *230:20 5.59063 
3 *230:20 *230:24 4.8125 
4 *230:24 *1320:A 8.04 
5 *230:24 *230:41 15.68 
6 *230:41 *1317:A 8.74 
7 *230:41 *1316:A 9.47 
8 *230:20 *1321:A 8.75217 
9 *230:6 *230:90 8.3525 
10 *230:90 *230:96 3.50903 
11 *230:96 *1318:A 9.225 
12 *230:96 *1319:A 4.395 
13 *230:90 *230:126 7.83123 
14 *230:126 *1323:A 10.19 
15 *230:126 *1322:A 1.6 
*END

*D_NET *231 0.00946929
*CONN
*I *1268:CLK I *D sky130_fd_sc_hd__dfrtp_1
*I *1271:CLK I *D sky130_fd_sc_hd__dfrtp_1
*I *1258:CLK I *D sky130_fd_sc_hd__dfrtp_1
*I *1278:CLK I *D sky130_fd_sc_hd__dfrtp_1
*I *1277:CLK I *D sky130_fd_sc_hd__dfrtp_1
*I *1257:CLK I *D sky130_fd_sc_hd__dfrtp_1
*I *1256:CLK I *D sky130_fd_sc_hd__dfrtp_1
*I *1279:CLK I *D sky130_fd_sc_hd__dfrtp_1
*I *1316:X O *D sky130_fd_sc_hd__clkbuf_16
*CAP
1 *1268:CLK 5.48619e-05
2 *1271:CLK 0.000462564
3 *1258:CLK 3.37454e-05
4 *1278:CLK 0.000173139
5 *1277:CLK 0.000310037
6 *1257:CLK 0
7 *1256:CLK 0.000356977
8 *1279:CLK 0.00037955
9 *1316:X 0.000503091
10 *231:57 0.000942319
11 *231:50 0.000566408
12 *231:35 0.00083634
13 *231:33 0.00054844
14 *231:31 0.00112619
15 *231:27 0.000575897
16 *231:12 0.000882641
17 *1256:CLK *1130:A 0
18 *1256:CLK *261:14 0.000124514
19 *1271:CLK *261:14 0
20 *1277:CLK *1256:RESET_B 4.77719e-05
21 *1277:CLK *1389:A 0.00032915
22 *1277:CLK *244:10 0.000123359
23 *1277:CLK *255:52 0
24 *1278:CLK *244:10 1.19928e-05
25 *1279:CLK *1258:RESET_B 0
26 *1279:CLK *245:14 0
27 *231:12 *258:60 0.000188727
28 *231:31 *1133:A0 4.82919e-05
29 *231:33 *261:14 1.19772e-05
30 *231:35 *261:14 0.00029087
31 *231:57 *244:10 3.64998e-06
32 data_out[3] *1271:CLK 0
33 *1133:S *1268:CLK 2.34379e-05
34 *1133:S *231:31 7.08493e-05
35 *1256:D *1256:CLK 0
36 *1268:D *1268:CLK 3.07877e-05
37 *1268:D *231:12 7.14241e-05
38 *1358:A *231:31 0.000164874
39 *112:31 *1277:CLK 3.52241e-05
40 *112:31 *1279:CLK 0.000140184
*RES
1 *1316:X *231:12 11.4 
2 *231:12 *1279:CLK 9.285 
3 *231:12 *231:27 2 
4 *231:27 *231:31 10.04 
5 *231:31 *231:33 2.4 
6 *231:33 *231:35 8.265 
7 *231:35 *1256:CLK 10.275 
8 *231:35 *231:50 3.485 
9 *231:50 *1257:CLK 1.6 
10 *231:50 *231:57 6.66 
11 *231:57 *1277:CLK 12.275 
12 *231:57 *1278:CLK 4.12 
13 *231:33 *1258:CLK 4.05 
14 *231:31 *1271:CLK 11.355 
15 *231:27 *1268:CLK 2.81875 
*END

*D_NET *232 0.00917489
*CONN
*I *1299:CLK I *D sky130_fd_sc_hd__dfstp_1
*I *1274:CLK I *D sky130_fd_sc_hd__dfrtp_2
*I *1260:CLK I *D sky130_fd_sc_hd__dfrtp_1
*I *1276:CLK I *D sky130_fd_sc_hd__dfrtp_1
*I *1281:CLK I *D sky130_fd_sc_hd__dfrtp_1
*I *1300:CLK I *D sky130_fd_sc_hd__dfrtp_4
*I *1317:X O *D sky130_fd_sc_hd__clkbuf_16
*CAP
1 *1299:CLK 0.000484389
2 *1274:CLK 0
3 *1260:CLK 7.80349e-05
4 *1276:CLK 0.000472306
5 *1281:CLK 1.8855e-05
6 *1300:CLK 0.000203911
7 *1317:X 0
8 *232:35 0.000767172
9 *232:27 0.000592046
10 *232:25 0.000487459
11 *232:14 0.000827726
12 *232:4 0.000858746
13 *1276:CLK *1137:A0 4.22048e-05
14 *1276:CLK *1217:A1 2.75229e-05
15 *1276:CLK *255:20 0.00016031
16 *1281:CLK *1137:A0 9.13949e-06
17 *1299:CLK *1060:A2 1.43774e-05
18 *1299:CLK *1061:A 4.77719e-05
19 *1299:CLK *1085:C 8.33066e-06
20 *1299:CLK *1189:A2 4.77757e-05
21 *1299:CLK *254:10 0.000483756
22 *1299:CLK *258:60 1.49348e-05
23 *232:14 *1279:RESET_B 9.5433e-05
24 *232:14 *334:8 0
25 *232:25 *1279:RESET_B 0
26 *232:25 *255:89 0
27 *232:27 *1138:A 0.00010596
28 *232:35 *1137:A0 0.000324948
29 *232:35 *1137:A1 0.000198945
30 *232:35 *1138:A 0.000171927
31 *232:35 *255:20 8.64421e-05
32 *232:35 *255:40 0.000122155
33 *1060:B1 *1299:CLK 0.000102805
34 *1063:A2 *232:14 0
35 *1137:S *232:35 1.12578e-05
36 *1167:B *1299:CLK 4.47125e-05
37 *1167:B *232:14 1.22676e-05
38 *1197:B1 *1299:CLK 0.000284569
39 *1197:B1 *232:14 0
40 *1204:S *1260:CLK 0.000184849
41 *1204:S *1276:CLK 1.83847e-05
42 *1218:A *1276:CLK 0
43 *1274:D *232:14 3.89528e-05
44 *1299:D *1299:CLK 2.68464e-05
45 *1300:D *1300:CLK 0.00010238
46 *1300:D *232:14 0
47 *1317:A *1299:CLK 4.82919e-05
48 *1339:A *232:27 0
49 *1339:A *232:35 0.000164874
50 *93:14 *232:25 0
51 *93:18 *232:27 0
52 *93:33 *1260:CLK 0.000123286
53 *93:33 *1276:CLK 0.000503194
54 *93:40 *1276:CLK 0.000199541
55 *230:41 *1299:CLK 0.000556103
*RES
1 *1317:X *232:4 1.6 
2 *232:4 *232:14 10.12 
3 *232:14 *1300:CLK 5.155 
4 *232:14 *232:25 6.185 
5 *232:25 *232:27 4.185 
6 *232:27 *232:35 9.785 
7 *232:35 *1281:CLK 1.96 
8 *232:35 *1276:CLK 16.415 
9 *232:27 *1260:CLK 6.465 
10 *232:25 *1274:CLK 3.6 
11 *232:4 *1299:CLK 18.44 
*END

*D_NET *233 0.00808894
*CONN
*I *1307:CLK I *D sky130_fd_sc_hd__dfrtp_1
*I *1303:CLK I *D sky130_fd_sc_hd__dfrtp_1
*I *1305:CLK I *D sky130_fd_sc_hd__dfrtp_1
*I *1263:CLK I *D sky130_fd_sc_hd__dfrtp_2
*I *1298:CLK I *D sky130_fd_sc_hd__dfxtp_1
*I *1297:CLK I *D sky130_fd_sc_hd__dfxtp_1
*I *1267:CLK I *D sky130_fd_sc_hd__dfrtp_2
*I *1269:CLK I *D sky130_fd_sc_hd__dfrtp_4
*I *1270:CLK I *D sky130_fd_sc_hd__dfrtp_2
*I *1318:X O *D sky130_fd_sc_hd__clkbuf_16
*CAP
1 *1307:CLK 0.00033694
2 *1303:CLK 9.76135e-05
3 *1305:CLK 0
4 *1263:CLK 0.000267256
5 *1298:CLK 0
6 *1297:CLK 3.36986e-05
7 *1267:CLK 7.84016e-05
8 *1269:CLK 0
9 *1270:CLK 0.00029049
10 *1318:X 0.000339585
11 *233:97 0.000979761
12 *233:86 0.000781486
13 *233:71 0.00100875
14 *233:60 0.000900299
15 *233:45 0.000660149
16 *233:34 0.000411152
17 *233:12 0.000465371
18 *233:10 0.000615853
19 *1263:CLK *1267:RESET_B 0.000159066
20 *1263:CLK *338:10 0
21 *1270:CLK *261:14 0
22 *1307:CLK *1238:A0 4.23341e-05
23 *233:12 *261:14 0
24 *233:45 *1297:D 3.09164e-05
25 *233:45 *261:14 0
26 *233:60 *1297:D 0.000209179
27 *233:71 *1298:D 1.43717e-05
28 *233:71 *338:10 6.33498e-05
29 *233:97 *1242:A1 7.89767e-05
30 *1243:A *233:86 0
31 *1243:A *233:97 7.75412e-05
32 *1263:D *1263:CLK 3.18305e-05
33 *1303:D *1303:CLK 2.75229e-05
34 *1303:D *1307:CLK 5.86575e-05
35 *1303:D *233:97 2.83921e-05
36 *114:71 *233:97 0
*RES
1 *1318:X *233:10 8.205 
2 *233:10 *233:12 2.655 
3 *233:12 *1270:CLK 8.34 
4 *233:12 *1269:CLK 3.6 
5 *233:10 *233:34 1.635 
6 *233:34 *1267:CLK 4.74 
7 *233:34 *233:45 3.93 
8 *233:45 *1297:CLK 4.05 
9 *233:45 *233:60 8.645 
10 *233:60 *1298:CLK 1.6 
11 *233:60 *233:71 9.365 
12 *233:71 *1263:CLK 8.52 
13 *233:71 *233:86 5.675 
14 *233:86 *1305:CLK 1.6 
15 *233:86 *233:97 11.69 
16 *233:97 *1303:CLK 5.085 
17 *233:97 *1307:CLK 9.36 
*END

*D_NET *234 0.011426
*CONN
*I *1301:CLK I *D sky130_fd_sc_hd__dfrtp_4
*I *1254:CLK I *D sky130_fd_sc_hd__dfrtp_1
*I *1309:CLK I *D sky130_fd_sc_hd__dfrtp_1
*I *1308:CLK I *D sky130_fd_sc_hd__dfrtp_1
*I *1310:CLK I *D sky130_fd_sc_hd__dfrtp_1
*I *1306:CLK I *D sky130_fd_sc_hd__dfrtp_1
*I *1264:CLK I *D sky130_fd_sc_hd__dfrtp_2
*I *1319:X O *D sky130_fd_sc_hd__clkbuf_16
*CAP
1 *1301:CLK 0.000890464
2 *1254:CLK 0.000702388
3 *1309:CLK 2.09808e-05
4 *1308:CLK 3.03009e-05
5 *1310:CLK 0.0006534
6 *1306:CLK 0
7 *1264:CLK 7.81981e-05
8 *1319:X 0
9 *234:62 0.00125593
10 *234:47 0.000674179
11 *234:36 0.00107538
12 *234:23 0.00067347
13 *234:10 0.000742333
14 *234:4 0.00119179
15 *1254:CLK *1293:RESET_B 0
16 *1254:CLK *357:8 6.60261e-06
17 *1264:CLK *1263:RESET_B 6.31373e-05
18 *1301:CLK *1050:A 4.66108e-05
19 *1301:CLK *1050:C_N 4.77807e-05
20 *1301:CLK *1154:A 4.30228e-05
21 *1301:CLK *1154:B 0.000404734
22 *1301:CLK *1154:C 3.312e-05
23 *1301:CLK *259:12 0.000346268
24 *1301:CLK *259:19 0.000381299
25 *1308:CLK *1090:A0 5.83121e-06
26 *1308:CLK *351:6 2.49909e-05
27 *234:10 *259:80 0
28 *234:23 *1303:RESET_B 0
29 *234:23 *259:80 0
30 *234:36 *1090:A0 0
31 *234:36 *1090:A2 0.000184712
32 *234:36 *1305:RESET_B 7.646e-05
33 *234:36 *1306:RESET_B 4.43871e-06
34 *234:36 *353:6 4.99619e-05
35 *234:47 *1090:A0 0
36 *234:47 *1361:A 5.23362e-05
37 *234:62 *1246:A1 0.0001249
38 *234:62 *1359:A 0
39 *234:62 *1361:A 0.000179362
40 *1155:B *1301:CLK 0.000123955
41 *1157:B1 *1301:CLK 2.86975e-05
42 *1245:A *234:23 7.63125e-05
43 *1245:A *234:36 0
44 *1246:S *234:62 0.0003172
45 *1254:D *1301:CLK 0
46 *1264:D *234:10 9.12759e-05
47 *1306:D *234:36 3.18219e-05
48 *1309:D *1254:CLK 1.77595e-05
49 *84:14 *1301:CLK 4.29258e-05
50 *114:71 *234:23 0
51 *151:60 *234:10 3.54721e-05
52 *159:6 *1301:CLK 5.68841e-05
53 *230:20 *1301:CLK 0
54 *230:90 *1301:CLK 0.000539305
*RES
1 *1319:X *234:4 1.6 
2 *234:4 *234:10 6.47 
3 *234:10 *1264:CLK 5.085 
4 *234:10 *234:23 8.225 
5 *234:23 *1306:CLK 1.6 
6 *234:23 *234:36 8.465 
7 *234:36 *1310:CLK 13.02 
8 *234:36 *234:47 1.89 
9 *234:47 *1308:CLK 4.05 
10 *234:47 *234:62 11.945 
11 *234:62 *1309:CLK 1.96 
12 *234:62 *1254:CLK 9.58 
13 *234:4 *1301:CLK 26.42 
*END

*D_NET *235 0.00749669
*CONN
*I *1273:CLK I *D sky130_fd_sc_hd__dfrtp_1
*I *1280:CLK I *D sky130_fd_sc_hd__dfrtp_1
*I *1259:CLK I *D sky130_fd_sc_hd__dfrtp_1
*I *1255:CLK I *D sky130_fd_sc_hd__dfrtp_1
*I *1272:CLK I *D sky130_fd_sc_hd__dfrtp_2
*I *1287:CLK I *D sky130_fd_sc_hd__dfrtp_1
*I *1283:CLK I *D sky130_fd_sc_hd__dfrtp_1
*I *1282:CLK I *D sky130_fd_sc_hd__dfrtp_1
*I *1320:X O *D sky130_fd_sc_hd__clkbuf_16
*CAP
1 *1273:CLK 2.57512e-05
2 *1280:CLK 0.00026312
3 *1259:CLK 7.44823e-05
4 *1255:CLK 0
5 *1272:CLK 9.55887e-05
6 *1287:CLK 0.000623829
7 *1283:CLK 8.29668e-05
8 *1282:CLK 0
9 *1320:X 0.000178754
10 *235:76 0.000400622
11 *235:68 0.000808026
12 *235:66 0.000458424
13 *235:27 0.0014069
14 *235:21 0.000878001
15 *235:10 0.000208959
16 *235:6 0.000519312
17 *1259:CLK *1136:A 4.99619e-05
18 *1273:CLK *311:12 1.79098e-05
19 *1287:CLK *257:28 9.10613e-05
20 *1287:CLK *335:10 0
21 *235:27 *1272:RESET_B 1.71013e-05
22 *235:27 *257:28 5.05981e-05
23 *235:27 *258:38 0
24 *235:66 *1220:A1 0.000123589
25 *235:66 *256:62 5.84072e-05
26 *235:68 *256:53 4.10046e-05
27 *235:68 *256:62 0.000115516
28 *235:76 *1136:A 1.85674e-05
29 *235:76 *1372:A 9.86611e-05
30 *235:76 *256:31 0.000122337
31 *235:76 *256:53 3.18137e-05
32 *1220:A0 *235:6 4.66108e-05
33 *1220:A0 *235:66 8.52883e-05
34 *1220:S *235:6 1.91597e-05
35 *1220:S *235:66 1.53053e-05
36 *1223:A0 *235:10 0.000176527
37 *1223:A0 *235:21 0.00010012
38 *1223:A0 *235:27 0
39 *1224:A *235:27 0
40 *1259:D *1259:CLK 3.00381e-05
41 *1272:D *235:27 2.90102e-05
42 *1280:D *1280:CLK 3.37462e-05
43 *1283:D *1283:CLK 7.11301e-05
44 *1321:A *235:27 0
45 *93:65 *235:10 2.84864e-05
*RES
1 *1320:X *235:6 4.12 
2 *235:6 *235:10 4.4 
3 *235:10 *1282:CLK 3.6 
4 *235:10 *235:21 3.635 
5 *235:21 *235:27 12.11 
6 *235:27 *1283:CLK 5.1 
7 *235:27 *1287:CLK 13.53 
8 *235:21 *1272:CLK 3.115 
9 *235:6 *235:66 6.065 
10 *235:66 *235:68 4.695 
11 *235:68 *235:76 7.955 
12 *235:76 *1255:CLK 1.6 
13 *235:76 *1259:CLK 3.085 
14 *235:68 *1280:CLK 6.735 
15 *235:66 *1273:CLK 4.05 
*END

*D_NET *236 0.00634133
*CONN
*I *1289:CLK I *D sky130_fd_sc_hd__dfrtp_1
*I *1275:CLK I *D sky130_fd_sc_hd__dfstp_1
*I *1288:CLK I *D sky130_fd_sc_hd__dfrtp_1
*I *1262:CLK I *D sky130_fd_sc_hd__dfrtp_1
*I *1302:CLK I *D sky130_fd_sc_hd__dfrtp_4
*I *1261:CLK I *D sky130_fd_sc_hd__dfrtp_1
*I *1321:X O *D sky130_fd_sc_hd__clkbuf_16
*CAP
1 *1289:CLK 0.000165785
2 *1275:CLK 0.000272122
3 *1288:CLK 0
4 *1262:CLK 0
5 *1302:CLK 0.000252022
6 *1261:CLK 0.000137389
7 *1321:X 4.78063e-05
8 *236:62 0.000883747
9 *236:51 0.000813847
10 *236:27 0.000286825
11 *236:25 0.000593237
12 *236:8 0.000375622
13 *1275:CLK *1394:A 4.88478e-05
14 *1289:CLK *343:12 6.31865e-05
15 *1302:CLK *1141:A0 0.000121659
16 *1302:CLK *1141:A1 5.75537e-05
17 *236:25 *257:44 8.37253e-05
18 *236:51 *1141:A1 0.000119059
19 *236:62 *1288:RESET_B 0.000101735
20 *236:62 *343:12 2.68464e-05
21 *1116:A_N *1289:CLK 0
22 *1140:A *1261:CLK 4.06643e-05
23 *1140:A *236:25 2.03321e-05
24 *1261:D *1261:CLK 0.000200481
25 *1261:D *236:25 6.38291e-05
26 *1262:D *1302:CLK 0.000121036
27 *1262:D *236:27 6.14645e-05
28 *1275:D *1275:CLK 8.64488e-05
29 *1275:D *236:51 0.000190459
30 *112:86 *1302:CLK 0.000124406
31 *112:99 *1261:CLK 0.000276057
32 *112:99 *1302:CLK 0.000126366
33 *112:99 *236:25 0.000485586
34 *112:99 *236:27 6.81928e-05
35 *112:99 *236:51 2.49909e-05
*RES
1 *1321:X *236:8 4.05 
2 *236:8 *1261:CLK 7.92 
3 *236:8 *236:25 7.715 
4 *236:25 *236:27 1.14 
5 *236:27 *1302:CLK 7.93 
6 *236:27 *1262:CLK 1.6 
7 *236:25 *236:51 11.845 
8 *236:51 *1288:CLK 1.6 
9 *236:51 *236:62 9.365 
10 *236:62 *1275:CLK 8.325 
11 *236:62 *1289:CLK 6.3 
*END

*D_NET *237 0.00509713
*CONN
*I *1296:CLK I *D sky130_fd_sc_hd__dfrtp_1
*I *1304:CLK I *D sky130_fd_sc_hd__dfrtp_1
*I *1295:CLK I *D sky130_fd_sc_hd__dfrtp_2
*I *1294:CLK I *D sky130_fd_sc_hd__dfrtp_4
*I *1265:CLK I *D sky130_fd_sc_hd__dfrtp_1
*I *1284:CLK I *D sky130_fd_sc_hd__dfrtp_4
*I *1266:CLK I *D sky130_fd_sc_hd__dfrtp_1
*I *1286:CLK I *D sky130_fd_sc_hd__dfrtp_1
*I *1322:X O *D sky130_fd_sc_hd__clkbuf_16
*CAP
1 *1296:CLK 0.000342217
2 *1304:CLK 0.000151382
3 *1295:CLK 2.22788e-05
4 *1294:CLK 2.06967e-05
5 *1265:CLK 0.000253346
6 *1284:CLK 0
7 *1266:CLK 5.66328e-05
8 *1286:CLK 0.000227683
9 *1322:X 0.000190187
10 *237:68 0.000620141
11 *237:57 0.000389893
12 *237:41 0.000274043
13 *237:39 0.00034665
14 *237:25 0.000137204
15 *237:10 0.000601124
16 *237:8 0.000588636
17 *1265:CLK *260:52 0.000194914
18 *1286:CLK *1331:A 0
19 *1294:CLK *260:52 3.69049e-05
20 *1296:CLK *263:40 0
21 *1296:CLK *348:67 6.0011e-05
22 *1304:CLK *349:38 0.000123295
23 *237:10 *1252:A0 0
24 *237:10 *1331:A 0
25 *237:10 *263:40 0
26 *237:57 *263:40 0
27 *237:68 *1234:A1 0
28 *237:68 *263:40 0
29 *1091:B *1296:CLK 0
30 *1234:A3 *237:57 0
31 *1235:A1 *237:57 5.21627e-05
32 *1235:A1 *237:68 2.97004e-06
33 *1237:B *1296:CLK 0
34 *1237:B *237:68 0
35 *1284:D *237:25 3.64998e-06
36 *1294:D *237:57 3.89366e-05
37 *1295:D *1295:CLK 4.82863e-05
38 *1296:D *1296:CLK 9.30787e-05
39 *1315:A *1286:CLK 0.000163707
40 *1315:A *237:10 9.98943e-06
41 *1323:A *237:10 0
42 *230:126 *237:8 4.71134e-05
*RES
1 *1322:X *237:8 5.775 
2 *237:8 *237:10 4.695 
3 *237:10 *1286:CLK 7.575 
4 *237:10 *237:25 3.14 
5 *237:25 *1266:CLK 2.395 
6 *237:25 *1284:CLK 1.6 
7 *237:8 *237:39 1.635 
8 *237:39 *237:41 2 
9 *237:41 *1265:CLK 5.845 
10 *237:41 *1294:CLK 2.05 
11 *237:39 *237:57 4.185 
12 *237:57 *1295:CLK 4.05 
13 *237:57 *237:68 1.89 
14 *237:68 *1304:CLK 6.465 
15 *237:68 *1296:CLK 9.525 
*END

*D_NET *238 0.0104662
*CONN
*I *1314:CLK I *D sky130_fd_sc_hd__dfrtp_1
*I *1293:CLK I *D sky130_fd_sc_hd__dfrtp_1
*I *1311:CLK I *D sky130_fd_sc_hd__dfstp_1
*I *1313:CLK I *D sky130_fd_sc_hd__dfrtp_1
*I *1291:CLK I *D sky130_fd_sc_hd__dfrtp_1
*I *1312:CLK I *D sky130_fd_sc_hd__dfrtp_2
*I *1292:CLK I *D sky130_fd_sc_hd__dfrtp_1
*I *1290:CLK I *D sky130_fd_sc_hd__dfrtp_1
*I *1285:CLK I *D sky130_fd_sc_hd__dfrtp_2
*I *1323:X O *D sky130_fd_sc_hd__clkbuf_16
*CAP
1 *1314:CLK 0.000183453
2 *1293:CLK 0.000193626
3 *1311:CLK 0
4 *1313:CLK 9.57324e-05
5 *1291:CLK 0.00010342
6 *1312:CLK 2.22788e-05
7 *1292:CLK 7.29866e-05
8 *1290:CLK 0.000304433
9 *1285:CLK 0
10 *1323:X 0.000207527
11 *238:97 0.00122663
12 *238:86 0.0012256
13 *238:71 0.000735947
14 *238:60 0.000503494
15 *238:49 0.00056885
16 *238:38 0.000555004
17 *238:23 0.000988994
18 *238:12 0.000820741
19 *1312:CLK *1312:D 4.82863e-05
20 *1314:CLK *1077:A 3.19954e-05
21 *1314:CLK *1088:A 0
22 *1314:CLK *359:19 0
23 *238:12 *340:30 0.000132752
24 *238:12 *340:32 3.72081e-05
25 *238:23 *1065:A_N 2.99026e-05
26 *238:23 *1098:A 6.89924e-06
27 *238:23 *1285:RESET_B 4.11729e-05
28 *238:23 *340:8 0.00027109
29 *238:38 *1285:RESET_B 0
30 *238:49 *1285:RESET_B 0
31 *238:60 *1072:A1 0
32 *238:60 *361:23 0
33 *238:71 *361:23 0
34 *238:86 *1368:A 7.27704e-06
35 *238:97 *1068:A 9.23872e-05
36 *238:97 *1068:B_N 2.75145e-05
37 *238:97 *359:6 1.60083e-05
38 *1069:A2 *238:86 0.000199184
39 *1069:B1_N *1314:CLK 1.08758e-05
40 *1100:C *238:12 0.000155106
41 *1125:A *1292:CLK 5.83121e-06
42 *1125:B *1290:CLK 2.56752e-06
43 *1125:B *1292:CLK 4.77719e-05
44 *1125:B *238:38 4.2444e-05
45 *1125:B *238:49 1.0555e-05
46 *1125:C *1292:CLK 6.22166e-05
47 *1126:A *1292:CLK 2.86975e-05
48 *1226:A1 *1314:CLK 4.77769e-05
49 *1226:A2 *1314:CLK 1.64067e-05
50 *1227:A2 *1314:CLK 0
51 *1227:B1 *1314:CLK 5.96684e-05
52 *1275:D *238:12 8.0157e-05
53 *1290:D *1290:CLK 1.92386e-05
54 *1293:D *1293:CLK 0.000118765
55 *1311:D *238:86 4.82863e-05
56 *1311:D *238:97 9.68886e-05
57 *1313:D *1313:CLK 1.77665e-05
58 *97:14 *1292:CLK 3.00141e-05
59 *100:10 *1314:CLK 0.000154269
60 *119:10 *238:49 0
61 *119:10 *238:60 0
62 *119:12 *238:49 0
63 *120:10 *1290:CLK 0.000221846
64 *120:10 *238:38 8.12784e-05
65 *120:16 *1290:CLK 0.000357399
*RES
1 *1323:X *238:12 10.07 
2 *238:12 *1285:CLK 1.6 
3 *238:12 *238:23 9.965 
4 *238:23 *1290:CLK 10.89 
5 *238:23 *238:38 1.635 
6 *238:38 *1292:CLK 5.43 
7 *238:38 *238:49 6.225 
8 *238:49 *1312:CLK 4.05 
9 *238:49 *238:60 2.145 
10 *238:60 *1291:CLK 5.085 
11 *238:60 *238:71 4.185 
12 *238:71 *1313:CLK 5.085 
13 *238:71 *238:86 8.675 
14 *238:86 *1311:CLK 1.6 
15 *238:86 *238:97 10.395 
16 *238:97 *1293:CLK 4.825 
17 *238:97 *1314:CLK 9.32 
*END

*D_NET *239 0.00325774
*CONN
*I *1238:A0 I *D sky130_fd_sc_hd__mux2_1
*I *1375:X O *D sky130_fd_sc_hd__clkbuf_1
*CAP
1 *1238:A0 0.0016077
2 *1375:X 0.0016077
3 *1307:CLK *1238:A0 4.23341e-05
4 *1307:D *1238:A0 0
*RES
1 *1375:X *1238:A0 26.325 
*END

*D_NET *240 0.00726049
*CONN
*I *1331:A I *D sky130_fd_sc_hd__clkbuf_2
*I *1327:A I *D sky130_fd_sc_hd__buf_2
*I *1376:X O *D sky130_fd_sc_hd__buf_1
*CAP
1 *1331:A 0.00147279
2 *1327:A 0.00016092
3 *1376:X 0.000378251
4 *240:10 0.00201196
5 *1327:A *1372:A 4.99619e-05
6 *1327:A *258:8 0.000112631
7 *1331:A *1190:A1 0.000210151
8 *1331:A *1252:A0 0.00125095
9 *1331:A *1301:RESET_B 0.000207459
10 *1331:A *1302:RESET_B 9.12857e-06
11 *1331:A *1329:A 1.62913e-05
12 *1331:A *258:10 0
13 *1331:A *258:38 0
14 *1331:A *263:21 2.67184e-05
15 *1331:A *311:12 0.000214054
16 *240:10 *1324:A 0
17 *240:10 *1356:A 0
18 *240:10 *258:10 0
19 *1083:A *1331:A 0.000173869
20 *1083:B *1331:A 2.14995e-05
21 *1083:C *1331:A 1.10951e-05
22 *1084:B1 *1331:A 0.000239139
23 *1190:B1 *1331:A 6.5313e-05
24 *1193:S *1331:A 0.000105791
25 *1194:A *1331:A 0.000163428
26 *1199:B *1331:A 0
27 *1200:A0 *240:10 3.86529e-05
28 *1200:S *1331:A 4.49328e-05
29 *1200:S *240:10 2.96383e-05
30 *1272:D *1331:A 7.4027e-05
31 *1286:CLK *1331:A 0
32 *1315:A *1331:A 0
33 *93:57 *1327:A 0.000171845
34 *237:10 *1331:A 0
*RES
1 *1376:X *240:10 8.76 
2 *240:10 *1327:A 7.86 
3 *240:10 *1331:A 39.285 
*END

*D_NET *241 0.000742706
*CONN
*I *1297:D I *D sky130_fd_sc_hd__dfxtp_1
*I *1377:X O *D sky130_fd_sc_hd__clkbuf_1
*CAP
1 *1297:D 0.000235674
2 *1377:X 0.000235674
3 *1297:D *261:14 0
4 *1377:A *1297:D 3.12639e-05
5 *233:45 *1297:D 3.09164e-05
6 *233:60 *1297:D 0.000209179
*RES
1 *1377:X *1297:D 12.0787 
*END

*D_NET *242 0.00288243
*CONN
*I *1387:A I *D sky130_fd_sc_hd__clkbuf_4
*I *1127:A1 I *D sky130_fd_sc_hd__mux2_1
*I *1255:Q O *D sky130_fd_sc_hd__dfrtp_1
*CAP
1 *1387:A 0.000391511
2 *1127:A1 9.64608e-05
3 *1255:Q 0.000349593
4 *242:12 0.000837565
5 *1127:A1 *1127:A0 4.89295e-05
6 *1127:A1 *270:6 0.00011138
7 *1387:A *1128:A 8.8266e-05
8 *1387:A *270:6 4.77757e-05
9 *242:12 *1200:A1 0.000241719
10 *242:12 *256:31 1.17864e-05
11 data_out[0] *1387:A 0.000201508
12 *1127:S *1127:A1 2.20014e-05
13 *1127:S *1387:A 0.000270601
14 *1373:A *1387:A 0.000163337
*RES
1 *1255:Q *242:12 10.355 
2 *242:12 *1127:A1 3.43 
3 *242:12 *1387:A 10.735 
*END

*D_NET *243 0.00122238
*CONN
*I *1129:A1 I *D sky130_fd_sc_hd__mux2_1
*I *1388:A I *D sky130_fd_sc_hd__clkbuf_4
*I *1256:Q O *D sky130_fd_sc_hd__dfrtp_1
*CAP
1 *1129:A1 2.10704e-05
2 *1388:A 0.000294335
3 *1256:Q 0.000186034
4 *243:12 0.000501439
5 *1129:A1 *1129:A0 2.23589e-05
6 *1388:A *1129:A0 1.16578e-05
7 *1388:A *1130:A 8.5841e-05
8 *243:12 *1130:A 0
9 *243:12 *1256:RESET_B 6.96036e-05
10 *243:12 *1389:A 0
11 *1351:A *1388:A 3.00381e-05
*RES
1 *1256:Q *243:12 8.12 
2 *243:12 *1388:A 6.895 
3 *243:12 *1129:A1 2.05 
*END

*D_NET *244 0.00208799
*CONN
*I *1131:A1 I *D sky130_fd_sc_hd__mux2_1
*I *1389:A I *D sky130_fd_sc_hd__clkbuf_4
*I *1257:Q O *D sky130_fd_sc_hd__dfrtp_1
*CAP
1 *1131:A1 5.51593e-05
2 *1389:A 0.000228504
3 *1257:Q 9.92872e-05
4 *244:10 0.00038295
5 *1131:A1 *1131:A0 4.60061e-05
6 *1389:A *1129:A0 8.64421e-05
7 *1129:S *1389:A 0.000161977
8 *1131:S *1131:A1 4.32699e-05
9 *1277:CLK *1389:A 0.00032915
10 *1277:CLK *244:10 0.000123359
11 *1278:CLK *244:10 1.19928e-05
12 *112:31 *244:10 0.000123359
13 *112:33 *1389:A 0.000383791
14 *112:33 *244:10 9.09788e-06
15 *231:57 *244:10 3.64998e-06
16 *243:12 *1389:A 0
*RES
1 *1257:Q *244:10 5.685 
2 *244:10 *1389:A 10.62 
3 *244:10 *1131:A1 4.755 
*END

*D_NET *245 0.00167585
*CONN
*I *1390:A I *D sky130_fd_sc_hd__clkbuf_4
*I *1133:A1 I *D sky130_fd_sc_hd__mux2_1
*I *1258:Q O *D sky130_fd_sc_hd__dfrtp_1
*CAP
1 *1390:A 0.000449794
2 *1133:A1 0
3 *1258:Q 0.000215549
4 *245:14 0.000665342
5 *245:14 *1133:A0 0.000251397
6 *245:14 *1134:A 0
7 *1279:CLK *245:14 0
8 *1358:A *1390:A 8.5242e-05
9 *1358:A *245:14 8.53113e-06
*RES
1 *1258:Q *245:14 7.44 
2 *245:14 *1133:A1 3.6 
3 *245:14 *1390:A 10.005 
*END

*D_NET *246 0.0033537
*CONN
*I *1391:A I *D sky130_fd_sc_hd__clkbuf_4
*I *1135:A1 I *D sky130_fd_sc_hd__mux2_1
*I *1259:Q O *D sky130_fd_sc_hd__dfrtp_1
*CAP
1 *1391:A 0.000945761
2 *1135:A1 0.000565606
3 *1259:Q 0
4 *246:4 0.00151137
5 *1135:A1 *1136:A 0.000241483
6 *1344:A *1135:A1 7.99757e-05
7 *1378:A *1391:A 9.50342e-06
*RES
1 *1259:Q *246:4 1.6 
2 *246:4 *1135:A1 13.37 
3 *246:4 *1391:A 16.415 
*END

*D_NET *247 0.00127847
*CONN
*I *1338:A I *D sky130_fd_sc_hd__dlygate4sd3_1
*I *1392:A I *D sky130_fd_sc_hd__clkbuf_4
*I *1260:Q O *D sky130_fd_sc_hd__dfrtp_1
*CAP
1 *1338:A 9.59781e-05
2 *1392:A 0.000281345
3 *1260:Q 0
4 *247:4 0.000377323
5 *1338:A *1260:RESET_B 4.80285e-05
6 *1392:A *1137:A1 9.30787e-05
7 *1392:A *255:20 1.1561e-05
8 *1392:A *255:40 0
9 *1392:A *255:83 2.42236e-05
10 *1204:S *1338:A 0.000271871
11 *1281:D *1392:A 0
12 *1339:A *1392:A 0
13 *93:33 *1338:A 7.50574e-05
*RES
1 *1260:Q *247:4 1.6 
2 *247:4 *1392:A 10.295 
3 *247:4 *1338:A 4.735 
*END

*D_NET *248 0.00583572
*CONN
*I *1393:A I *D sky130_fd_sc_hd__clkbuf_4
*I *1139:A1 I *D sky130_fd_sc_hd__mux2_1
*I *1261:Q O *D sky130_fd_sc_hd__dfrtp_1
*CAP
1 *1393:A 0.00177184
2 *1139:A1 0.000339795
3 *1261:Q 0
4 *248:4 0.00211163
5 *1139:A1 *1139:A0 4.82863e-05
6 *1139:A1 *256:102 0.000168924
7 *1139:A1 *256:116 2.97004e-06
8 *1393:A *1290:RESET_B 0
9 *1393:A *1394:A 0.00133399
10 *1393:A *343:25 0
11 tx_out *1393:A 5.8286e-05
12 *136:29 *1393:A 0
*RES
1 *1261:Q *248:4 1.6 
2 *248:4 *1139:A1 10.445 
3 *248:4 *1393:A 39.095 
*END

*D_NET *249 0.00779381
*CONN
*I *1394:A I *D sky130_fd_sc_hd__buf_2
*I *1141:A1 I *D sky130_fd_sc_hd__mux2_1
*I *1262:Q O *D sky130_fd_sc_hd__dfrtp_1
*CAP
1 *1394:A 0.00185946
2 *1141:A1 0.000791211
3 *1262:Q 0
4 *249:4 0.00265067
5 *1141:A1 *1141:A0 4.77769e-05
6 *1141:A1 *1262:RESET_B 4.20673e-05
7 *1141:A1 *1275:SET_B 3.57349e-05
8 *1141:A1 *256:116 2.85623e-05
9 *1394:A *1275:SET_B 2.40002e-05
10 *1394:A *1290:RESET_B 0
11 *1394:A *1291:RESET_B 0
12 *1394:A *260:121 0
13 *1394:A *344:18 4.61744e-05
14 data_out[6] *1394:A 0.000125432
15 *1126:A *1394:A 0
16 *1262:D *1141:A1 0.000230656
17 *1275:CLK *1394:A 4.88478e-05
18 *1275:D *1141:A1 6.91448e-05
19 *1275:D *1394:A 0.000283473
20 *1302:CLK *1141:A1 5.75537e-05
21 *1393:A *1394:A 0.00133399
22 *236:51 *1141:A1 0.000119059
*RES
1 *1262:Q *249:4 1.6 
2 *249:4 *1141:A1 15.905 
3 *249:4 *1394:A 39.995 
*END

*D_NET *250 0.0148224
*CONN
*I *1240:A0 I *D sky130_fd_sc_hd__mux2_1
*I *1378:X O *D sky130_fd_sc_hd__buf_1
*CAP
1 *1240:A0 0.000728896
2 *1378:X 0.00324294
3 *250:28 0.00233915
4 *250:20 0.00485319
5 *1240:A0 *1090:A3 7.47284e-05
6 *1240:A0 *1090:S0 9.61344e-05
7 *1240:A0 *1304:RESET_B 0.000188275
8 *1240:A0 *1370:A 5.76338e-05
9 *1240:A0 *259:19 0.000277306
10 *1240:A0 *259:26 5.79294e-05
11 *1240:A0 *349:23 0
12 *250:28 *1084:B2 0
13 *250:28 *1217:A1 7.4027e-05
14 *250:28 *1356:A 0
15 *250:28 *1370:A 1.1578e-05
16 *250:28 *259:12 0.000171194
17 *250:28 *259:19 2.48628e-05
18 *250:28 *336:38 2.03643e-05
19 *1076:A *250:28 7.4027e-05
20 *1144:A *250:28 0.000132827
21 *1207:D *250:28 0.000197255
22 *1216:A *250:28 0.000217486
23 *1217:S *250:28 1.1561e-05
24 *1218:A *250:20 0
25 *1218:A *250:28 0
26 *1241:A *1240:A0 0
27 *1254:D *1240:A0 0
28 *1254:D *250:28 0
29 *1376:A *250:20 0
30 *104:81 *1240:A0 0
31 *109:21 *250:28 0.000124998
32 *109:32 *250:28 0.000498207
33 *109:51 *250:28 0.000155504
34 *110:55 *250:28 0
35 *112:16 *250:28 5.48959e-05
36 *151:8 *250:28 0.00015278
37 *151:29 *1240:A0 1.01661e-05
38 *151:29 *250:28 0.000441584
39 *184:10 *250:28 0.000170535
40 *184:12 *250:28 7.36562e-05
41 *184:14 *250:28 0.000179835
42 *184:26 *250:28 5.68531e-05
43 *199:10 *250:28 5.20193e-05
*RES
1 *1378:X *250:20 43.8925 
2 *250:20 *250:28 37.335 
3 *250:28 *1240:A0 18.7125 
*END

*D_NET *251 0.00048994
*CONN
*I *1395:A I *D sky130_fd_sc_hd__clkbuf_4
*I *1254:Q O *D sky130_fd_sc_hd__dfrtp_1
*CAP
1 *1395:A 0.00013608
2 *1254:Q 0.00013608
3 *1395:A *1293:RESET_B 0.000124007
4 *1395:A *252:12 9.37731e-05
*RES
1 *1254:Q *1395:A 9.465 
*END

*D_NET *252 0.00801467
*CONN
*I *1333:A I *D sky130_fd_sc_hd__dlygate4sd3_1
*I *1226:B1_N I *D sky130_fd_sc_hd__a21boi_1
*I *1396:A I *D sky130_fd_sc_hd__clkbuf_4
*I *1293:Q O *D sky130_fd_sc_hd__dfrtp_1
*CAP
1 *1333:A 0
2 *1226:B1_N 0.000335542
3 *1396:A 0.00214757
4 *1293:Q 0.000129913
5 *252:23 0.000538487
6 *252:12 0.00248042
7 *1226:B1_N *1250:A0 0.000114858
8 *1396:A *1246:A0 0.0010819
9 *1396:A *1248:A0 0.000160314
10 *1396:A *1250:A1 4.82919e-05
11 *1396:A *1347:A 9.66021e-05
12 *1396:A *1359:A 0.000161105
13 *1381:A *1396:A 4.89295e-05
14 *1395:A *252:12 9.37731e-05
15 *114:25 *1396:A 0.000111285
16 *114:25 *252:12 0
17 *114:25 *252:23 0.000465676
*RES
1 *1293:Q *252:12 7.85 
2 *252:12 *1396:A 38.275 
3 *252:12 *252:23 4.605 
4 *252:23 *1226:B1_N 11.36 
5 *252:23 *1333:A 1.6 
*END

*D_NET *253 0.000611467
*CONN
*I *1397:A I *D sky130_fd_sc_hd__buf_2
*I *1275:Q O *D sky130_fd_sc_hd__dfstp_1
*CAP
1 *1397:A 0.000305734
2 *1275:Q 0.000305734
*RES
1 *1275:Q *1397:A 7.7225 
*END

*D_NET *254 0.00407298
*CONN
*I *1060:A2 I *D sky130_fd_sc_hd__a22o_1
*I *1085:C I *D sky130_fd_sc_hd__nand3_4
*I *1189:A2 I *D sky130_fd_sc_hd__a21oi_1
*I *1062:A4 I *D sky130_fd_sc_hd__a41o_1
*I *1386:X O *D sky130_fd_sc_hd__clkbuf_2
*CAP
1 *1060:A2 5.52934e-05
2 *1085:C 0.000250744
3 *1189:A2 0.000162409
4 *1062:A4 0.000121485
5 *1386:X 0.000104143
6 *254:10 0.000527463
7 *254:8 0.000494313
8 *254:6 0.000159436
9 *1062:A4 *1061:A 8.53113e-06
10 *1062:A4 *1062:A2 4.9968e-05
11 *1062:A4 *1062:A3 4.82919e-05
12 *1062:A4 *1210:A 4.82863e-05
13 *1062:A4 *324:68 1.59888e-05
14 *1085:C *1060:A1 0.000112087
15 *1085:C *333:54 0
16 *1085:C *335:55 3.12855e-05
17 *254:10 *1061:A 6.21553e-05
18 *254:10 *333:54 0
19 *254:10 *334:33 0.00013521
20 *1060:B1 *1060:A2 2.68526e-05
21 *1060:B1 *1085:C 1.51325e-05
22 *1060:B1 *254:6 1.42598e-05
23 *1060:B2 *1060:A2 2.87849e-06
24 *1060:B2 *1085:C 1.7635e-05
25 *1060:B2 *254:6 4.89295e-05
26 *1196:A1 *1189:A2 2.8185e-05
27 *1196:A3 *1189:A2 5.69147e-05
28 *1196:B1 *1189:A2 4.66108e-05
29 *1197:B1 *1189:A2 0.000218997
30 *1299:CLK *1060:A2 1.43774e-05
31 *1299:CLK *1085:C 8.33066e-06
32 *1299:CLK *1189:A2 4.77757e-05
33 *1299:CLK *254:10 0.000483756
34 *1299:D *1060:A2 5.12969e-06
35 *104:30 *1085:C 3.66219e-05
36 *104:30 *254:6 3.15789e-05
37 *155:10 *1085:C 5.94242e-05
38 *230:41 *1189:A2 0.000522495
*RES
1 *1386:X *254:6 3.43 
2 *254:6 *254:8 2 
3 *254:8 *254:10 5.97 
4 *254:10 *1062:A4 5.94 
5 *254:10 *1189:A2 9.705 
6 *254:8 *1085:C 8.85 
7 *254:6 *1060:A2 2.77 
*END

*D_NET *255 0.0119954
*CONN
*I *1274:RESET_B I *D sky130_fd_sc_hd__dfrtp_2
*I *1278:RESET_B I *D sky130_fd_sc_hd__dfrtp_1
*I *1300:RESET_B I *D sky130_fd_sc_hd__dfrtp_4
*I *1279:RESET_B I *D sky130_fd_sc_hd__dfrtp_1
*I *1277:RESET_B I *D sky130_fd_sc_hd__dfrtp_1
*I *1258:RESET_B I *D sky130_fd_sc_hd__dfrtp_1
*I *1257:RESET_B I *D sky130_fd_sc_hd__dfrtp_1
*I *1256:RESET_B I *D sky130_fd_sc_hd__dfrtp_1
*I *1260:RESET_B I *D sky130_fd_sc_hd__dfrtp_1
*I *1281:RESET_B I *D sky130_fd_sc_hd__dfrtp_1
*I *1324:X O *D sky130_fd_sc_hd__clkbuf_4
*CAP
1 *1274:RESET_B 0.000101134
2 *1278:RESET_B 0.000305049
3 *1300:RESET_B 0
4 *1279:RESET_B 0.000721287
5 *1277:RESET_B 1.77753e-05
6 *1258:RESET_B 0.000557134
7 *1257:RESET_B 0
8 *1256:RESET_B 0.000771428
9 *1260:RESET_B 0.000460026
10 *1281:RESET_B 7.54105e-06
11 *1324:X 6.6636e-05
12 *255:89 0.000961309
13 *255:85 0.000787164
14 *255:83 0.000549964
15 *255:52 0.00092976
16 *255:40 0.000812768
17 *255:20 0.000915547
18 *255:6 0.000719153
19 *1258:RESET_B *1132:A 9.64077e-05
20 *1258:RESET_B *1133:A0 4.05674e-06
21 *1258:RESET_B *1134:A 4.91189e-05
22 *1281:RESET_B *1137:A0 1.53577e-05
23 *255:6 *1137:A0 2.20732e-05
24 *255:6 *1356:A 1.7386e-05
25 *255:20 *1137:A0 5.29163e-05
26 *255:20 *1137:A1 9.30787e-05
27 *255:40 *1138:A 4.99619e-05
28 *255:52 *1130:A 0
29 *255:52 *1132:A 9.37846e-05
30 *1063:A1 *1279:RESET_B 4.58257e-05
31 *1137:S *1256:RESET_B 0.000318933
32 *1137:S *255:40 0.000690608
33 *1204:S *1260:RESET_B 5.87263e-05
34 *1208:S *1274:RESET_B 1.33269e-05
35 *1208:S *255:83 0.000136415
36 *1211:S *1279:RESET_B 0.000266963
37 *1260:D *255:40 2.11084e-05
38 *1274:D *1278:RESET_B 4.90227e-05
39 *1274:D *1279:RESET_B 0
40 *1274:D *255:85 4.52004e-05
41 *1274:D *255:89 0.000131927
42 *1276:CLK *255:20 0.00016031
43 *1277:CLK *1256:RESET_B 4.77719e-05
44 *1277:CLK *255:52 0
45 *1277:D *1256:RESET_B 5.09627e-05
46 *1279:CLK *1258:RESET_B 0
47 *1279:D *1258:RESET_B 0
48 *1338:A *1260:RESET_B 4.80285e-05
49 *1339:A *255:40 0.000116158
50 *1339:A *255:83 0
51 *1349:A *1258:RESET_B 1.82571e-05
52 *1392:A *255:20 1.1561e-05
53 *1392:A *255:40 0
54 *1392:A *255:83 2.42236e-05
55 *93:33 *1260:RESET_B 0.000134535
56 *93:107 *1279:RESET_B 5.41144e-05
57 *232:14 *1279:RESET_B 9.5433e-05
58 *232:25 *1279:RESET_B 0
59 *232:25 *255:89 0
60 *232:35 *255:20 8.64421e-05
61 *232:35 *255:40 0.000122155
62 *243:12 *1256:RESET_B 6.96036e-05
*RES
1 *1324:X *255:6 2.74 
2 *255:6 *1281:RESET_B 0.3975 
3 *255:6 *255:20 10.4 
4 *255:20 *1260:RESET_B 4.1225 
5 *1260:RESET_B *255:40 13.81 
6 *255:40 *1256:RESET_B 8.3475 
7 *1256:RESET_B *255:52 8.1125 
8 *255:52 *1257:RESET_B 2 
9 *255:52 *1258:RESET_B 11.9225 
10 *255:40 *1277:RESET_B 0.3075 
11 *255:20 *255:83 5.675 
12 *255:83 *255:85 2.865 
13 *255:85 *255:89 6.695 
14 *255:89 *1279:RESET_B 12.7025 
15 *255:89 *1300:RESET_B 2 
16 *255:85 *1278:RESET_B 4.5525 
17 *255:83 *1274:RESET_B 1.3575 
*END

*D_NET *256 0.0110564
*CONN
*I *1275:SET_B I *D sky130_fd_sc_hd__dfstp_1
*I *1262:RESET_B I *D sky130_fd_sc_hd__dfrtp_1
*I *1261:RESET_B I *D sky130_fd_sc_hd__dfrtp_1
*I *1282:RESET_B I *D sky130_fd_sc_hd__dfrtp_1
*I *1272:RESET_B I *D sky130_fd_sc_hd__dfrtp_2
*I *1273:RESET_B I *D sky130_fd_sc_hd__dfrtp_1
*I *1280:RESET_B I *D sky130_fd_sc_hd__dfrtp_1
*I *1259:RESET_B I *D sky130_fd_sc_hd__dfrtp_1
*I *1255:RESET_B I *D sky130_fd_sc_hd__dfrtp_1
*I *1276:RESET_B I *D sky130_fd_sc_hd__dfrtp_1
*I *1325:X O *D sky130_fd_sc_hd__clkbuf_4
*CAP
1 *1275:SET_B 0.000589964
2 *1262:RESET_B 1.25773e-05
3 *1261:RESET_B 5.15338e-05
4 *1282:RESET_B 0.000485588
5 *1272:RESET_B 0.000127173
6 *1273:RESET_B 0.000301985
7 *1280:RESET_B 0
8 *1259:RESET_B 0.000472354
9 *1255:RESET_B 0.000630932
10 *1276:RESET_B 7.10284e-05
11 *1325:X 0
12 *256:116 0.00106404
13 *256:102 0.000844052
14 *256:68 0.000808703
15 *256:62 0.000946985
16 *256:53 0.000540088
17 *256:31 0.00102652
18 *256:4 0.000275005
19 *1255:RESET_B *1200:A1 0.000148312
20 *1255:RESET_B *1325:A 0.000164874
21 *1259:RESET_B *1136:A 0.000123573
22 *1259:RESET_B *1214:A1 0.000107424
23 *1272:RESET_B *258:38 0
24 *1273:RESET_B *258:38 0
25 *1276:RESET_B *258:10 0.000140905
26 *256:31 *1200:A1 1.15423e-05
27 *256:31 *1372:A 7.23602e-05
28 *256:53 *1372:A 8.82978e-05
29 *256:102 *1139:A0 8.65905e-05
30 *256:102 *1341:A 7.60965e-05
31 *256:102 *282:10 0
32 *256:116 *1341:A 0
33 *256:116 *282:10 0
34 *1127:S *256:31 3.67779e-05
35 *1127:S *256:53 4.13249e-05
36 *1139:A1 *256:102 0.000168924
37 *1139:A1 *256:116 2.97004e-06
38 *1139:S *256:102 0.000314745
39 *1140:A *1282:RESET_B 2.75229e-05
40 *1140:A *256:62 0
41 *1140:A *256:102 4.21666e-05
42 *1141:A1 *1262:RESET_B 4.20673e-05
43 *1141:A1 *1275:SET_B 3.57349e-05
44 *1141:A1 *256:116 2.85623e-05
45 *1220:S *1273:RESET_B 0
46 *1221:A *1273:RESET_B 0
47 *1221:A *256:68 2.68464e-05
48 *1223:A0 *1273:RESET_B 0
49 *1259:D *1259:RESET_B 0.00012657
50 *1275:D *1262:RESET_B 1.48236e-05
51 *1275:D *1275:SET_B 0.000381097
52 *1282:D *256:68 7.58214e-05
53 *1394:A *1275:SET_B 2.40002e-05
54 *112:103 *256:53 0
55 *112:103 *256:62 0
56 *235:27 *1272:RESET_B 1.71013e-05
57 *235:66 *256:62 5.84072e-05
58 *235:68 *256:53 4.10046e-05
59 *235:68 *256:62 0.000115516
60 *235:76 *256:31 0.000122337
61 *235:76 *256:53 3.18137e-05
62 *242:12 *256:31 1.17864e-05
*RES
1 *1325:X *256:4 1.6 
2 *256:4 *1276:RESET_B 5.635 
3 *256:4 *1255:RESET_B 4.3125 
4 *1255:RESET_B *256:31 7.7825 
5 *256:31 *1259:RESET_B 12.6675 
6 *256:31 *256:53 3.165 
7 *256:53 *1280:RESET_B 2 
8 *256:53 *256:62 9.755 
9 *256:62 *256:68 5.745 
10 *256:68 *1273:RESET_B 8.56 
11 *256:68 *1272:RESET_B 6.145 
12 *256:62 *1282:RESET_B 2.4825 
13 *1282:RESET_B *256:102 9.8225 
14 *256:102 *1261:RESET_B 2.7575 
15 *256:102 *256:116 9.755 
16 *256:116 *1262:RESET_B 0.3975 
17 *256:116 *1275:SET_B 8.5725 
*END

*D_NET *257 0.00934787
*CONN
*I *1301:RESET_B I *D sky130_fd_sc_hd__dfrtp_4
*I *1289:RESET_B I *D sky130_fd_sc_hd__dfrtp_1
*I *1288:RESET_B I *D sky130_fd_sc_hd__dfrtp_1
*I *1287:RESET_B I *D sky130_fd_sc_hd__dfrtp_1
*I *1283:RESET_B I *D sky130_fd_sc_hd__dfrtp_1
*I *1302:RESET_B I *D sky130_fd_sc_hd__dfrtp_4
*I *1326:X O *D sky130_fd_sc_hd__buf_2
*CAP
1 *1301:RESET_B 0.000207173
2 *1289:RESET_B 7.89762e-05
3 *1288:RESET_B 0.000303518
4 *1287:RESET_B 3.24164e-05
5 *1283:RESET_B 1.79211e-05
6 *1302:RESET_B 0.000749758
7 *1326:X 0.000166261
8 *257:58 0.00137412
9 *257:44 0.00174808
10 *257:28 0.00142558
11 *257:8 0.000439574
12 *1288:RESET_B *343:12 0.000179049
13 *1301:RESET_B *1198:C 7.27587e-05
14 *1301:RESET_B *335:10 0.000461346
15 *1302:RESET_B *1198:C 0.00015356
16 *257:8 *1326:A 7.11365e-05
17 *257:8 *335:43 1.56428e-05
18 *257:58 *1111:A 4.60584e-05
19 *257:58 *342:10 8.8266e-05
20 *1083:B *1302:RESET_B 5.00903e-05
21 *1084:A2 *1302:RESET_B 9.05592e-05
22 *1110:B *257:58 4.00541e-06
23 *1111:B *257:58 0.000124007
24 *1112:A *257:58 0.000163199
25 *1112:B *257:58 2.72381e-05
26 *1112:C *257:58 0.000113247
27 *1142:A *257:44 0.000190901
28 *1275:D *257:44 0
29 *1287:CLK *257:28 9.10613e-05
30 *1287:D *257:44 2.24423e-05
31 *1289:D *1289:RESET_B 8.80902e-05
32 *1289:D *257:58 1.19928e-05
33 *1302:D *1302:RESET_B 4.11729e-05
34 *1302:D *257:28 0.000143816
35 *1331:A *1301:RESET_B 0.000207459
36 *1331:A *1302:RESET_B 9.12857e-06
37 *112:99 *257:44 1.56261e-05
38 *128:14 *257:58 8.65961e-05
39 *235:27 *257:28 5.05981e-05
40 *236:25 *257:44 8.37253e-05
41 *236:62 *1288:RESET_B 0.000101735
*RES
1 *1326:X *257:8 6.12 
2 *257:8 *1302:RESET_B 4.2875 
3 *1302:RESET_B *257:28 13.9975 
4 *257:28 *1283:RESET_B 0.3075 
5 *257:28 *257:44 16.78 
6 *257:44 *1287:RESET_B 0.3975 
7 *257:44 *257:58 13.005 
8 *257:58 *1288:RESET_B 9.4825 
9 *257:58 *1289:RESET_B 1.4325 
10 *257:8 *1301:RESET_B 8.6225 
*END

*D_NET *258 0.0141656
*CONN
*I *1326:A I *D sky130_fd_sc_hd__buf_2
*I *1299:SET_B I *D sky130_fd_sc_hd__dfstp_1
*I *1270:RESET_B I *D sky130_fd_sc_hd__dfrtp_2
*I *1271:RESET_B I *D sky130_fd_sc_hd__dfrtp_1
*I *1268:RESET_B I *D sky130_fd_sc_hd__dfrtp_1
*I *1325:A I *D sky130_fd_sc_hd__clkbuf_4
*I *1324:A I *D sky130_fd_sc_hd__clkbuf_4
*I *1327:X O *D sky130_fd_sc_hd__buf_2
*CAP
1 *1326:A 0.000266861
2 *1299:SET_B 2.85424e-05
3 *1270:RESET_B 0.00024203
4 *1271:RESET_B 0
5 *1268:RESET_B 0.000128524
6 *1325:A 4.28159e-05
7 *1324:A 0.000518204
8 *1327:X 0.000204864
9 *258:77 0.00110335
10 *258:60 0.00213655
11 *258:46 0.00181762
12 *258:38 0.00190786
13 *258:10 0.000697626
14 *258:8 0.0013401
15 *1270:RESET_B *1244:A0 7.63125e-05
16 *1270:RESET_B *261:14 0
17 *1270:RESET_B *319:32 0.000191633
18 *1324:A *1200:A1 0.000237243
19 *1324:A *1356:A 2.75145e-05
20 *1325:A *1200:A1 0.00011964
21 *1326:A *1198:C 0.000303442
22 *258:8 *1372:A 0.000126054
23 *258:46 *1198:A 3.8706e-05
24 *258:46 *1198:B 5.1143e-05
25 *258:46 *1198:C 0.000124932
26 *258:46 *333:14 7.14008e-06
27 *258:60 *1058:A 9.28568e-05
28 *258:60 *1186:B1 4.47209e-05
29 *258:60 *334:37 4.1652e-06
30 *258:60 *334:48 0.000102443
31 *258:77 *319:32 3.76421e-05
32 *1058:B_N *258:60 4.89295e-05
33 *1060:B1 *258:60 0.000109109
34 *1083:A *258:46 0.000196077
35 *1083:B *1326:A 1.56261e-05
36 *1083:C *258:46 1.91597e-05
37 *1174:A1 *258:77 2.53645e-05
38 *1179:A2 *1270:RESET_B 0
39 *1186:A2 *258:60 4.66108e-05
40 *1186:A3 *258:60 0.000160635
41 *1190:B1 *258:38 7.25036e-05
42 *1194:A *258:38 0.000116628
43 *1200:S *1324:A 2.66586e-05
44 *1201:A *1324:A 7.394e-05
45 *1224:A *1326:A 5.20249e-05
46 *1224:A *258:38 9.35656e-05
47 *1255:RESET_B *1325:A 0.000164874
48 *1272:RESET_B *258:38 0
49 *1273:RESET_B *258:38 0
50 *1276:RESET_B *258:10 0.000140905
51 *1299:CLK *258:60 1.49348e-05
52 *1299:D *258:60 0.00012136
53 *1316:A *258:60 2.75229e-05
54 *1327:A *258:8 0.000112631
55 *1331:A *258:10 0
56 *1331:A *258:38 0
57 *93:12 *1268:RESET_B 0
58 *93:12 *258:77 0
59 *184:6 *258:60 0.00012809
60 *193:10 *258:46 0.000118081
61 *231:12 *258:60 0.000188727
62 *235:27 *258:38 0
63 *240:10 *1324:A 0
64 *240:10 *258:10 0
65 *257:8 *1326:A 7.11365e-05
*RES
1 *1327:X *258:8 6.465 
2 *258:8 *258:10 2.655 
3 *258:10 *1324:A 11.175 
4 *258:10 *1325:A 5.43 
5 *258:8 *258:38 17.445 
6 *258:38 *258:46 11.615 
7 *258:46 *258:60 26.565 
8 *258:60 *1268:RESET_B 3.89 
9 *258:60 *258:77 17.245 
10 *258:77 *1271:RESET_B 2 
11 *258:77 *1270:RESET_B 7.715 
12 *258:46 *1299:SET_B 0.7575 
13 *258:38 *1326:A 9.435 
*END

*D_NET *259 0.0123696
*CONN
*I *1304:RESET_B I *D sky130_fd_sc_hd__dfrtp_1
*I *1306:RESET_B I *D sky130_fd_sc_hd__dfrtp_1
*I *1303:RESET_B I *D sky130_fd_sc_hd__dfrtp_1
*I *1305:RESET_B I *D sky130_fd_sc_hd__dfrtp_1
*I *1269:RESET_B I *D sky130_fd_sc_hd__dfrtp_4
*I *1267:RESET_B I *D sky130_fd_sc_hd__dfrtp_2
*I *1263:RESET_B I *D sky130_fd_sc_hd__dfrtp_2
*I *1264:RESET_B I *D sky130_fd_sc_hd__dfrtp_2
*I *1265:RESET_B I *D sky130_fd_sc_hd__dfrtp_1
*I *1266:RESET_B I *D sky130_fd_sc_hd__dfrtp_1
*I *1328:X O *D sky130_fd_sc_hd__clkbuf_4
*CAP
1 *1304:RESET_B 0.000239667
2 *1306:RESET_B 8.36495e-05
3 *1303:RESET_B 0.000229126
4 *1305:RESET_B 0.000668781
5 *1269:RESET_B 0.000297711
6 *1267:RESET_B 0.00127387
7 *1263:RESET_B 0.00147947
8 *1264:RESET_B 1.32421e-05
9 *1265:RESET_B 0
10 *1266:RESET_B 0
11 *1328:X 0.000380202
12 *259:80 0.000915225
13 *259:40 0.00109679
14 *259:30 0.000750975
15 *259:26 0.000840247
16 *259:19 0.000279382
17 *259:12 0.000595168
18 *1263:RESET_B *313:12 0.000160338
19 *1267:RESET_B *1298:D 0
20 *1267:RESET_B *317:8 0.000122797
21 *1269:RESET_B *1244:A0 0
22 *1303:RESET_B *1362:A 0
23 *1304:RESET_B *1363:A 0.000132713
24 *1304:RESET_B *349:23 3.23391e-05
25 *1305:RESET_B *1090:A2 3.81908e-06
26 *1305:RESET_B *353:6 9.46111e-06
27 *1306:RESET_B *1090:A2 2.74996e-05
28 *259:30 *1156:B1 4.77757e-05
29 *259:30 *1364:A 4.77719e-05
30 *259:30 *314:10 4.77757e-05
31 *1076:A *259:12 7.0761e-05
32 *1240:A0 *1304:RESET_B 0.000188275
33 *1240:A0 *259:19 0.000277306
34 *1240:A0 *259:26 5.79294e-05
35 *1245:A *1303:RESET_B 0
36 *1245:A *1306:RESET_B 0
37 *1254:D *1304:RESET_B 0
38 *1254:D *259:12 0
39 *1254:D *259:26 0
40 *1263:CLK *1267:RESET_B 0.000159066
41 *1264:CLK *1263:RESET_B 6.31373e-05
42 *1267:D *1267:RESET_B 4.54998e-05
43 *1267:D *1269:RESET_B 4.76277e-05
44 *1269:D *1269:RESET_B 4.4133e-05
45 *1301:CLK *259:12 0.000346268
46 *1301:CLK *259:19 0.000381299
47 *1301:D *259:12 8.8266e-05
48 *1304:D *1304:RESET_B 4.65607e-05
49 *1306:D *1306:RESET_B 0
50 *114:71 *1303:RESET_B 0.000500749
51 *230:20 *259:12 0
52 *234:10 *259:80 0
53 *234:23 *1303:RESET_B 0
54 *234:23 *259:80 0
55 *234:36 *1305:RESET_B 7.646e-05
56 *234:36 *1306:RESET_B 4.43871e-06
57 *250:28 *259:12 0.000171194
58 *250:28 *259:19 2.48628e-05
*RES
1 *1328:X *259:12 12.63 
2 *259:12 *1266:RESET_B 2 
3 *259:12 *259:19 6.735 
4 *259:19 *1265:RESET_B 2 
5 *259:19 *259:26 1.38 
6 *259:26 *259:30 9.695 
7 *259:30 *1264:RESET_B 0.3975 
8 *259:30 *259:40 2.535 
9 *259:40 *1263:RESET_B 7.0725 
10 *1263:RESET_B *1267:RESET_B 18.115 
11 *1267:RESET_B *1269:RESET_B 9.235 
12 *259:40 *259:80 8.225 
13 *259:80 *1305:RESET_B 7.4075 
14 *1305:RESET_B *1303:RESET_B 9.715 
15 *259:80 *1306:RESET_B 3.68 
16 *259:26 *1304:RESET_B 7.6325 
*END

*D_NET *260 0.0164661
*CONN
*I *1291:RESET_B I *D sky130_fd_sc_hd__dfrtp_1
*I *1292:RESET_B I *D sky130_fd_sc_hd__dfrtp_1
*I *1290:RESET_B I *D sky130_fd_sc_hd__dfrtp_1
*I *1285:RESET_B I *D sky130_fd_sc_hd__dfrtp_2
*I *1254:RESET_B I *D sky130_fd_sc_hd__dfrtp_1
*I *1293:RESET_B I *D sky130_fd_sc_hd__dfrtp_1
*I *1295:RESET_B I *D sky130_fd_sc_hd__dfrtp_2
*I *1294:RESET_B I *D sky130_fd_sc_hd__dfrtp_4
*I *1286:RESET_B I *D sky130_fd_sc_hd__dfrtp_1
*I *1284:RESET_B I *D sky130_fd_sc_hd__dfrtp_4
*I *1329:X O *D sky130_fd_sc_hd__clkbuf_4
*CAP
1 *1291:RESET_B 0.000256375
2 *1292:RESET_B 0
3 *1290:RESET_B 0.000373016
4 *1285:RESET_B 0.000181905
5 *1254:RESET_B 6.22696e-06
6 *1293:RESET_B 0.000490067
7 *1295:RESET_B 0.000111175
8 *1294:RESET_B 0.0021606
9 *1286:RESET_B 0.000116748
10 *1284:RESET_B 3.33419e-05
11 *1329:X 3.69588e-05
12 *260:121 0.000461382
13 *260:119 0.000812355
14 *260:103 0.0016995
15 *260:72 0.00116667
16 *260:52 0.00162256
17 *260:14 0.000329121
18 *260:8 0.000485607
19 *1254:RESET_B *357:8 1.13009e-05
20 *1285:RESET_B *340:8 2.40061e-05
21 *1293:RESET_B *357:8 4.58939e-06
22 *260:14 *339:10 0
23 *260:52 *1252:A0 0.000429439
24 *260:52 *263:40 0.000428142
25 *260:52 *348:12 4.31625e-05
26 *260:72 *1090:S0 7.23602e-05
27 *260:72 *1092:A2 0
28 *260:72 *1092:S0 0.000426074
29 *260:72 *1250:A1 0
30 *260:72 *1252:A0 0
31 *260:72 *1347:A 0
32 *260:72 *1352:A 2.97004e-06
33 *260:72 *357:8 4.10576e-05
34 *260:103 *1096:B 3.34652e-05
35 *260:103 *1228:A 6.07763e-05
36 *260:103 *339:59 0.000117265
37 *260:103 *339:61 5.19006e-06
38 *260:103 *348:12 0.000161525
39 *260:119 *1124:A1 4.89295e-05
40 *260:119 *1124:B1 0.000124471
41 data_out[7] *1291:RESET_B 0
42 *1105:A *1286:RESET_B 4.46422e-05
43 *1105:A *260:14 3.64998e-06
44 *1122:A2 *1291:RESET_B 0.000207797
45 *1126:A *260:121 0.000141599
46 *1230:B1 *260:103 0
47 *1254:CLK *1293:RESET_B 0
48 *1254:D *260:72 0.00136416
49 *1265:CLK *260:52 0.000194914
50 *1284:D *1286:RESET_B 7.20293e-05
51 *1284:D *1294:RESET_B 6.05336e-05
52 *1284:D *260:14 0.000235472
53 *1291:D *1291:RESET_B 0
54 *1292:D *260:121 0.000116165
55 *1294:CLK *260:52 3.69049e-05
56 *1294:D *260:52 5.09431e-05
57 *1323:A *260:8 4.66108e-05
58 *1369:A *260:103 0.000248031
59 *1393:A *1290:RESET_B 0
60 *1394:A *1290:RESET_B 0
61 *1394:A *1291:RESET_B 0
62 *1394:A *260:121 0
63 *1395:A *1293:RESET_B 0.000124007
64 *119:12 *1285:RESET_B 5.23362e-05
65 *119:14 *1285:RESET_B 0.000187759
66 *119:18 *1285:RESET_B 0.000132233
67 *120:10 *1285:RESET_B 3.58956e-05
68 *136:29 *1290:RESET_B 0.000333148
69 *136:42 *1290:RESET_B 0.000136704
70 *136:42 *260:121 5.7054e-05
71 *136:53 *1291:RESET_B 0.000133075
72 *136:53 *260:121 3.09164e-05
73 *238:23 *1285:RESET_B 4.11729e-05
74 *238:38 *1285:RESET_B 0
75 *238:49 *1285:RESET_B 0
*RES
1 *1329:X *260:8 4.05 
2 *260:8 *260:14 5.45 
3 *260:14 *1284:RESET_B 0.5625 
4 *260:14 *1286:RESET_B 5.89 
5 *260:8 *1294:RESET_B 6.23 
6 *1294:RESET_B *260:52 19.8175 
7 *260:52 *1295:RESET_B 1.3575 
8 *260:52 *260:72 22.21 
9 *260:72 *1293:RESET_B 6.7425 
10 *260:72 *1254:RESET_B 0.3975 
11 *1294:RESET_B *260:103 21.1225 
12 *260:103 *1285:RESET_B 8.5825 
13 *260:103 *260:119 8.66 
14 *260:119 *260:121 2.91 
15 *260:121 *1290:RESET_B 10.565 
16 *260:121 *1292:RESET_B 2 
17 *260:119 *1291:RESET_B 7.46 
*END

*D_NET *261 0.00874697
*CONN
*I *1242:A0 I *D sky130_fd_sc_hd__mux2_1
*I *1379:X O *D sky130_fd_sc_hd__buf_1
*CAP
1 *1242:A0 0.000961587
2 *1379:X 0.00255823
3 *261:14 0.00351982
4 *1242:A0 *1244:A0 0.001146
5 *261:14 *1134:A 0
6 *261:14 *1244:A0 0
7 *1256:CLK *261:14 0.000124514
8 *1258:D *261:14 9.71067e-05
9 *1270:CLK *261:14 0
10 *1270:D *261:14 3.68682e-05
11 *1270:RESET_B *261:14 0
12 *1271:CLK *261:14 0
13 *1297:D *261:14 0
14 *231:33 *261:14 1.19772e-05
15 *231:35 *261:14 0.00029087
16 *233:12 *261:14 0
17 *233:45 *261:14 0
*RES
1 *1379:X *261:14 49.005 
2 *261:14 *1242:A0 16.47 
*END

*D_NET *262 0.00730079
*CONN
*I *1311:SET_B I *D sky130_fd_sc_hd__dfstp_1
*I *1314:RESET_B I *D sky130_fd_sc_hd__dfrtp_1
*I *1313:RESET_B I *D sky130_fd_sc_hd__dfrtp_1
*I *1312:RESET_B I *D sky130_fd_sc_hd__dfrtp_2
*I *1296:RESET_B I *D sky130_fd_sc_hd__dfrtp_1
*I *1310:RESET_B I *D sky130_fd_sc_hd__dfrtp_1
*I *1330:X O *D sky130_fd_sc_hd__buf_2
*CAP
1 *1311:SET_B 0.000131488
2 *1314:RESET_B 3.44057e-05
3 *1313:RESET_B 0
4 *1312:RESET_B 0
5 *1296:RESET_B 0.000161388
6 *1310:RESET_B 0.000243662
7 *1330:X 0
8 *262:68 0.000393794
9 *262:61 0.000451764
10 *262:54 0.000966609
11 *262:26 0.00161141
12 *262:4 0.000950941
13 *1296:RESET_B *1091:A 0
14 *1311:SET_B *1068:A 3.26084e-05
15 *1314:RESET_B *1250:A0 1.55562e-05
16 *262:26 *1093:B_N 0.000134503
17 *262:26 *350:12 0.000114824
18 *262:54 *1072:A1 5.4003e-05
19 *262:54 *1078:A 0.00023635
20 *262:54 *1091:A 4.2801e-05
21 *262:54 *360:8 9.43504e-05
22 *262:61 *1072:A1 0.000143266
23 *262:61 *1095:C 0.000183979
24 *262:61 *361:23 0.000175901
25 *262:68 *1077:A 0.000130955
26 *262:68 *1095:C 7.07456e-05
27 *1069:B1_N *1314:RESET_B 2.35512e-05
28 *1071:B *262:54 2.63688e-05
29 *1078:B *262:54 0.000239807
30 *1079:B1_N *262:54 0.000105266
31 *1089:B1 *1311:SET_B 0
32 *1091:B *1296:RESET_B 8.35068e-05
33 *1091:B *262:54 4.75991e-05
34 *1093:A *1310:RESET_B 7.28313e-05
35 *1094:A2 *262:54 1.83756e-05
36 *1237:A *262:54 1.56428e-05
37 *1275:D *262:54 0
38 *1275:D *262:61 0
39 *99:22 *262:54 0.000175312
40 *99:30 *262:54 2.05056e-05
41 *101:6 *262:54 2.13032e-05
42 *107:8 *262:54 7.5416e-05
*RES
1 *1330:X *262:4 1.6 
2 *262:4 *1310:RESET_B 7.6975 
3 *262:4 *262:26 13.12 
4 *262:26 *1296:RESET_B 2.0475 
5 *262:26 *262:54 20.145 
6 *262:54 *1312:RESET_B 2 
7 *262:54 *262:61 5.715 
8 *262:61 *1313:RESET_B 2 
9 *262:61 *262:68 4.44 
10 *262:68 *1314:RESET_B 2.7575 
11 *262:68 *1311:SET_B 4.4 
*END

*D_NET *263 0.00981519
*CONN
*I *1330:A I *D sky130_fd_sc_hd__buf_2
*I *1309:RESET_B I *D sky130_fd_sc_hd__dfrtp_1
*I *1307:RESET_B I *D sky130_fd_sc_hd__dfrtp_1
*I *1308:RESET_B I *D sky130_fd_sc_hd__dfrtp_1
*I *1329:A I *D sky130_fd_sc_hd__clkbuf_4
*I *1328:A I *D sky130_fd_sc_hd__clkbuf_4
*I *1331:X O *D sky130_fd_sc_hd__clkbuf_2
*CAP
1 *1330:A 0.000115605
2 *1309:RESET_B 9.81769e-05
3 *1307:RESET_B 0.000472102
4 *1308:RESET_B 0.000130126
5 *1329:A 0.000389922
6 *1328:A 0.000371889
7 *1331:X 0
8 *263:56 0.000844475
9 *263:46 0.00103074
10 *263:40 0.00148396
11 *263:21 0.00123285
12 *263:4 0.000472878
13 *1307:RESET_B *355:8 1.79174e-05
14 *1308:RESET_B *1092:A0 0.000269514
15 *1309:RESET_B *1250:A1 7.42803e-05
16 *1328:A *1252:A0 0.000673806
17 *1330:A *1092:A3 2.75145e-05
18 *263:40 *1252:A0 0.000785063
19 *263:40 *358:8 7.23533e-05
20 *263:46 *1092:A0 0.00015316
21 *263:46 *1092:A2 1.32668e-05
22 *263:46 *1092:A3 0.000110313
23 *263:56 *1250:A1 1.10359e-05
24 *263:56 *1337:A 3.97568e-05
25 *1093:A *263:40 2.42236e-05
26 *1240:S *263:56 0
27 *1251:A *1307:RESET_B 0.000198994
28 *1254:D *1328:A 0
29 *1296:CLK *263:40 0
30 *1296:D *263:40 3.59997e-05
31 *1309:D *1307:RESET_B 5.0876e-05
32 *1323:A *1329:A 0.000123955
33 *1331:A *1329:A 1.62913e-05
34 *1331:A *263:21 2.67184e-05
35 *230:126 *263:40 1.92979e-05
36 *237:10 *263:40 0
37 *237:57 *263:40 0
38 *237:68 *263:40 0
39 *260:52 *263:40 0.000428142
*RES
1 *1331:X *263:4 1.6 
2 *263:4 *1328:A 14.675 
3 *263:4 *263:21 1.14 
4 *263:21 *1329:A 7.84 
5 *263:21 *263:40 21.745 
6 *263:40 *263:46 7.815 
7 *263:46 *1308:RESET_B 2.4675 
8 *263:46 *263:56 6.695 
9 *263:56 *1307:RESET_B 10.0025 
10 *263:56 *1309:RESET_B 4.145 
11 *263:40 *1330:A 3.46 
*END

*D_NET *264 0.000242662
*CONN
*I *1298:D I *D sky130_fd_sc_hd__dfxtp_1
*I *1332:X O *D sky130_fd_sc_hd__dlygate4sd3_1
*CAP
1 *1298:D 8.55447e-05
2 *1332:X 8.55447e-05
3 *1298:D *1244:A0 5.72004e-05
4 *1267:RESET_B *1298:D 0
5 *233:71 *1298:D 1.43717e-05
*RES
1 *1332:X *1298:D 8.97375 
*END

*D_NET *265 0.000287219
*CONN
*I *1120:A1 I *D sky130_fd_sc_hd__o21a_1
*I *1343:X O *D sky130_fd_sc_hd__dlygate4sd3_1
*CAP
1 *1120:A1 0.000116551
2 *1343:X 0.000116551
3 *1120:A2 *1120:A1 5.83121e-06
4 *1120:B1 *1120:A1 4.82863e-05
*RES
1 *1343:X *1120:A1 5.03 
*END

*D_NET *266 0.00139802
*CONN
*I *1190:A1 I *D sky130_fd_sc_hd__a21oi_1
*I *1189:B1 I *D sky130_fd_sc_hd__a21oi_1
*I *1354:X O *D sky130_fd_sc_hd__dlygate4sd3_1
*CAP
1 *1190:A1 0.000133033
2 *1189:B1 0.000118838
3 *1354:X 0
4 *266:4 0.000251871
5 *1190:A1 *322:16 0.000174064
6 *1190:A2 *1190:A1 0.000141599
7 *1190:B1 *1190:A1 9.7335e-05
8 *1193:S *1190:A1 7.47215e-05
9 *1196:A3 *1189:B1 0.000124007
10 *1331:A *1190:A1 0.000210151
11 *230:41 *1189:B1 6.6564e-05
12 *230:41 *1190:A1 5.83121e-06
*RES
1 *1354:X *266:4 1.6 
2 *266:4 *1189:B1 3.775 
3 *266:4 *1190:A1 10.19 
*END

*D_NET *267 9.2573e-05
*CONN
*I *1096:A I *D sky130_fd_sc_hd__nor2_1
*I *1365:X O *D sky130_fd_sc_hd__dlygate4sd3_1
*CAP
1 *1096:A 7.39887e-06
2 *1365:X 7.39887e-06
3 *1096:A *339:23 4.89395e-05
4 *1284:D *1096:A 2.88357e-05
*RES
1 *1365:X *1096:A 3.65 
*END

*D_NET *268 0.000814968
*CONN
*I *1162:A1 I *D sky130_fd_sc_hd__a31oi_1
*I *1161:B1 I *D sky130_fd_sc_hd__a21oi_1
*I *1370:X O *D sky130_fd_sc_hd__dlygate4sd3_1
*CAP
1 *1162:A1 0.000132425
2 *1161:B1 2.32323e-05
3 *1370:X 0
4 *268:4 0.000155657
5 *1162:A1 *316:8 4.01749e-05
6 *1158:B1_N *1162:A1 1.25877e-05
7 *1162:B1 *1162:A1 0.000108496
8 *1266:D *1162:A1 8.49205e-05
9 *104:81 *1162:A1 0.000181369
10 *151:29 *1161:B1 4.82863e-05
11 *159:10 *1162:A1 2.78196e-05
*RES
1 *1370:X *268:4 1.6 
2 *268:4 *1161:B1 2.05 
3 *268:4 *1162:A1 9.23 
*END

*D_NET *269 9.2844e-05
*CONN
*I *1106:A I *D sky130_fd_sc_hd__inv_2
*I *1371:X O *D sky130_fd_sc_hd__dlygate4sd3_1
*CAP
1 *1106:A 2.22788e-05
2 *1371:X 2.22788e-05
3 *1109:A1 *1106:A 4.82863e-05
*RES
1 *1371:X *1106:A 3.65 
*END

*D_NET *270 0.00206514
*CONN
*I *1200:A1 I *D sky130_fd_sc_hd__mux2_1
*I *1127:A0 I *D sky130_fd_sc_hd__mux2_1
*I *1372:X O *D sky130_fd_sc_hd__dlygate4sd3_1
*CAP
1 *1200:A1 0.000393091
2 *1127:A0 8.61477e-06
3 *1372:X 3.04814e-05
4 *270:6 0.000432187
5 *1127:A1 *1127:A0 4.89295e-05
6 *1127:A1 *270:6 0.00011138
7 *1127:S *1127:A0 4.77719e-05
8 *1127:S *270:6 0.000158543
9 *1200:S *1200:A1 2.79099e-05
10 *1201:A *1200:A1 0
11 *1255:RESET_B *1200:A1 0.000148312
12 *1324:A *1200:A1 0.000237243
13 *1325:A *1200:A1 0.00011964
14 *1387:A *270:6 4.77757e-05
15 *242:12 *1200:A1 0.000241719
16 *256:31 *1200:A1 1.15423e-05
*RES
1 *1372:X *270:6 3.085 
2 *270:6 *1127:A0 2.05 
3 *270:6 *1200:A1 14.51 
*END

*D_NET *271 0.000166078
*CONN
*I *1128:A I *D sky130_fd_sc_hd__clkbuf_1
*I *1373:X O *D sky130_fd_sc_hd__dlygate4sd3_1
*CAP
1 *1128:A 1.23724e-05
2 *1373:X 1.23724e-05
3 *1373:A *1128:A 5.30673e-05
4 *1387:A *1128:A 8.8266e-05
*RES
1 *1373:X *1128:A 3.995 
*END

*D_NET *272 0.00578843
*CONN
*I *1244:A0 I *D sky130_fd_sc_hd__mux2_1
*I *1380:X O *D sky130_fd_sc_hd__clkbuf_1
*CAP
1 *1244:A0 0.00191948
2 *1380:X 0.00191948
3 *1242:A0 *1244:A0 0.001146
4 *1242:S *1244:A0 3.00381e-05
5 *1244:S *1244:A0 0.00024946
6 *1269:RESET_B *1244:A0 0
7 *1270:D *1244:A0 0.00039046
8 *1270:RESET_B *1244:A0 7.63125e-05
9 *1298:D *1244:A0 5.72004e-05
10 *261:14 *1244:A0 0
*RES
1 *1380:X *1244:A0 44.79 
*END

*D_NET *273 0.00296877
*CONN
*I *1069:A1 I *D sky130_fd_sc_hd__a21bo_1
*I *1094:B1 I *D sky130_fd_sc_hd__a311o_1
*I *1374:X O *D sky130_fd_sc_hd__dlygate4sd3_1
*CAP
1 *1069:A1 3.43921e-05
2 *1094:B1 0.000706764
3 *1374:X 0.000116646
4 *273:6 0.000857802
5 *1094:B1 *1095:A 4.99619e-05
6 *1094:B1 *1229:B 2.75229e-05
7 *1094:B1 *1368:A 3.72007e-05
8 *1094:B1 *1374:A 1.42674e-05
9 *1094:B1 *359:19 0.000511537
10 *1094:B1 *362:6 3.112e-05
11 *273:6 *1374:A 5.92543e-05
12 *1069:A2 *1094:B1 0.000265933
13 *1275:D *1094:B1 1.73877e-05
14 *99:47 *1094:B1 0.000238983
*RES
1 *1374:X *273:6 3.085 
2 *273:6 *1094:B1 25.02 
3 *273:6 *1069:A1 2.215 
*END

*D_NET *274 0.0004375
*CONN
*I *1227:A1 I *D sky130_fd_sc_hd__o22a_1
*I *1333:X O *D sky130_fd_sc_hd__dlygate4sd3_1
*CAP
1 *1227:A1 0.000150719
2 *1333:X 0.000150719
3 *1227:A2 *1227:A1 0.000111189
4 *114:12 *1227:A1 1.08758e-05
5 *114:25 *1227:A1 1.39967e-05
*RES
1 *1333:X *1227:A1 9.585 
*END

*D_NET *275 7.75088e-05
*CONN
*I *1181:B2 I *D sky130_fd_sc_hd__a32o_1
*I *1334:X O *D sky130_fd_sc_hd__dlygate4sd3_1
*CAP
1 *1181:B2 1.04488e-05
2 *1334:X 1.04488e-05
3 *1181:A1 *1181:B2 2.79137e-05
4 *1181:A2 *1181:B2 2.86975e-05
*RES
1 *1334:X *1181:B2 3.65 
*END

*D_NET *276 0.00184443
*CONN
*I *1141:A0 I *D sky130_fd_sc_hd__mux2_1
*I *1223:A1 I *D sky130_fd_sc_hd__mux2_1
*I *1335:X O *D sky130_fd_sc_hd__dlygate4sd3_1
*CAP
1 *1141:A0 6.70623e-05
2 *1223:A1 0.000425242
3 *1335:X 0.000260441
4 *276:10 0.000752745
5 *1223:A1 *1335:A 2.59285e-05
6 *276:10 *1335:A 6.77962e-05
7 *1141:A1 *1141:A0 4.77769e-05
8 *1223:A0 *1223:A1 2.68464e-05
9 *1223:S *1223:A1 4.89295e-05
10 *1302:CLK *1141:A0 0.000121659
11 *1321:A *1223:A1 0
*RES
1 *1335:X *276:10 6.885 
2 *276:10 *1223:A1 10.14 
3 *276:10 *1141:A0 5.1 
*END

*D_NET *277 0.000732696
*CONN
*I *1166:B2 I *D sky130_fd_sc_hd__a32o_1
*I *1336:X O *D sky130_fd_sc_hd__dlygate4sd3_1
*CAP
1 *1166:B2 0.000181507
2 *1336:X 0.000181507
3 *1166:B2 *1165:A 9.50342e-06
4 *1166:B2 *317:17 0.000121032
5 *1166:B2 *317:30 0.000155052
6 *1147:A1 *1166:B2 2.0794e-05
7 *1164:B *1166:B2 3.94563e-05
8 *166:10 *1166:B2 2.38449e-05
*RES
1 *1336:X *1166:B2 11.175 
*END

*D_NET *278 0.000291115
*CONN
*I *1248:A1 I *D sky130_fd_sc_hd__mux2_1
*I *1337:X O *D sky130_fd_sc_hd__dlygate4sd3_1
*CAP
1 *1248:A1 8.37499e-05
2 *1337:X 8.37499e-05
3 *114:59 *1248:A1 7.29165e-05
4 *114:63 *1248:A1 5.06989e-05
*RES
1 *1337:X *1248:A1 5.03 
*END

*D_NET *279 0.000716264
*CONN
*I *1137:A1 I *D sky130_fd_sc_hd__mux2_1
*I *1338:X O *D sky130_fd_sc_hd__dlygate4sd3_1
*CAP
1 *1137:A1 0.000165581
2 *1338:X 0.000165581
3 *1392:A *1137:A1 9.30787e-05
4 *232:35 *1137:A1 0.000198945
5 *255:20 *1137:A1 9.30787e-05
*RES
1 *1338:X *1137:A1 10.155 
*END

*D_NET *280 0.000818232
*CONN
*I *1138:A I *D sky130_fd_sc_hd__clkbuf_1
*I *1339:X O *D sky130_fd_sc_hd__dlygate4sd3_1
*CAP
1 *1138:A 0.000221886
2 *1339:X 0.000221886
3 *1208:S *1138:A 4.66108e-05
4 *1260:D *1138:A 0
5 *93:18 *1138:A 0
6 *232:27 *1138:A 0.00010596
7 *232:35 *1138:A 0.000171927
8 *255:40 *1138:A 4.99619e-05
*RES
1 *1339:X *1138:A 11.625 
*END

*D_NET *281 0.000738183
*CONN
*I *1252:A1 I *D sky130_fd_sc_hd__mux2_1
*I *1340:X O *D sky130_fd_sc_hd__dlygate4sd3_1
*CAP
1 *1252:A1 0.000151972
2 *1340:X 0.000151972
3 *1252:A1 *1252:A0 0.000115345
4 *1252:A1 *1340:A 0.000160342
5 *1252:S *1252:A1 0.000158552
*RES
1 *1340:X *1252:A1 7.1 
*END

*D_NET *282 0.00233245
*CONN
*I *1139:A0 I *D sky130_fd_sc_hd__mux2_1
*I *1220:A1 I *D sky130_fd_sc_hd__mux2_1
*I *1341:X O *D sky130_fd_sc_hd__dlygate4sd3_1
*CAP
1 *1139:A0 2.66157e-05
2 *1220:A1 0.000682033
3 *1341:X 0.00030388
4 *282:10 0.00101253
5 *282:10 *1341:A 0
6 *1139:A1 *1139:A0 4.82863e-05
7 *1220:S *1220:A1 4.89295e-05
8 *112:99 *1220:A1 0
9 *112:99 *282:10 0
10 *112:103 *1220:A1 0
11 *235:66 *1220:A1 0.000123589
12 *256:102 *1139:A0 8.65905e-05
13 *256:102 *282:10 0
14 *256:116 *282:10 0
*RES
1 *1341:X *282:10 7.905 
2 *282:10 *1220:A1 14.295 
3 *282:10 *1139:A0 4.395 
*END

*D_NET *283 0.00254592
*CONN
*I *1246:A0 I *D sky130_fd_sc_hd__mux2_1
*I *1381:X O *D sky130_fd_sc_hd__clkbuf_1
*CAP
1 *1246:A0 0.000732009
2 *1381:X 0.000732009
3 *1246:A0 *1246:A1 0
4 *1396:A *1246:A0 0.0010819
*RES
1 *1381:X *1246:A0 17.835 
*END

*D_NET *284 0.00148071
*CONN
*I *1135:A0 I *D sky130_fd_sc_hd__mux2_1
*I *1214:A1 I *D sky130_fd_sc_hd__mux2_1
*I *1342:X O *D sky130_fd_sc_hd__dlygate4sd3_1
*CAP
1 *1135:A0 0
2 *1214:A1 0.00023573
3 *1342:X 8.10234e-05
4 *284:10 0.000316753
5 *1214:A1 *1136:A 0.000239813
6 *1214:A1 *1372:A 0.000107378
7 *1127:S *1214:A1 0.000278117
8 *1214:S *1214:A1 4.89295e-05
9 *1259:RESET_B *1214:A1 0.000107424
10 *112:103 *284:10 6.55406e-05
*RES
1 *1342:X *284:10 7.235 
2 *284:10 *1214:A1 7.915 
3 *284:10 *1135:A0 1.6 
*END

*D_NET *285 0.0011904
*CONN
*I *1136:A I *D sky130_fd_sc_hd__clkbuf_1
*I *1344:X O *D sky130_fd_sc_hd__dlygate4sd3_1
*CAP
1 *1136:A 0.000213601
2 *1344:X 0.000213601
3 *1127:S *1136:A 3.59997e-05
4 *1135:A1 *1136:A 0.000241483
5 *1214:A1 *1136:A 0.000239813
6 *1259:CLK *1136:A 4.99619e-05
7 *1259:D *1136:A 3.26889e-05
8 *1259:RESET_B *1136:A 0.000123573
9 *1344:A *1136:A 2.11084e-05
10 *235:76 *1136:A 1.85674e-05
*RES
1 *1344:X *1136:A 13.29 
*END

*D_NET *286 8.68287e-05
*CONN
*I *1072:B2 I *D sky130_fd_sc_hd__a22o_1
*I *1345:X O *D sky130_fd_sc_hd__dlygate4sd3_1
*CAP
1 *1072:B2 1.84334e-05
2 *1345:X 1.84334e-05
3 *1072:B1 *1072:B2 4.99619e-05
*RES
1 *1345:X *1072:B2 3.65 
*END

*D_NET *287 0.000280671
*CONN
*I *1312:D I *D sky130_fd_sc_hd__dfrtp_2
*I *1346:X O *D sky130_fd_sc_hd__dlygate4sd3_1
*CAP
1 *1312:D 0.000116192
2 *1346:X 0.000116192
3 *1312:CLK *1312:D 4.82863e-05
*RES
1 *1346:X *1312:D 5.03 
*END

*D_NET *288 0.000664213
*CONN
*I *1250:A1 I *D sky130_fd_sc_hd__mux2_1
*I *1347:X O *D sky130_fd_sc_hd__dlygate4sd3_1
*CAP
1 *1250:A1 0.000256197
2 *1347:X 0.000256197
3 *1254:D *1250:A1 0
4 *1309:RESET_B *1250:A1 7.42803e-05
5 *1396:A *1250:A1 4.82919e-05
6 *114:44 *1250:A1 1.82111e-05
7 *260:72 *1250:A1 0
8 *263:56 *1250:A1 1.10359e-05
*RES
1 *1347:X *1250:A1 11.325 
*END

*D_NET *289 0.00230152
*CONN
*I *1208:A1 I *D sky130_fd_sc_hd__mux2_1
*I *1131:A0 I *D sky130_fd_sc_hd__mux2_1
*I *1348:X O *D sky130_fd_sc_hd__dlygate4sd3_1
*CAP
1 *1208:A1 0.000311376
2 *1131:A0 0.000354954
3 *1348:X 0.000305598
4 *289:12 0.000971928
5 *1131:A1 *1131:A0 4.60061e-05
6 *1131:S *1131:A0 8.73389e-06
7 *1209:A *1208:A1 8.64599e-05
8 *1278:D *1208:A1 0.00012398
9 *1278:D *289:12 9.24881e-05
*RES
1 *1348:X *289:12 9.995 
2 *289:12 *1131:A0 5.5 
3 *289:12 *1208:A1 6.91 
*END

*D_NET *290 0.000770932
*CONN
*I *1132:A I *D sky130_fd_sc_hd__clkbuf_1
*I *1349:X O *D sky130_fd_sc_hd__dlygate4sd3_1
*CAP
1 *1132:A 0.000168934
2 *1349:X 0.000168934
3 *1258:RESET_B *1132:A 9.64077e-05
4 *1349:A *1132:A 0.000242872
5 *255:52 *1132:A 9.37846e-05
*RES
1 *1349:X *1132:A 11.52 
*END

*D_NET *291 0.00209438
*CONN
*I *1204:A1 I *D sky130_fd_sc_hd__mux2_1
*I *1129:A0 I *D sky130_fd_sc_hd__mux2_1
*I *1350:X O *D sky130_fd_sc_hd__dlygate4sd3_1
*CAP
1 *1204:A1 0.00042355
2 *1129:A0 0.000273309
3 *1350:X 0
4 *291:4 0.000696858
5 data_out[2] *1129:A0 0.000310462
6 *1129:A1 *1129:A0 2.23589e-05
7 *1129:S *1129:A0 8.80056e-05
8 *1204:A0 *1204:A1 2.11084e-05
9 *1204:S *1204:A1 0
10 *1205:A *1204:A1 8.8266e-05
11 *1277:D *1204:A1 7.23602e-05
12 *1388:A *1129:A0 1.16578e-05
13 *1389:A *1129:A0 8.64421e-05
*RES
1 *1350:X *291:4 1.6 
2 *291:4 *1129:A0 7.66 
3 *291:4 *1204:A1 12.5 
*END

*D_NET *292 0.000784762
*CONN
*I *1130:A I *D sky130_fd_sc_hd__clkbuf_1
*I *1351:X O *D sky130_fd_sc_hd__dlygate4sd3_1
*CAP
1 *1130:A 0.00034946
2 *1351:X 0.00034946
3 *1256:CLK *1130:A 0
4 *1256:D *1130:A 0
5 *1388:A *1130:A 8.5841e-05
6 *243:12 *1130:A 0
7 *255:52 *1130:A 0
*RES
1 *1351:X *1130:A 12.45 
*END

*D_NET *293 0.000267792
*CONN
*I *1240:A1 I *D sky130_fd_sc_hd__mux2_1
*I *1352:X O *D sky130_fd_sc_hd__dlygate4sd3_1
*CAP
1 *1240:A1 0.000133896
2 *1352:X 0.000133896
*RES
1 *1352:X *1240:A1 5.045 
*END

*D_NET *294 0.00123913
*CONN
*I *1248:A0 I *D sky130_fd_sc_hd__mux2_1
*I *1382:X O *D sky130_fd_sc_hd__clkbuf_1
*CAP
1 *1248:A0 0.00040764
2 *1382:X 0.00040764
3 *1248:A0 *1092:A0 3.72007e-05
4 *1248:A0 *1359:A 0.00019941
5 *1396:A *1248:A0 0.000160314
6 *114:63 *1248:A0 2.69272e-05
*RES
1 *1382:X *1248:A0 14.43 
*END

*D_NET *295 0.000473618
*CONN
*I *1244:A1 I *D sky130_fd_sc_hd__mux2_1
*I *1353:X O *D sky130_fd_sc_hd__dlygate4sd3_1
*CAP
1 *1244:A1 0.000226255
2 *1353:X 0.000226255
3 *1244:S *1244:A1 2.11084e-05
*RES
1 *1353:X *1244:A1 5.72 
*END

*D_NET *296 8.68287e-05
*CONN
*I *1122:A1 I *D sky130_fd_sc_hd__o21ba_1
*I *1355:X O *D sky130_fd_sc_hd__dlygate4sd3_1
*CAP
1 *1122:A1 1.84334e-05
2 *1355:X 1.84334e-05
3 *1122:A1 *346:18 4.99619e-05
*RES
1 *1355:X *1122:A1 3.65 
*END

*D_NET *297 0.000374117
*CONN
*I *1217:A1 I *D sky130_fd_sc_hd__mux2_1
*I *1356:X O *D sky130_fd_sc_hd__dlygate4sd3_1
*CAP
1 *1217:A1 7.63496e-05
2 *1356:X 7.63496e-05
3 *1217:S *1217:A1 0.000119868
4 *1276:CLK *1217:A1 2.75229e-05
5 *250:28 *1217:A1 7.4027e-05
*RES
1 *1356:X *1217:A1 9.24 
*END

*D_NET *298 0.00238245
*CONN
*I *1211:A1 I *D sky130_fd_sc_hd__mux2_1
*I *1133:A0 I *D sky130_fd_sc_hd__mux2_1
*I *1357:X O *D sky130_fd_sc_hd__dlygate4sd3_1
*CAP
1 *1211:A1 0.000447138
2 *1133:A0 0.000430236
3 *1357:X 0
4 *298:4 0.000877374
5 *1133:A0 *1134:A 0
6 *1211:A1 *1357:A 7.35729e-05
7 *1063:A2 *1211:A1 0
8 *1258:RESET_B *1133:A0 4.05674e-06
9 *1317:A *1211:A1 0.000160635
10 *93:12 *1211:A1 8.97486e-05
11 *231:31 *1133:A0 4.82919e-05
12 *245:14 *1133:A0 0.000251397
*RES
1 *1357:X *298:4 1.6 
2 *298:4 *1133:A0 12.635 
3 *298:4 *1211:A1 13.115 
*END

*D_NET *299 0.000763074
*CONN
*I *1134:A I *D sky130_fd_sc_hd__clkbuf_1
*I *1358:X O *D sky130_fd_sc_hd__dlygate4sd3_1
*CAP
1 *1134:A 0.000356978
2 *1358:X 0.000356978
3 *1133:A0 *1134:A 0
4 *1258:D *1134:A 0
5 *1258:RESET_B *1134:A 4.91189e-05
6 *1358:A *1134:A 0
7 *245:14 *1134:A 0
8 *261:14 *1134:A 0
*RES
1 *1358:X *1134:A 13.455 
*END

*D_NET *300 0.000490273
*CONN
*I *1246:A1 I *D sky130_fd_sc_hd__mux2_1
*I *1359:X O *D sky130_fd_sc_hd__dlygate4sd3_1
*CAP
1 *1246:A1 0.00015736
2 *1359:X 0.00015736
3 *1246:A1 *1359:A 3.86607e-05
4 *1246:A0 *1246:A1 0
5 *1246:S *1246:A1 1.19928e-05
6 *234:62 *1246:A1 0.0001249
*RES
1 *1359:X *1246:A1 9.555 
*END

*D_NET *301 6.68839e-05
*CONN
*I *1087:A I *D sky130_fd_sc_hd__inv_2
*I *1360:X O *D sky130_fd_sc_hd__dlygate4sd3_1
*CAP
1 *1087:A 1.84229e-05
2 *1360:X 1.84229e-05
3 *1089:A1 *1087:A 3.00381e-05
*RES
1 *1360:X *1087:A 3.65 
*END

*D_NET *302 0.000530944
*CONN
*I *1238:A1 I *D sky130_fd_sc_hd__mux2_1
*I *1361:X O *D sky130_fd_sc_hd__dlygate4sd3_1
*CAP
1 *1238:A1 0.000129021
2 *1361:X 0.000129021
3 *114:65 *1238:A1 0.000272903
*RES
1 *1361:X *1238:A1 6.065 
*END

*D_NET *303 0.00077542
*CONN
*I *1242:A1 I *D sky130_fd_sc_hd__mux2_1
*I *1362:X O *D sky130_fd_sc_hd__dlygate4sd3_1
*CAP
1 *1242:A1 0.000297159
2 *1362:X 0.000297159
3 *1243:A *1242:A1 0
4 *114:71 *1242:A1 0.000102125
5 *233:97 *1242:A1 7.89767e-05
*RES
1 *1362:X *1242:A1 12.21 
*END

*D_NET *304 6.73708e-05
*CONN
*I *1233:A I *D sky130_fd_sc_hd__inv_2
*I *1363:X O *D sky130_fd_sc_hd__dlygate4sd3_1
*CAP
1 *1233:A 3.36854e-05
2 *1363:X 3.36854e-05
*RES
1 *1363:X *1233:A 3.65 
*END

*D_NET *305 0.00772098
*CONN
*I *1250:A0 I *D sky130_fd_sc_hd__mux2_1
*I *1383:X O *D sky130_fd_sc_hd__clkbuf_1
*CAP
1 *1250:A0 0.00300328
2 *1383:X 0.00300328
3 *1250:A0 *1077:A 0.00041538
4 *1250:A0 *1374:A 0.000127689
5 *1250:A0 *362:6 0.000115345
6 *1069:B1_N *1250:A0 1.45663e-05
7 *1226:A1 *1250:A0 2.50267e-05
8 *1226:A2 *1250:A0 0.000121039
9 *1226:B1_N *1250:A0 0.000114858
10 *1227:B1 *1250:A0 0.000197243
11 *1311:D *1250:A0 0.000197822
12 *1314:RESET_B *1250:A0 1.55562e-05
13 *106:8 *1250:A0 2.21074e-05
14 *114:40 *1250:A0 0.00034779
*RES
1 *1383:X *1250:A0 47.37 
*END

*D_NET *306 0.000906785
*CONN
*I *1156:B1 I *D sky130_fd_sc_hd__a31o_1
*I *1364:X O *D sky130_fd_sc_hd__dlygate4sd3_1
*CAP
1 *1156:B1 0.000171348
2 *1364:X 0.000171348
3 *1156:B1 *314:10 2.75092e-05
4 *1156:B1 *314:49 0.000122812
5 *1156:B1 *314:55 3.12341e-05
6 *1153:A2 *1156:B1 0.000280226
7 *1156:A3 *1156:B1 2.58336e-05
8 *1157:C1 *1156:B1 2.86975e-05
9 *259:30 *1156:B1 4.77757e-05
*RES
1 *1364:X *1156:B1 11.655 
*END

*D_NET *307 0.00132058
*CONN
*I *1060:A1 I *D sky130_fd_sc_hd__a22o_1
*I *1366:X O *D sky130_fd_sc_hd__dlygate4sd3_1
*CAP
1 *1060:A1 0.000411657
2 *1366:X 0.000411657
3 *1060:A1 *1167:A_N 8.61806e-05
4 *1060:A1 *336:12 0.000165788
5 *1060:B1 *1060:A1 1.64067e-05
6 *1085:C *1060:A1 0.000112087
7 *1144:A *1060:A1 4.77807e-05
8 *104:30 *1060:A1 6.90254e-05
*RES
1 *1366:X *1060:A1 13.98 
*END

*D_NET *308 0.00110648
*CONN
*I *1084:B2 I *D sky130_fd_sc_hd__a22o_1
*I *1367:X O *D sky130_fd_sc_hd__dlygate4sd3_1
*CAP
1 *1084:B2 0.000496591
2 *1367:X 0.000496591
3 *1084:B2 *333:14 3.343e-05
4 *109:51 *1084:B2 6.69341e-05
5 *110:55 *1084:B2 8.53113e-06
6 *184:96 *1084:B2 4.39911e-06
7 *250:28 *1084:B2 0
*RES
1 *1367:X *1084:B2 14.745 
*END

*D_NET *309 0.00339477
*CONN
*I *1077:A I *D sky130_fd_sc_hd__inv_2
*I *1095:C I *D sky130_fd_sc_hd__nor3_2
*I *1368:X O *D sky130_fd_sc_hd__buf_1
*CAP
1 *1077:A 0.000326744
2 *1095:C 0.000353142
3 *1368:X 0.000251077
4 *309:8 0.000930962
5 *1095:C *359:19 0
6 *1095:C *361:12 7.63204e-05
7 *1069:A2 *309:8 0.000383672
8 *1069:B1_N *1077:A 0.000200307
9 *1089:A1 *1095:C 1.73877e-05
10 *1226:A1 *1077:A 2.21074e-05
11 *1250:A0 *1077:A 0.00041538
12 *1275:D *1095:C 0
13 *1314:CLK *1077:A 3.19954e-05
14 *262:61 *1095:C 0.000183979
15 *262:68 *1077:A 0.000130955
16 *262:68 *1095:C 7.07456e-05
*RES
1 *1368:X *309:8 7.155 
2 *309:8 *1095:C 10.545 
3 *309:8 *1077:A 13.32 
*END

*D_NET *310 0.00138207
*CONN
*I *1096:B I *D sky130_fd_sc_hd__nor2_1
*I *1369:X O *D sky130_fd_sc_hd__dlygate4sd3_1
*CAP
1 *1096:B 0.000425917
2 *1369:X 0.000425917
3 *1096:B *1102:B1 8.33066e-06
4 *1096:B *1228:A 5.14915e-05
5 *1096:B *1230:A1 9.17791e-05
6 *1096:B *339:23 0.000122817
7 *1096:B *340:30 6.38608e-05
8 *1096:B *360:14 5.12017e-06
9 *1100:B *1096:B 3.72081e-05
10 *1230:B1 *1096:B 0.000116158
11 *260:103 *1096:B 3.34652e-05
*RES
1 *1369:X *1096:B 15.195 
*END

*D_NET *311 0.015129
*CONN
*I *1252:A0 I *D sky130_fd_sc_hd__mux2_1
*I *1384:X O *D sky130_fd_sc_hd__buf_1
*CAP
1 *1252:A0 0.00148338
2 *1384:X 0.00306251
3 *311:12 0.00454589
4 *1252:A0 *1092:A2 0
5 *1252:A0 *1092:S1 7.19427e-05
6 *1252:A0 *1340:A 7.83711e-05
7 *1252:A0 *349:38 4.49498e-05
8 *1252:A0 *358:8 3.73895e-05
9 *311:12 *1198:A 5.8286e-05
10 *311:12 *323:10 5.8403e-05
11 *1083:A *311:12 3.29364e-05
12 *1083:C *311:12 0.00013186
13 *1086:A *1252:A0 3.72081e-05
14 *1190:A2 *311:12 0.000133068
15 *1193:S *311:12 0.000266625
16 *1194:A *311:12 0.000112408
17 *1252:A1 *1252:A0 0.000115345
18 *1252:S *1252:A0 7.08297e-05
19 *1254:D *1252:A0 0
20 *1273:CLK *311:12 1.79098e-05
21 *1273:D *311:12 0.00023628
22 *1302:D *1252:A0 1.38283e-05
23 *1328:A *1252:A0 0.000673806
24 *1331:A *1252:A0 0.00125095
25 *1331:A *311:12 0.000214054
26 *112:86 *1252:A0 9.23937e-05
27 *193:10 *311:12 0.000112068
28 *193:12 *311:12 0.000841549
29 *230:20 *1252:A0 0.000120217
30 *237:10 *1252:A0 0
31 *260:52 *1252:A0 0.000429439
32 *260:72 *1252:A0 0
33 *263:40 *1252:A0 0.000785063
*RES
1 *1384:X *311:12 47.6625 
2 *311:12 *1252:A0 42.0075 
*END

*D_NET *312 0.00126576
*CONN
*I *1088:B I *D sky130_fd_sc_hd__nand2_4
*I *1068:A I *D sky130_fd_sc_hd__or2b_1
*I *1385:X O *D sky130_fd_sc_hd__buf_1
*CAP
1 *1088:B 0
2 *1068:A 0.000370548
3 *1385:X 0.000157329
4 *312:8 0.000527877
5 *1068:A *1068:B_N 2.75145e-05
6 *1068:A *359:6 1.01771e-05
7 *1089:B1 *1068:A 0
8 *1311:SET_B *1068:A 3.26084e-05
9 *1385:A *312:8 4.73204e-05
10 *114:12 *312:8 0
11 *238:97 *1068:A 9.23872e-05
*RES
1 *1385:X *312:8 3.7 
2 *312:8 *1068:A 11.57 
3 *312:8 *1088:B 1.6 
*END

*D_NET *313 0.00443201
*CONN
*I *1152:B I *D sky130_fd_sc_hd__xor2_1
*I *1156:A2 I *D sky130_fd_sc_hd__a31o_1
*I *1154:B I *D sky130_fd_sc_hd__and3_1
*I *1050:C_N I *D sky130_fd_sc_hd__or3b_2
*I *1163:B I *D sky130_fd_sc_hd__and4_1
*I *1147:S I *D sky130_fd_sc_hd__mux2_1
*I *1263:Q O *D sky130_fd_sc_hd__dfrtp_2
*CAP
1 *1152:B 0
2 *1156:A2 9.70322e-05
3 *1154:B 0.000224355
4 *1050:C_N 1.19353e-05
5 *1163:B 0.000166225
6 *1147:S 0.000121155
7 *1263:Q 0.000223879
8 *313:31 0.000224857
9 *313:29 0.000321093
10 *313:25 0.000296777
11 *313:14 0.00029099
12 *313:12 0.000244011
13 *1147:S *1152:A 2.01737e-05
14 *1156:A2 *314:49 2.21074e-05
15 *1156:A2 *314:55 0.000169468
16 *1156:A2 *315:10 1.08758e-05
17 *1163:B *1163:A 4.82919e-05
18 *1163:B *1163:C 5.83121e-06
19 *1163:B *1163:D 2.45351e-05
20 *1163:B *315:12 0
21 *313:25 *1152:A 3.27524e-05
22 *313:25 *314:55 0.000158552
23 *313:31 *315:12 0
24 *1147:A0 *1147:S 1.22325e-05
25 *1153:A3 *1163:B 1.92979e-05
26 *1153:A3 *313:29 8.32328e-05
27 *1153:A3 *313:31 6.42062e-05
28 *1153:B1 *313:12 3.12855e-05
29 *1153:B1 *313:25 7.4445e-05
30 *1153:B2 *313:25 8.52972e-05
31 *1156:A3 *1156:A2 3.12916e-05
32 *1263:RESET_B *313:12 0.000160338
33 *1301:CLK *1050:C_N 4.77807e-05
34 *1301:CLK *1154:B 0.000404734
35 *84:14 *1050:C_N 2.69217e-05
36 *84:14 *1163:B 6.90254e-05
37 *151:60 *1147:S 0.000349102
38 *151:60 *313:25 0.000257923
*RES
1 *1263:Q *313:12 8.72 
2 *313:12 *313:14 0.36 
3 *313:14 *1147:S 5.17 
4 *313:14 *313:25 4.245 
5 *313:25 *313:29 3.125 
6 *313:29 *313:31 0.87 
7 *313:31 *1163:B 6.12 
8 *313:31 *1050:C_N 4.05 
9 *313:29 *1154:B 7.875 
10 *313:25 *1156:A2 3.79 
11 *313:12 *1152:B 1.6 
*END

*D_NET *314 0.00361045
*CONN
*I *1156:A1 I *D sky130_fd_sc_hd__a31o_1
*I *1153:A1 I *D sky130_fd_sc_hd__a32o_1
*I *1152:A I *D sky130_fd_sc_hd__xor2_1
*I *1154:A I *D sky130_fd_sc_hd__and3_1
*I *1050:A I *D sky130_fd_sc_hd__or3b_2
*I *1163:A I *D sky130_fd_sc_hd__and4_1
*I *1264:Q O *D sky130_fd_sc_hd__dfrtp_2
*CAP
1 *1156:A1 0
2 *1153:A1 0
3 *1152:A 0.000142458
4 *1154:A 3.93902e-05
5 *1050:A 1.50419e-05
6 *1163:A 0.00023395
7 *1264:Q 0.00012558
8 *314:55 0.000249166
9 *314:49 0.000133713
10 *314:29 5.44321e-05
11 *314:16 0.000422064
12 *314:10 0.000340698
13 *1050:A *1154:C 1.91597e-05
14 *1154:A *1154:C 8.52883e-05
15 *1163:A *1163:D 0.000231617
16 *1163:A *315:12 4.90457e-05
17 *314:16 *315:10 7.03219e-05
18 *314:16 *315:12 6.17462e-05
19 *314:49 *315:10 8.34281e-06
20 *1147:S *1152:A 2.01737e-05
21 *1153:A2 *314:55 9.8172e-05
22 *1153:A3 *314:55 4.77769e-05
23 *1153:B1 *1152:A 0.000214844
24 *1156:A2 *314:49 2.21074e-05
25 *1156:A2 *314:55 0.000169468
26 *1156:A3 *314:49 2.68526e-05
27 *1156:B1 *314:10 2.75092e-05
28 *1156:B1 *314:49 0.000122812
29 *1156:B1 *314:55 3.12341e-05
30 *1163:B *1163:A 4.82919e-05
31 *1264:D *1152:A 0.000159722
32 *1264:D *314:55 1.07593e-05
33 *1301:CLK *1050:A 4.66108e-05
34 *1301:CLK *1154:A 4.30228e-05
35 *151:89 *1163:A 0
36 *151:93 *314:16 0
37 *259:30 *314:10 4.77757e-05
38 *313:25 *1152:A 3.27524e-05
39 *313:25 *314:55 0.000158552
*RES
1 *1264:Q *314:10 5.43 
2 *314:10 *314:16 2.955 
3 *314:16 *1163:A 7.755 
4 *314:16 *314:29 2 
5 *314:29 *1050:A 2.05 
6 *314:29 *1154:A 2.755 
7 *314:10 *314:49 3.14 
8 *314:49 *314:55 3.84 
9 *314:55 *1152:A 5.17 
10 *314:55 *1153:A1 1.6 
11 *314:49 *1156:A1 1.6 
*END

*D_NET *315 0.00335813
*CONN
*I *1364:A I *D sky130_fd_sc_hd__dlygate4sd3_1
*I *1050:B I *D sky130_fd_sc_hd__or3b_2
*I *1154:C I *D sky130_fd_sc_hd__and3_1
*I *1163:D I *D sky130_fd_sc_hd__and4_1
*I *1265:Q O *D sky130_fd_sc_hd__dfrtp_1
*CAP
1 *1364:A 0.000241695
2 *1050:B 0
3 *1154:C 0.000145154
4 *1163:D 0.000299228
5 *1265:Q 0
6 *315:12 0.000518037
7 *315:10 0.000448749
8 *315:4 0.000616788
9 *1163:D *1163:C 4.66108e-05
10 *1050:A *1154:C 1.91597e-05
11 *1154:A *1154:C 8.52883e-05
12 *1156:A2 *315:10 1.08758e-05
13 *1156:A3 *315:10 0.000233126
14 *1157:B1 *315:10 4.12775e-05
15 *1163:A *1163:D 0.000231617
16 *1163:A *315:12 4.90457e-05
17 *1163:B *1163:D 2.45351e-05
18 *1163:B *315:12 0
19 *1265:D *1364:A 4.88478e-05
20 *1265:D *315:10 2.86975e-05
21 *1301:CLK *1154:C 3.312e-05
22 *84:14 *1163:D 0
23 *104:81 *1364:A 4.11806e-05
24 *104:81 *315:10 6.91408e-06
25 *151:41 *1163:D 0
26 *259:30 *1364:A 4.77719e-05
27 *313:31 *315:12 0
28 *314:16 *315:10 7.03219e-05
29 *314:16 *315:12 6.17462e-05
30 *314:49 *315:10 8.34281e-06
*RES
1 *1265:Q *315:4 1.6 
2 *315:4 *315:10 7.115 
3 *315:10 *315:12 1.38 
4 *315:12 *1163:D 9.15 
5 *315:12 *1154:C 5.49 
6 *315:10 *1050:B 3.6 
7 *315:4 *1364:A 9.5 
*END

*D_NET *316 0.00508426
*CONN
*I *1370:A I *D sky130_fd_sc_hd__dlygate4sd3_1
*I *1163:C I *D sky130_fd_sc_hd__and4_1
*I *1055:A I *D sky130_fd_sc_hd__nand2_1
*I *1052:A I *D sky130_fd_sc_hd__or4bb_1
*I *1266:Q O *D sky130_fd_sc_hd__dfrtp_1
*CAP
1 *1370:A 0.000122565
2 *1163:C 7.03695e-05
3 *1055:A 0
4 *1052:A 0.000506899
5 *1266:Q 0
6 *316:18 0.000794505
7 *316:8 0.00108158
8 *316:4 0.000846172
9 *1052:A *1056:B 0
10 *1052:A *1184:A1 8.64599e-05
11 *1151:A1 *1052:A 2.36226e-05
12 *1153:A3 *1052:A 0
13 *1153:A3 *1163:C 0.000129735
14 *1153:A3 *316:18 0.000177939
15 *1159:A2 *316:18 1.34503e-05
16 *1159:A3 *1052:A 0
17 *1159:B1 *1052:A 0
18 *1159:B1 *316:18 2.75229e-05
19 *1162:A1 *316:8 4.01749e-05
20 *1162:A2 *316:8 3.90873e-06
21 *1162:A3 *316:8 1.52352e-05
22 *1163:B *1163:C 5.83121e-06
23 *1163:D *1163:C 4.66108e-05
24 *1169:A2 *1052:A 0
25 *1177:A1 *1052:A 0
26 *1177:A2 *1052:A 0.000109338
27 *1240:A0 *1370:A 5.76338e-05
28 *1266:D *316:8 0.000191232
29 *84:14 *1163:C 7.3913e-05
30 *84:14 *316:18 6.32495e-05
31 *89:6 *316:18 6.20088e-05
32 *90:10 *1052:A 0
33 *151:29 *1370:A 0.00011852
34 *151:41 *316:8 0.000355918
35 *153:8 *316:8 4.82919e-05
36 *157:23 *1052:A 0
37 *157:23 *316:18 0
38 *250:28 *1370:A 1.1578e-05
*RES
1 *1266:Q *316:4 1.6 
2 *316:4 *316:8 11.42 
3 *316:8 *316:18 8.935 
4 *316:18 *1052:A 12.66 
5 *316:18 *1055:A 3.6 
6 *316:8 *1163:C 5.685 
7 *316:4 *1370:A 8.12 
*END

*D_NET *317 0.00652858
*CONN
*I *1165:A I *D sky130_fd_sc_hd__nand2_1
*I *1055:B I *D sky130_fd_sc_hd__nand2_1
*I *1170:A I *D sky130_fd_sc_hd__and2_1
*I *1169:A1 I *D sky130_fd_sc_hd__a21o_1
*I *1051:A I *D sky130_fd_sc_hd__nand2_1
*I *1164:A I *D sky130_fd_sc_hd__or2_1
*I *1336:A I *D sky130_fd_sc_hd__dlygate4sd3_1
*I *1267:Q O *D sky130_fd_sc_hd__dfrtp_2
*CAP
1 *1165:A 8.71402e-06
2 *1055:B 0.000232171
3 *1170:A 0.000142734
4 *1169:A1 9.88613e-06
5 *1051:A 0.000236374
6 *1164:A 0
7 *1336:A 0
8 *1267:Q 0.000148039
9 *317:40 0.000433734
10 *317:38 0.000520475
11 *317:36 0.000589305
12 *317:30 0.000306045
13 *317:17 0.000348651
14 *317:8 0.000366225
15 *1051:A *1059:A 4.80982e-05
16 *1051:A *318:14 0.000197862
17 *1055:B *1177:B2 1.58398e-05
18 *1169:A1 *1169:B1 4.77807e-05
19 *1170:A *1170:B 8.62955e-05
20 *1170:A *320:43 4.66108e-05
21 *1170:A *320:51 4.66108e-05
22 *1170:A *338:27 0.000119873
23 *317:38 *320:51 2.02316e-05
24 *317:38 *338:10 0.000114588
25 *317:40 *1059:A 7.46719e-05
26 *317:40 *320:51 8.77499e-05
27 *1147:A1 *317:30 0.000134226
28 *1159:A3 *1055:B 0
29 *1164:B *317:17 3.5678e-06
30 *1164:B *317:30 0
31 *1166:B2 *1165:A 9.50342e-06
32 *1166:B2 *317:17 0.000121032
33 *1166:B2 *317:30 0.000155052
34 *1169:A2 *1051:A 4.28112e-06
35 *1169:A2 *317:38 0.000109676
36 *1169:A2 *317:40 0.000134227
37 *1173:A *1170:A 4.89395e-05
38 *1174:A1 *1051:A 0.000109514
39 *1177:A2 *1055:B 0.000162311
40 *1177:B1 *1055:B 6.90981e-05
41 *1178:B1 *317:36 0.000169415
42 *1178:B1 *317:38 2.92496e-05
43 *1178:B2 *317:36 7.00115e-05
44 *1181:B1 *317:36 3.31204e-05
45 *1181:B1 *317:38 9.95272e-05
46 *1182:D *317:40 6.09029e-05
47 *1267:RESET_B *317:8 0.000122797
48 *89:14 *1055:B 0
49 *93:8 *1051:A 6.43093e-05
50 *153:29 *317:30 3.96088e-05
51 *153:29 *317:36 5.09008e-05
52 *166:12 *1165:A 4.12825e-05
53 *166:12 *317:36 0.00020327
54 *166:12 *317:38 0.000186407
55 *170:8 *1169:A1 4.77807e-05
*RES
1 *1267:Q *317:8 4.135 
2 *317:8 *1336:A 1.6 
3 *317:8 *317:17 3.57 
4 *317:17 *1164:A 1.6 
5 *317:17 *317:30 5.2625 
6 *317:30 *317:36 4.8675 
7 *317:36 *317:38 6.225 
8 *317:38 *317:40 3.93 
9 *317:40 *1051:A 9.15 
10 *317:40 *1169:A1 4.05 
11 *317:38 *1170:A 6.825 
12 *317:36 *1055:B 7.77 
13 *317:30 *1165:A 4.0875 
*END

*D_NET *318 0.00484152
*CONN
*I *1056:A I *D sky130_fd_sc_hd__or4bb_1
*I *1170:B I *D sky130_fd_sc_hd__and2_1
*I *1169:B1 I *D sky130_fd_sc_hd__a21o_1
*I *1051:B I *D sky130_fd_sc_hd__nand2_1
*I *1167:C I *D sky130_fd_sc_hd__and4b_1
*I *1268:Q O *D sky130_fd_sc_hd__dfrtp_1
*CAP
1 *1056:A 9.90318e-05
2 *1170:B 0.000360584
3 *1169:B1 8.75965e-05
4 *1051:B 0
5 *1167:C 9.59111e-05
6 *1268:Q 0.000184875
7 *318:47 0.000622751
8 *318:30 0.000358264
9 *318:14 0.000155133
10 *318:8 0.000351628
11 *1056:A *1056:B 8.53011e-05
12 *1056:A *1056:D_N 3.83194e-05
13 *1056:A *338:27 2.27133e-05
14 *1169:B1 *319:57 0.000131578
15 *1170:B *1056:D_N 5.83121e-06
16 *1170:B *320:43 2.22826e-05
17 *1170:B *320:51 0.000107546
18 *1170:B *338:27 6.07575e-06
19 *318:47 *1052:C_N 0.000175721
20 *318:47 *1056:B 0.000197757
21 *318:47 *1056:D_N 2.7608e-05
22 *318:47 *319:57 3.72081e-05
23 *1051:A *318:14 0.000197862
24 *1053:C *1167:C 3.40258e-05
25 *1053:C *318:14 1.77945e-05
26 *1060:B2 *318:8 3.98126e-05
27 *1063:A2 *318:8 0
28 *1080:B *318:8 0
29 *1169:A1 *1169:B1 4.77807e-05
30 *1169:A2 *318:30 3.75882e-06
31 *1169:A2 *318:47 6.53352e-05
32 *1170:A *1170:B 8.62955e-05
33 *1173:A *1170:B 2.69217e-05
34 *1174:A1 *1167:C 3.35221e-05
35 *1174:A1 *318:14 0.000272903
36 *1184:A2 *1167:C 8.8031e-05
37 *1185:B1 *318:47 1.11025e-05
38 *1186:A2 *1167:C 0.000232434
39 *85:6 *1167:C 0.000122817
40 *85:6 *318:14 1.54665e-05
41 *93:12 *318:8 0.000249098
42 *104:30 *1167:C 1.52517e-05
43 *170:8 *1169:B1 0.000107593
*RES
1 *1268:Q *318:8 7.53 
2 *318:8 *318:14 4.88 
3 *318:14 *1167:C 5.17 
4 *318:14 *1051:B 1.6 
5 *318:8 *318:30 1.635 
6 *318:30 *1169:B1 6.495 
7 *318:30 *318:47 6.695 
8 *318:47 *1170:B 7.495 
9 *318:47 *1056:A 3.7 
*END

*D_NET *319 0.00893371
*CONN
*I *1175:A I *D sky130_fd_sc_hd__inv_2
*I *1177:B2 I *D sky130_fd_sc_hd__o22a_1
*I *1176:A I *D sky130_fd_sc_hd__nand2_1
*I *1179:A1 I *D sky130_fd_sc_hd__a31o_1
*I *1180:A I *D sky130_fd_sc_hd__nand3_1
*I *1183:A1 I *D sky130_fd_sc_hd__a31o_1
*I *1056:D_N I *D sky130_fd_sc_hd__or4bb_1
*I *1052:B I *D sky130_fd_sc_hd__or4bb_1
*I *1182:A I *D sky130_fd_sc_hd__nand4_1
*I *1269:Q O *D sky130_fd_sc_hd__dfrtp_4
*CAP
1 *1175:A 0.000286586
2 *1177:B2 0.000144052
3 *1176:A 1.59511e-05
4 *1179:A1 0
5 *1180:A 0
6 *1183:A1 2.9907e-05
7 *1056:D_N 0.000162282
8 *1052:B 5.72478e-05
9 *1182:A 5.82414e-05
10 *1269:Q 4.65825e-05
11 *319:106 0.000501675
12 *319:95 0.000373614
13 *319:57 0.000575625
14 *319:38 0.000821907
15 *319:32 0.00110369
16 *319:18 0.000789803
17 *319:12 0.000348058
18 *319:6 0.000525693
19 *1056:D_N *1056:B 0.000155489
20 *1056:D_N *338:27 4.41506e-05
21 *1182:A *1059:A 0.000109489
22 *319:18 *1179:B1 0.000145489
23 *319:18 *320:83 3.68999e-05
24 *319:32 *320:8 0.000169844
25 *319:32 *320:18 0
26 *319:32 *320:22 0
27 *319:32 *320:83 0.000118081
28 *1055:B *1177:B2 1.58398e-05
29 *1056:A *1056:D_N 3.83194e-05
30 *1169:B1 *319:57 0.000131578
31 *1170:B *1056:D_N 5.83121e-06
32 *1174:B1 *319:38 4.80058e-05
33 *1174:B1 *319:57 2.0187e-05
34 *1174:C1 *1182:A 0.000110791
35 *1176:B *1176:A 7.34961e-06
36 *1176:B *319:106 3.15452e-05
37 *1177:B1 *1176:A 9.53428e-06
38 *1177:B1 *1177:B2 0.000184377
39 *1177:B1 *319:106 1.6408e-05
40 *1178:A1_N *1175:A 0.000235156
41 *1178:B2 *1175:A 6.87258e-05
42 *1179:A2 *319:12 1.59888e-05
43 *1179:A3 *319:106 3.03477e-05
44 *1181:A2 *319:18 2.99137e-05
45 *1181:A3 *319:18 2.85837e-05
46 *1181:B1 *319:32 6.20952e-05
47 *1185:A2 *1182:A 4.66108e-05
48 *1185:B1 *1052:B 8.53011e-05
49 *1185:B1 *1182:A 2.49909e-05
50 *1268:D *319:38 1.66378e-05
51 *1269:D *1175:A 0.000224786
52 *1269:D *319:6 0.000122797
53 *1270:RESET_B *319:32 0.000191633
54 *1271:D *319:32 0.000270638
55 *153:8 *1175:A 2.05056e-05
56 *170:8 *319:38 1.19028e-05
57 *170:8 *319:57 4.1804e-05
58 *172:10 *319:32 0
59 *174:68 *319:106 6.27114e-05
60 *258:77 *319:32 3.76421e-05
61 *318:47 *1056:D_N 2.7608e-05
62 *318:47 *319:57 3.72081e-05
*RES
1 *1269:Q *319:6 2.74 
2 *319:6 *319:12 4.685 
3 *319:12 *319:18 4.94 
4 *319:18 *319:32 18.225 
5 *319:32 *319:38 6.77 
6 *319:38 *1182:A 7.43 
7 *319:38 *319:57 6.77 
8 *319:57 *1052:B 4.395 
9 *319:57 *1056:D_N 7.05 
10 *319:32 *1183:A1 4.215 
11 *319:18 *1180:A 1.6 
12 *319:12 *319:95 2.45 
13 *319:95 *1179:A1 1.6 
14 *319:95 *319:106 4.44 
15 *319:106 *1176:A 1.96 
16 *319:106 *1177:B2 4.24375 
17 *319:6 *1175:A 7.69 
*END

*D_NET *320 0.00522598
*CONN
*I *1179:B1 I *D sky130_fd_sc_hd__a31o_1
*I *1180:B I *D sky130_fd_sc_hd__nand3_1
*I *1334:A I *D sky130_fd_sc_hd__dlygate4sd3_1
*I *1182:B I *D sky130_fd_sc_hd__nand4_1
*I *1056:C_N I *D sky130_fd_sc_hd__or4bb_1
*I *1052:C_N I *D sky130_fd_sc_hd__or4bb_1
*I *1183:A2 I *D sky130_fd_sc_hd__a31o_1
*I *1270:Q O *D sky130_fd_sc_hd__dfrtp_2
*CAP
1 *1179:B1 0.000100667
2 *1180:B 0
3 *1334:A 1.64934e-05
4 *1182:B 0
5 *1056:C_N 0
6 *1052:C_N 7.81805e-05
7 *1183:A2 9.7445e-05
8 *1270:Q 5.94794e-05
9 *320:83 0.00014097
10 *320:51 0.00019486
11 *320:43 0.000547149
12 *320:22 0.000676982
13 *320:18 0.000291822
14 *320:8 0.000226045
15 *1052:C_N *321:50 4.66108e-05
16 *1183:A2 *321:37 1.23437e-05
17 *320:51 *1059:A 3.26448e-05
18 *320:51 *338:10 2.68111e-05
19 *320:51 *338:27 8.2555e-05
20 *1169:A2 *1052:C_N 6.38147e-05
21 *1170:A *320:43 4.66108e-05
22 *1170:A *320:51 4.66108e-05
23 *1170:B *320:43 2.22826e-05
24 *1170:B *320:51 0.000107546
25 *1171:A *1334:A 8.52883e-05
26 *1171:A *320:18 8.41307e-05
27 *1174:C1 *320:43 3.26448e-05
28 *1179:A2 *320:18 0.000121566
29 *1179:A3 *1179:B1 0.000198622
30 *1180:C *1179:B1 4.77719e-05
31 *1181:A1 *1334:A 4.30228e-05
32 *1181:A1 *320:18 6.79434e-05
33 *1181:A2 *320:18 2.10152e-05
34 *1181:B1 *1179:B1 0.000111728
35 *1181:B1 *320:8 0.000121643
36 *1181:B1 *320:18 3.37446e-05
37 *1181:B1 *320:83 0.000143928
38 *1183:A3 *320:43 5.1985e-06
39 *1185:A2 *320:43 9.84609e-06
40 *1185:B1 *1052:C_N 9.78672e-05
41 *1185:B1 *320:43 0.000195465
42 *172:10 *320:18 9.09788e-06
43 *172:10 *320:22 5.71481e-05
44 *172:10 *320:43 8.52044e-06
45 *174:21 *320:43 5.78474e-05
46 *317:38 *320:51 2.02316e-05
47 *317:40 *320:51 8.77499e-05
48 *318:47 *1052:C_N 0.000175721
49 *319:18 *1179:B1 0.000145489
50 *319:18 *320:83 3.68999e-05
51 *319:32 *320:8 0.000169844
52 *319:32 *320:18 0
53 *319:32 *320:22 0
54 *319:32 *320:83 0.000118081
*RES
1 *1270:Q *320:8 3.445 
2 *320:8 *320:18 7.135 
3 *320:18 *320:22 4.655 
4 *320:22 *1183:A2 4.98 
5 *320:22 *320:43 11.565 
6 *320:43 *320:51 7.21 
7 *320:51 *1052:C_N 8.195 
8 *320:51 *1056:C_N 1.6 
9 *320:43 *1182:B 1.6 
10 *320:18 *1334:A 2.395 
11 *320:8 *320:83 1.485 
12 *320:83 *1180:B 1.6 
13 *320:83 *1179:B1 9.14 
*END

*D_NET *321 0.00436029
*CONN
*I *1056:B I *D sky130_fd_sc_hd__or4bb_1
*I *1184:A1 I *D sky130_fd_sc_hd__a32o_1
*I *1052:D_N I *D sky130_fd_sc_hd__or4bb_1
*I *1182:C I *D sky130_fd_sc_hd__nand4_1
*I *1183:B1 I *D sky130_fd_sc_hd__a31o_1
*I *1271:Q O *D sky130_fd_sc_hd__dfrtp_1
*CAP
1 *1056:B 0.000145264
2 *1184:A1 0.000208305
3 *1052:D_N 0
4 *1182:C 9.14932e-06
5 *1183:B1 3.69322e-05
6 *1271:Q 7.773e-05
7 *321:50 0.00047796
8 *321:37 0.000815524
9 *321:8 0.000796647
10 *1052:A *1056:B 0
11 *1052:A *1184:A1 8.64599e-05
12 *1052:C_N *321:50 4.66108e-05
13 *1056:A *1056:B 8.53011e-05
14 *1056:D_N *1056:B 0.000155489
15 *1169:A2 *1056:B 0
16 *1183:A2 *321:37 1.23437e-05
17 *1183:A3 *321:37 0.000118114
18 *1184:A2 *1184:A1 3.83657e-05
19 *1184:A3 *1184:A1 1.48095e-06
20 *1184:B1 *1184:A1 0
21 *1185:A2 *321:37 0.000192513
22 *1185:A3 *321:37 9.19201e-05
23 *1185:B1 *1184:A1 0.000308641
24 *1185:B1 *321:37 2.42739e-05
25 *1185:B1 *321:50 0.000122444
26 *1271:D *1183:B1 4.89295e-05
27 *1271:D *321:8 4.57056e-05
28 *1271:D *321:37 7.96961e-05
29 *86:27 *1184:A1 0.000136732
30 *318:47 *1056:B 0.000197757
*RES
1 *1271:Q *321:8 3.1 
2 *321:8 *1183:B1 2.665 
3 *321:8 *321:37 14.815 
4 *321:37 *1182:C 1.96 
5 *321:37 *321:50 2.64 
6 *321:50 *1052:D_N 1.6 
7 *321:50 *1184:A1 7.39375 
8 *321:50 *1056:B 9.05 
*END

*D_NET *322 0.00640089
*CONN
*I *1354:A I *D sky130_fd_sc_hd__dlygate4sd3_1
*I *1062:A3 I *D sky130_fd_sc_hd__a41o_1
*I *1082:B I *D sky130_fd_sc_hd__nand2_1
*I *1191:B I *D sky130_fd_sc_hd__or2_1
*I *1206:A I *D sky130_fd_sc_hd__or2b_1
*I *1202:B_N I *D sky130_fd_sc_hd__or2b_1
*I *1272:Q O *D sky130_fd_sc_hd__dfrtp_2
*CAP
1 *1354:A 0
2 *1062:A3 0.00064921
3 *1082:B 7.98017e-05
4 *1191:B 0
5 *1206:A 0
6 *1202:B_N 0.000150512
7 *1272:Q 4.83038e-05
8 *322:32 0.000592848
9 *322:20 0.000501289
10 *322:18 0.00019842
11 *322:16 0.000943034
12 *322:8 0.000282462
13 *1062:A3 *1062:A1 5.83121e-06
14 *1062:A3 *1192:A 8.65961e-05
15 *1062:A3 *1193:A0 0.000122325
16 *1062:A3 *1210:A 0.000174197
17 *1202:B_N *324:29 0.000161467
18 *322:20 *323:16 4.9931e-05
19 *1062:A4 *1062:A3 4.82919e-05
20 *1190:A1 *322:16 0.000174064
21 *1190:B1 *322:8 4.99619e-05
22 *1190:B1 *322:16 2.32597e-05
23 *1192:B *1062:A3 3.1562e-06
24 *1192:C *1062:A3 1.70906e-05
25 *1193:A1 *1062:A3 8.40213e-05
26 *1208:S *1202:B_N 9.47017e-05
27 *1210:B *1062:A3 3.1562e-06
28 *1210:C *1062:A3 6.83538e-05
29 *1210:D *1062:A3 8.65905e-05
30 *1211:S *1062:A3 0.000233742
31 *1219:A *322:32 2.49909e-05
32 *1219:C *322:32 8.23457e-05
33 *1220:S *322:32 0.000134515
34 *1272:D *322:8 1.61831e-05
35 *1320:A *322:16 8.45475e-05
36 *1320:A *322:18 0.000198286
37 *1320:A *322:20 3.09164e-05
38 *110:14 *1062:A3 7.64231e-06
39 *188:8 *322:32 9.96427e-06
40 *193:12 *322:16 9.14049e-05
41 *193:12 *322:18 0.000204463
42 *193:12 *322:20 0.000182674
43 *193:12 *322:32 4.51809e-05
44 *193:36 *322:32 0.000308645
45 *199:10 *322:32 4.65119e-05
*RES
1 *1272:Q *322:8 2.755 
2 *322:8 *322:16 5.915 
3 *322:16 *322:18 2.4 
4 *322:18 *322:20 2.145 
5 *322:20 *322:32 10.19 
6 *322:32 *1202:B_N 8.825 
7 *322:32 *1206:A 1.6 
8 *322:20 *1191:B 3.6 
9 *322:18 *1082:B 4.755 
10 *322:16 *1062:A3 14.46 
11 *322:8 *1354:A 1.6 
*END

*D_NET *323 0.00499186
*CONN
*I *1191:A I *D sky130_fd_sc_hd__or2_1
*I *1193:A0 I *D sky130_fd_sc_hd__mux2_1
*I *1082:A I *D sky130_fd_sc_hd__nand2_1
*I *1062:A2 I *D sky130_fd_sc_hd__a41o_1
*I *1206:B_N I *D sky130_fd_sc_hd__or2b_1
*I *1202:A I *D sky130_fd_sc_hd__or2b_1
*I *1273:Q O *D sky130_fd_sc_hd__dfrtp_1
*CAP
1 *1191:A 0
2 *1193:A0 0.000197115
3 *1082:A 0
4 *1062:A2 0.000254867
5 *1206:B_N 6.97684e-05
6 *1202:A 0.00015649
7 *1273:Q 0.000171096
8 *323:26 0.00028955
9 *323:24 0.000817555
10 *323:20 0.000525667
11 *323:16 0.000294444
12 *323:10 0.000242154
13 *1062:A2 *1062:A1 4.77719e-05
14 *1062:A2 *1210:A 0.000120655
15 *1062:A2 *324:68 9.97672e-05
16 *1202:A *324:8 5.31158e-06
17 *1202:A *324:68 0.000103434
18 *323:26 *324:68 6.13059e-05
19 *1062:A3 *1193:A0 0.000122325
20 *1062:A4 *1062:A2 4.9968e-05
21 *1192:C *1193:A0 0.00012904
22 *1192:C *323:16 0.000117327
23 *1193:A1 *1193:A0 3.83194e-05
24 *1193:S *1193:A0 7.70431e-05
25 *1194:A *323:10 0.000197243
26 *1208:S *1202:A 4.89295e-05
27 *1220:S *323:10 0.000180874
28 *1220:S *323:16 4.89395e-05
29 *1273:D *323:10 0.000270505
30 *1320:A *1193:A0 7.63204e-05
31 *1320:A *323:16 4.43871e-06
32 *110:10 *323:20 1.56428e-05
33 *110:10 *323:24 1.83756e-05
34 *188:8 *323:16 3.12855e-05
35 *311:12 *323:10 5.8403e-05
36 *322:20 *323:16 4.9931e-05
*RES
1 *1273:Q *323:10 6.91 
2 *323:10 *323:16 4.085 
3 *323:16 *323:20 2.45 
4 *323:20 *323:24 9.005 
5 *323:24 *323:26 1.38 
6 *323:26 *1202:A 6.195 
7 *323:26 *1206:B_N 4.665 
8 *323:24 *1062:A2 7.995 
9 *323:20 *1082:A 1.6 
10 *323:16 *1193:A0 8.28 
11 *323:10 *1191:A 1.6 
*END

*D_NET *324 0.00429763
*CONN
*I *1210:A I *D sky130_fd_sc_hd__or4_1
*I *1062:A1 I *D sky130_fd_sc_hd__a41o_1
*I *1081:A I *D sky130_fd_sc_hd__inv_2
*I *1199:A I *D sky130_fd_sc_hd__or4_1
*I *1207:A I *D sky130_fd_sc_hd__or4_1
*I *1203:A I *D sky130_fd_sc_hd__or4_1
*I *1274:Q O *D sky130_fd_sc_hd__dfrtp_2
*CAP
1 *1210:A 0.000138066
2 *1062:A1 7.12842e-05
3 *1081:A 0
4 *1199:A 0.000230017
5 *1207:A 1.52228e-05
6 *1203:A 0.000224121
7 *1274:Q 0
8 *324:68 0.000512807
9 *324:42 0.000428769
10 *324:29 0.000459488
11 *324:8 0.000517536
12 *324:6 0.000351359
13 *324:68 *334:8 0
14 *1062:A2 *1062:A1 4.77719e-05
15 *1062:A2 *1210:A 0.000120655
16 *1062:A2 *324:68 9.97672e-05
17 *1062:A3 *1062:A1 5.83121e-06
18 *1062:A3 *1210:A 0.000174197
19 *1062:A4 *1210:A 4.82863e-05
20 *1062:A4 *324:68 1.59888e-05
21 *1197:A2 *1062:A1 0
22 *1199:B *1199:A 4.9253e-06
23 *1199:D *1199:A 0.00012477
24 *1202:A *324:8 5.31158e-06
25 *1202:A *324:68 0.000103434
26 *1202:B_N *324:29 0.000161467
27 *1203:D *1203:A 3.50152e-06
28 *1207:D *324:42 4.77769e-05
29 *1208:S *324:29 7.46876e-05
30 *1211:S *1062:A1 4.57056e-05
31 *184:51 *324:42 0.000203573
32 *323:26 *324:68 6.13059e-05
*RES
1 *1274:Q *324:6 3.6 
2 *324:6 *324:8 0.87 
3 *324:8 *1203:A 6.84 
4 *324:8 *324:29 6.26 
5 *324:29 *1207:A 1.96 
6 *324:29 *324:42 3.675 
7 *324:42 *1199:A 9.665 
8 *324:42 *1081:A 1.6 
9 *324:6 *324:68 8.525 
10 *324:68 *1062:A1 3.1 
11 *324:68 *1210:A 4.825 
*END

*D_NET *325 0.00197832
*CONN
*I *1372:A I *D sky130_fd_sc_hd__dlygate4sd3_1
*I *1276:Q O *D sky130_fd_sc_hd__dfrtp_1
*CAP
1 *1372:A 0.000469915
2 *1276:Q 0.000469915
3 *1127:S *1372:A 3.98782e-05
4 *1214:A1 *1372:A 0.000107378
5 *1214:S *1372:A 0.000158536
6 *1215:A *1372:A 4.89295e-05
7 *1255:D *1372:A 0.000120186
8 *1327:A *1372:A 4.99619e-05
9 *93:57 *1372:A 0.000128248
10 *235:76 *1372:A 9.86611e-05
11 *256:31 *1372:A 7.23602e-05
12 *256:53 *1372:A 8.82978e-05
13 *258:8 *1372:A 0.000126054
*RES
1 *1276:Q *1372:A 17.955 
*END

*D_NET *326 0.000430684
*CONN
*I *1350:A I *D sky130_fd_sc_hd__dlygate4sd3_1
*I *1277:Q O *D sky130_fd_sc_hd__dfrtp_1
*CAP
1 *1350:A 0.000215342
2 *1277:Q 0.000215342
*RES
1 *1277:Q *1350:A 10.41 
*END

*D_NET *327 0.00047947
*CONN
*I *1348:A I *D sky130_fd_sc_hd__dlygate4sd3_1
*I *1278:Q O *D sky130_fd_sc_hd__dfrtp_1
*CAP
1 *1348:A 0.000239735
2 *1278:Q 0.000239735
*RES
1 *1278:Q *1348:A 10.755 
*END

*D_NET *328 0.000359106
*CONN
*I *1357:A I *D sky130_fd_sc_hd__dlygate4sd3_1
*I *1279:Q O *D sky130_fd_sc_hd__dfrtp_1
*CAP
1 *1357:A 0.000142766
2 *1279:Q 0.000142766
3 *1211:A1 *1357:A 7.35729e-05
4 *93:12 *1357:A 0
*RES
1 *1279:Q *1357:A 9.72 
*END

*D_NET *329 0.00039368
*CONN
*I *1342:A I *D sky130_fd_sc_hd__dlygate4sd3_1
*I *1280:Q O *D sky130_fd_sc_hd__dfrtp_1
*CAP
1 *1342:A 0.00019684
2 *1280:Q 0.00019684
*RES
1 *1280:Q *1342:A 6.065 
*END

*D_NET *330 0.0030891
*CONN
*I *1356:A I *D sky130_fd_sc_hd__dlygate4sd3_1
*I *1137:A0 I *D sky130_fd_sc_hd__mux2_1
*I *1281:Q O *D sky130_fd_sc_hd__dfrtp_1
*CAP
1 *1356:A 0.000519749
2 *1137:A0 0.000742498
3 *1281:Q 0
4 *330:4 0.00126225
5 *1137:S *1137:A0 5.30673e-05
6 *1199:B *1356:A 0
7 *1200:S *1356:A 0
8 *1217:S *1356:A 0
9 *1276:CLK *1137:A0 4.22048e-05
10 *1276:D *1356:A 0
11 *1281:CLK *1137:A0 9.13949e-06
12 *1281:RESET_B *1137:A0 1.53577e-05
13 *1324:A *1356:A 2.75145e-05
14 *193:52 *1356:A 0
15 *232:35 *1137:A0 0.000324948
16 *240:10 *1356:A 0
17 *250:28 *1356:A 0
18 *255:6 *1137:A0 2.20732e-05
19 *255:6 *1356:A 1.7386e-05
20 *255:20 *1137:A0 5.29163e-05
*RES
1 *1281:Q *330:4 1.6 
2 *330:4 *1137:A0 12.34 
3 *330:4 *1356:A 12.575 
*END

*D_NET *331 0.000661483
*CONN
*I *1341:A I *D sky130_fd_sc_hd__dlygate4sd3_1
*I *1282:Q O *D sky130_fd_sc_hd__dfrtp_1
*CAP
1 *1341:A 0.000292693
2 *1282:Q 0.000292693
3 *112:99 *1341:A 0
4 *256:102 *1341:A 7.60965e-05
5 *256:116 *1341:A 0
6 *282:10 *1341:A 0
*RES
1 *1282:Q *1341:A 11.76 
*END

*D_NET *332 0.000772687
*CONN
*I *1335:A I *D sky130_fd_sc_hd__dlygate4sd3_1
*I *1283:Q O *D sky130_fd_sc_hd__dfrtp_1
*CAP
1 *1335:A 0.000324148
2 *1283:Q 0.000324148
3 *1223:A1 *1335:A 2.59285e-05
4 *1262:D *1335:A 3.06667e-05
5 *276:10 *1335:A 6.77962e-05
*RES
1 *1283:Q *1335:A 12.795 
*END

*D_NET *333 0.00674969
*CONN
*I *1198:B I *D sky130_fd_sc_hd__or3_2
*I *1187:B I *D sky130_fd_sc_hd__nor2_1
*I *1074:B_N I *D sky130_fd_sc_hd__or2b_2
*I *1145:A1 I *D sky130_fd_sc_hd__o21ba_1
*I *1058:A I *D sky130_fd_sc_hd__or2b_1
*I *1195:B I *D sky130_fd_sc_hd__or2_1
*I *1299:Q O *D sky130_fd_sc_hd__dfstp_1
*CAP
1 *1198:B 3.89717e-05
2 *1187:B 0
3 *1074:B_N 0.000123216
4 *1145:A1 0
5 *1058:A 0.000112236
6 *1195:B 0.000257852
7 *1299:Q 0
8 *333:54 0.000704288
9 *333:37 0.000805606
10 *333:22 0.000795791
11 *333:14 0.000633984
12 *333:4 0.000247315
13 *1195:B *1186:B1 0.000139238
14 *1195:B *1195:A 1.76343e-05
15 *1195:B *334:10 5.10647e-05
16 *333:22 *1187:A 7.57202e-05
17 *333:22 *334:33 0.000269296
18 *333:22 *334:74 0.000409136
19 *333:37 *1186:B1 0.000108322
20 *333:54 *1167:A_N 1.21329e-05
21 *333:54 *1168:B1 7.72829e-05
22 *333:54 *338:27 2.49909e-05
23 *333:54 *338:38 2.83334e-05
24 *1058:B_N *333:22 3.30017e-05
25 *1058:B_N *333:37 4.88147e-05
26 *1084:B2 *333:14 3.343e-05
27 *1085:C *333:54 0
28 *1145:A2 *1074:B_N 0.00027109
29 *1145:A2 *333:54 3.56826e-05
30 *1186:A1 *333:37 7.63883e-05
31 *1186:A1 *333:54 0.000229554
32 *1188:A *333:14 0.000116853
33 *91:43 *333:37 1.7902e-05
34 *91:43 *333:54 0.000190207
35 *110:55 *333:14 0.00022372
36 *112:16 *333:22 0.000348742
37 *193:10 *333:14 0
38 *230:24 *333:14 4.07522e-05
39 *254:10 *333:54 0
40 *258:46 *1198:B 5.1143e-05
41 *258:46 *333:14 7.14008e-06
42 *258:60 *1058:A 9.28568e-05
*RES
1 *1299:Q *333:4 1.6 
2 *333:4 *333:14 8.4925 
3 *333:14 *333:22 12.485 
4 *333:22 *1195:B 7.155 
5 *333:22 *333:37 2.655 
6 *333:37 *1058:A 5.085 
7 *333:37 *333:54 11.78 
8 *333:54 *1145:A1 1.6 
9 *333:54 *1074:B_N 4.12 
10 *333:14 *1187:B 1.6 
11 *333:4 *1198:B 2.2225 
*END

*D_NET *334 0.00741634
*CONN
*I *1195:A I *D sky130_fd_sc_hd__or2_1
*I *1186:B1 I *D sky130_fd_sc_hd__o31a_2
*I *1187:A I *D sky130_fd_sc_hd__nor2_1
*I *1189:A1 I *D sky130_fd_sc_hd__a21oi_1
*I *1192:A I *D sky130_fd_sc_hd__and3_1
*I *1143:B I *D sky130_fd_sc_hd__or3_1
*I *1149:B I *D sky130_fd_sc_hd__or2_2
*I *1367:A I *D sky130_fd_sc_hd__dlygate4sd3_1
*I *1061:A I *D sky130_fd_sc_hd__inv_2
*I *1300:Q O *D sky130_fd_sc_hd__dfrtp_4
*CAP
1 *1195:A 4.38886e-05
2 *1186:B1 0.000209164
3 *1187:A 3.48054e-05
4 *1189:A1 5.77131e-05
5 *1192:A 7.90444e-05
6 *1143:B 0.000345788
7 *1149:B 0
8 *1367:A 4.13391e-05
9 *1061:A 5.44507e-05
10 *1300:Q 0.000220783
11 *334:78 0.000234108
12 *334:74 0.000320654
13 *334:48 0.000530708
14 *334:37 0.000340718
15 *334:33 0.000506096
16 *334:16 0.000443982
17 *334:10 0.000441889
18 *334:8 0.000311005
19 *1143:B *335:43 5.19006e-06
20 *1143:B *335:55 0.000266391
21 *1058:B_N *1186:B1 4.00541e-06
22 *1062:A3 *1192:A 8.65961e-05
23 *1062:A4 *1061:A 8.53113e-06
24 *1062:B1 *334:8 6.5525e-05
25 *1167:B *1186:B1 0
26 *1167:B *334:10 0
27 *1186:A2 *1186:B1 4.82863e-05
28 *1195:B *1186:B1 0.000139238
29 *1195:B *1195:A 1.76343e-05
30 *1195:B *334:10 5.10647e-05
31 *1196:A1 *1189:A1 0
32 *1196:A1 *1192:A 9.30717e-05
33 *1196:A3 *1189:A1 3.95698e-05
34 *1197:A2 *334:8 7.4027e-05
35 *1197:B1 *1061:A 4.94474e-05
36 *1197:B1 *334:8 1.69508e-05
37 *1197:B1 *334:10 5.38986e-06
38 *1274:D *334:8 0
39 *1299:CLK *1061:A 4.77719e-05
40 *91:43 *1186:B1 7.23602e-05
41 *104:30 *334:48 0
42 *109:32 *1192:A 7.21296e-06
43 *109:32 *334:78 7.21296e-06
44 *109:51 *334:78 0.000181837
45 *110:14 *1192:A 3.07153e-05
46 *110:55 *1192:A 4.11281e-05
47 *110:55 *334:78 7.81946e-05
48 *112:16 *1143:B 7.82738e-05
49 *112:16 *334:37 6.23949e-05
50 *112:16 *334:48 0.000106531
51 *184:6 *1367:A 3.45679e-05
52 *230:41 *334:16 0.000269916
53 *232:14 *334:8 0
54 *254:10 *1061:A 6.21553e-05
55 *254:10 *334:33 0.00013521
56 *258:60 *1186:B1 4.47209e-05
57 *258:60 *334:37 4.1652e-06
58 *258:60 *334:48 0.000102443
59 *324:68 *334:8 0
60 *333:22 *1187:A 7.57202e-05
61 *333:22 *334:33 0.000269296
62 *333:22 *334:74 0.000409136
63 *333:37 *1186:B1 0.000108322
*RES
1 *1300:Q *334:8 7.4025 
2 *334:8 *334:10 0.9975 
3 *334:10 *334:16 6.52 
4 *334:16 *1061:A 4.92 
5 *334:16 *334:33 6.155 
6 *334:33 *334:37 4.145 
7 *334:37 *1367:A 4.395 
8 *334:37 *334:48 3.675 
9 *334:48 *1149:B 3.6 
10 *334:48 *1143:B 9.78 
11 *334:33 *334:74 3.9 
12 *334:74 *334:78 4.655 
13 *334:78 *1192:A 5.775 
14 *334:78 *1189:A1 4.41 
15 *334:74 *1187:A 2.395 
16 *334:10 *1186:B1 8.37 
17 *334:8 *1195:A 4.2825 
*END

*D_NET *335 0.0103334
*CONN
*I *1143:C I *D sky130_fd_sc_hd__or3_1
*I *1054:A I *D sky130_fd_sc_hd__inv_2
*I *1073:B1 I *D sky130_fd_sc_hd__o31a_1
*I *1150:A I *D sky130_fd_sc_hd__nor2_1
*I *1184:B2 I *D sky130_fd_sc_hd__a32o_1
*I *1168:B1 I *D sky130_fd_sc_hd__a21o_1
*I *1198:C I *D sky130_fd_sc_hd__or3_2
*I *1301:Q O *D sky130_fd_sc_hd__dfrtp_4
*CAP
1 *1143:C 1.8374e-05
2 *1054:A 0.000141952
3 *1073:B1 0.000205999
4 *1150:A 7.23849e-05
5 *1184:B2 5.29522e-05
6 *1168:B1 0.000300698
7 *1198:C 0.000319942
8 *1301:Q 0.000329666
9 *335:106 0.000468098
10 *335:89 0.000351264
11 *335:57 0.00039556
12 *335:55 0.000865911
13 *335:43 0.00107462
14 *335:10 0.00104058
15 *1143:C *1084:A1 5.19006e-06
16 *1150:A *338:27 3.42624e-05
17 *1150:A *338:38 0
18 *1168:B1 *1167:A_N 4.27108e-05
19 *1198:C *1198:A 6.9254e-05
20 *335:43 *1084:A1 6.88506e-05
21 *335:55 *1084:A1 4.31979e-05
22 *335:55 *1085:A 0.000194921
23 *1053:A *1168:B1 0.000157394
24 *1057:A *1054:A 0.000112726
25 *1057:C *1073:B1 0.000193806
26 *1057:D *1073:B1 2.29937e-05
27 *1080:C *1168:B1 9.65327e-05
28 *1083:A *1198:C 6.63221e-05
29 *1083:B *1198:C 5.69216e-05
30 *1083:C *1198:C 0.000121043
31 *1084:A2 *335:43 0.000267561
32 *1084:B1 *335:43 0.000122814
33 *1085:C *335:55 3.12855e-05
34 *1143:B *335:43 5.19006e-06
35 *1143:B *335:55 0.000266391
36 *1146:A1 *1054:A 0.000123225
37 *1146:A1 *1073:B1 4.82863e-05
38 *1151:A1 *1168:B1 2.62526e-05
39 *1168:A1 *1168:B1 5.19006e-06
40 *1177:A1 *1073:B1 8.73389e-06
41 *1184:B1 *1168:B1 2.87125e-05
42 *1184:B1 *1184:B2 2.49909e-05
43 *1184:B1 *335:57 2.15337e-05
44 *1186:A1 *1168:B1 0.000128216
45 *1287:CLK *335:10 0
46 *1301:RESET_B *1198:C 7.27587e-05
47 *1301:RESET_B *335:10 0.000461346
48 *1302:RESET_B *1198:C 0.00015356
49 *1326:A *1198:C 0.000303442
50 *84:18 *335:106 3.40521e-05
51 *84:33 *335:57 2.3228e-05
52 *84:33 *335:89 9.60006e-05
53 *84:33 *335:106 0.000152044
54 *91:43 *1054:A 3.57349e-05
55 *91:43 *1168:B1 0.000111293
56 *91:43 *335:55 1.48417e-05
57 *91:43 *335:89 0
58 *104:30 *335:55 0.000132283
59 *108:8 *1168:B1 7.11365e-05
60 *108:44 *1168:B1 6.5716e-05
61 *112:16 *335:55 1.91597e-05
62 *112:80 *335:43 8.41384e-05
63 *112:86 *335:43 3.54721e-05
64 *152:8 *335:89 4.18603e-06
65 *152:8 *335:106 0.000139853
66 *155:10 *335:55 7.27587e-05
67 *257:8 *335:43 1.56428e-05
68 *258:46 *1198:C 0.000124932
69 *333:54 *1168:B1 7.72829e-05
*RES
1 *1301:Q *335:10 10.545 
2 *335:10 *1198:C 12.18 
3 *335:10 *335:43 13.305 
4 *335:43 *335:55 16.74 
5 *335:55 *335:57 0.87 
6 *335:57 *1168:B1 11.37 
7 *335:57 *1184:B2 4.395 
8 *335:55 *335:89 2.145 
9 *335:89 *1150:A 5.025 
10 *335:89 *335:106 5.93 
11 *335:106 *1073:B1 5.08 
12 *335:106 *1054:A 4.735 
13 *335:43 *1143:C 1.96 
*END

*D_NET *336 0.00467321
*CONN
*I *1198:A I *D sky130_fd_sc_hd__or3_2
*I *1366:A I *D sky130_fd_sc_hd__dlygate4sd3_1
*I *1084:A1 I *D sky130_fd_sc_hd__a22o_1
*I *1143:A I *D sky130_fd_sc_hd__or3_1
*I *1085:A I *D sky130_fd_sc_hd__nand3_4
*I *1149:A I *D sky130_fd_sc_hd__or2_2
*I *1167:A_N I *D sky130_fd_sc_hd__and4b_1
*I *1302:Q O *D sky130_fd_sc_hd__dfrtp_4
*CAP
1 *1198:A 0.000125803
2 *1366:A 0
3 *1084:A1 7.43251e-05
4 *1143:A 0
5 *1085:A 3.8525e-05
6 *1149:A 0
7 *1167:A_N 0.00025968
8 *1302:Q 0
9 *336:38 0.000264696
10 *336:12 0.000381469
11 *336:8 0.000345378
12 *336:6 0.000146017
13 *336:4 0.000200078
14 *1060:A1 *1167:A_N 8.61806e-05
15 *1060:A1 *336:12 0.000165788
16 *1084:B1 *1084:A1 2.87688e-05
17 *1143:C *1084:A1 5.19006e-06
18 *1144:A *336:12 4.66108e-05
19 *1144:A *336:38 6.04361e-05
20 *1168:B1 *1167:A_N 4.27108e-05
21 *1186:A1 *1167:A_N 0.000159169
22 *1198:C *1198:A 6.9254e-05
23 *1302:D *1198:A 8.33066e-06
24 *91:43 *1167:A_N 0.000154409
25 *108:44 *1167:A_N 0.00027108
26 *108:44 *336:6 0.000196686
27 *108:44 *336:8 0.000196699
28 *108:44 *336:12 0.000415848
29 *112:16 *1085:A 8.41384e-05
30 *112:80 *1084:A1 0.000320696
31 *112:80 *1085:A 8.8781e-05
32 *250:28 *336:38 2.03643e-05
33 *258:46 *1198:A 3.8706e-05
34 *311:12 *1198:A 5.8286e-05
35 *333:54 *1167:A_N 1.21329e-05
36 *335:43 *1084:A1 6.88506e-05
37 *335:55 *1084:A1 4.31979e-05
38 *335:55 *1085:A 0.000194921
*RES
1 *1302:Q *336:4 1.6 
2 *336:4 *336:6 1.83 
3 *336:6 *336:8 1.83 
4 *336:8 *336:12 4.26 
5 *336:12 *1167:A_N 12.44 
6 *336:12 *1149:A 1.6 
7 *336:8 *336:38 6.145 
8 *336:38 *1085:A 3.43 
9 *336:38 *1143:A 1.6 
10 *336:38 *1084:A1 4.825 
11 *336:6 *1366:A 1.6 
12 *336:4 *1198:A 8.405 
*END

*D_NET *337 0.000526243
*CONN
*I *1332:A I *D sky130_fd_sc_hd__dlygate4sd3_1
*I *1297:Q O *D sky130_fd_sc_hd__dfxtp_1
*CAP
1 *1332:A 0.000263121
2 *1297:Q 0.000263121
*RES
1 *1297:Q *1332:A 6.335 
*END

*D_NET *338 0.00825034
*CONN
*I *1085:B I *D sky130_fd_sc_hd__nand3_4
*I *1074:A I *D sky130_fd_sc_hd__or2b_2
*I *1145:B1_N I *D sky130_fd_sc_hd__o21ba_1
*I *1059:A I *D sky130_fd_sc_hd__buf_2
*I *1298:Q O *D sky130_fd_sc_hd__dfxtp_1
*CAP
1 *1085:B 0.000223406
2 *1074:A 0
3 *1145:B1_N 0
4 *1059:A 0.000252656
5 *1298:Q 0.00101814
6 *338:38 0.000502339
7 *338:27 0.0012068
8 *338:10 0.00219866
9 *1051:A *1059:A 4.80982e-05
10 *1056:A *338:27 2.27133e-05
11 *1056:D_N *338:27 4.41506e-05
12 *1145:A2 *338:38 0.000104821
13 *1147:A1 *338:10 0.000317367
14 *1150:A *338:27 3.42624e-05
15 *1150:A *338:38 0
16 *1150:B *338:27 2.69217e-05
17 *1166:A2 *338:10 0.000115159
18 *1170:A *338:27 0.000119873
19 *1170:B *338:27 6.07575e-06
20 *1173:A *338:10 0.000393797
21 *1174:C1 *1059:A 9.51328e-05
22 *1178:A2_N *338:10 3.31217e-05
23 *1181:B1 *338:10 0.000444865
24 *1182:A *1059:A 0.000109489
25 *1263:CLK *338:10 0
26 *90:10 *338:27 2.21307e-05
27 *104:10 *1085:B 0.00011138
28 *104:10 *338:38 8.52883e-05
29 *104:30 *1085:B 0.000102488
30 *112:16 *1085:B 7.98007e-06
31 *153:29 *338:10 0.000152127
32 *156:8 *338:27 3.1562e-06
33 *233:71 *338:10 6.33498e-05
34 *317:38 *338:10 0.000114588
35 *317:40 *1059:A 7.46719e-05
36 *320:51 *1059:A 3.26448e-05
37 *320:51 *338:10 2.68111e-05
38 *320:51 *338:27 8.2555e-05
39 *333:54 *338:27 2.49909e-05
40 *333:54 *338:38 2.83334e-05
*RES
1 *1298:Q *338:10 25.275 
2 *338:10 *1059:A 9.06 
3 *338:10 *338:27 13.52 
4 *338:27 *1145:B1_N 1.6 
5 *338:27 *338:38 4.185 
6 *338:38 *1074:A 1.6 
7 *338:38 *1085:B 9.395 
*END

*D_NET *339 0.00622102
*CONN
*I *1103:B I *D sky130_fd_sc_hd__nand3_1
*I *1107:B I *D sky130_fd_sc_hd__and4_1
*I *1230:A1 I *D sky130_fd_sc_hd__a41o_1
*I *1099:B I *D sky130_fd_sc_hd__or2_1
*I *1098:B I *D sky130_fd_sc_hd__nand2_1
*I *1228:A I *D sky130_fd_sc_hd__and4_1
*I *1066:A I *D sky130_fd_sc_hd__and3_1
*I *1102:A2 I *D sky130_fd_sc_hd__a21o_1
*I *1365:A I *D sky130_fd_sc_hd__dlygate4sd3_1
*I *1284:Q O *D sky130_fd_sc_hd__dfrtp_4
*CAP
1 *1103:B 0.000187258
2 *1107:B 0.00030951
3 *1230:A1 0.000147114
4 *1099:B 0
5 *1098:B 0
6 *1228:A 7.1842e-05
7 *1066:A 0.000284921
8 *1102:A2 1.50077e-05
9 *1365:A 3.55408e-05
10 *1284:Q 2.31002e-05
11 *339:105 0.000620757
12 *339:81 0.000222657
13 *339:61 8.3078e-05
14 *339:59 0.000369845
15 *339:23 0.000495203
16 *339:12 0.000230816
17 *339:10 0.000496945
18 *339:6 0.000360968
19 *1103:B *1102:B1 0
20 *1103:B *341:6 5.30673e-05
21 *1103:B *341:15 5.30673e-05
22 *1107:B *1107:C 5.83121e-06
23 *1230:A1 *1098:A 4.66108e-05
24 *1230:A1 *340:30 4.28112e-06
25 *1230:A1 *360:14 5.13065e-05
26 *339:61 *1098:A 5.19006e-06
27 *339:81 *1098:A 3.54009e-05
28 *339:81 *340:8 8.66466e-06
29 *1096:A *339:23 4.89395e-05
30 *1096:B *1228:A 5.14915e-05
31 *1096:B *1230:A1 9.17791e-05
32 *1096:B *339:23 0.000122817
33 *1100:A *1066:A 5.13485e-05
34 *1100:A *1102:A2 1.22325e-05
35 *1100:B *1066:A 0.000154982
36 *1100:B *339:23 9.7934e-05
37 *1100:C *1066:A 1.08036e-05
38 *1104:A_N *1107:B 0.000119636
39 *1104:B *339:10 0.000116702
40 *1104:B *339:23 0.000235382
41 *1104:B *339:59 1.75871e-05
42 *1104:C *1103:B 2.67022e-05
43 *1105:A *339:6 2.03795e-05
44 *1109:A2 *1103:B 1.22676e-05
45 *1230:A4 *1066:A 1.85674e-05
46 *1275:D *1066:A 0.000301552
47 *1284:D *1365:A 4.81721e-05
48 *1284:D *339:23 6.79632e-05
49 *96:14 *1066:A 0
50 *96:16 *1066:A 1.56428e-05
51 *97:18 *1066:A 5.20263e-05
52 *125:8 *1103:B 0.0001249
53 *260:14 *339:10 0
54 *260:103 *1228:A 6.07763e-05
55 *260:103 *339:59 0.000117265
56 *260:103 *339:61 5.19006e-06
*RES
1 *1284:Q *339:6 2.05 
2 *339:6 *339:10 5.93 
3 *339:10 *339:12 2 
4 *339:12 *1365:A 2.395 
5 *339:12 *339:23 5.295 
6 *339:23 *1102:A2 1.96 
7 *339:23 *1066:A 11.93 
8 *339:10 *339:59 6.875 
9 *339:59 *339:61 0.36 
10 *339:61 *1228:A 7.235 
11 *339:61 *1098:B 1.6 
12 *339:59 *339:81 1.5 
13 *339:81 *1099:B 1.6 
14 *339:81 *1230:A1 8.495 
15 *339:6 *339:105 1.83 
16 *339:105 *1107:B 5.68 
17 *339:105 *1103:B 8.975 
*END

*D_NET *340 0.00344377
*CONN
*I *1065:A_N I *D sky130_fd_sc_hd__and4bb_1
*I *1102:A1 I *D sky130_fd_sc_hd__a21o_1
*I *1107:A I *D sky130_fd_sc_hd__and4_1
*I *1103:A I *D sky130_fd_sc_hd__nand3_1
*I *1098:A I *D sky130_fd_sc_hd__nand2_1
*I *1099:A I *D sky130_fd_sc_hd__or2_1
*I *1285:Q O *D sky130_fd_sc_hd__dfrtp_2
*CAP
1 *1065:A_N 0.000116877
2 *1102:A1 0
3 *1107:A 2.55105e-05
4 *1103:A 0.000156622
5 *1098:A 9.38826e-05
6 *1099:A 0
7 *1285:Q 0
8 *340:32 0.000310888
9 *340:30 0.000249027
10 *340:10 0.000120641
11 *340:8 0.000502159
12 *340:4 0.000472007
13 *1065:A_N *1065:B_N 1.14169e-05
14 *1103:A *1102:B1 8.52239e-05
15 *1103:A *1103:C 0
16 *1103:A *1107:C 0.000117825
17 *1103:A *341:15 4.82863e-05
18 *1103:A *341:30 0.000105163
19 *340:30 *1102:B1 2.57991e-05
20 *340:32 *1102:B1 0.000148177
21 *1096:B *340:30 6.38608e-05
22 *1100:C *340:8 4.6075e-05
23 *1104:A_N *1107:A 4.82863e-05
24 *1230:A1 *1098:A 4.66108e-05
25 *1230:A1 *340:30 4.28112e-06
26 *1275:D *1103:A 0
27 *1275:D *340:32 0
28 *1285:D *340:8 9.40308e-05
29 *1285:RESET_B *340:8 2.40061e-05
30 *238:12 *340:30 0.000132752
31 *238:12 *340:32 3.72081e-05
32 *238:23 *1065:A_N 2.99026e-05
33 *238:23 *1098:A 6.89924e-06
34 *238:23 *340:8 0.00027109
35 *339:61 *1098:A 5.19006e-06
36 *339:81 *1098:A 3.54009e-05
37 *339:81 *340:8 8.66466e-06
*RES
1 *1285:Q *340:4 1.6 
2 *340:4 *340:8 7.71 
3 *340:8 *340:10 0.45 
4 *340:10 *1099:A 1.6 
5 *340:10 *1098:A 3.46 
6 *340:8 *340:30 4.91 
7 *340:30 *340:32 3.165 
8 *340:32 *1103:A 7.245 
9 *340:32 *1107:A 4.05 
10 *340:30 *1102:A1 3.6 
11 *340:4 *1065:A_N 3.445 
*END

*D_NET *341 0.00199445
*CONN
*I *1064:B_N I *D sky130_fd_sc_hd__and4bb_1
*I *1107:D I *D sky130_fd_sc_hd__and4_1
*I *1102:B1 I *D sky130_fd_sc_hd__a21o_1
*I *1103:C I *D sky130_fd_sc_hd__nand3_1
*I *1286:Q O *D sky130_fd_sc_hd__dfrtp_1
*CAP
1 *1064:B_N 0
2 *1107:D 7.07456e-05
3 *1102:B1 0.000290213
4 *1103:C 2.08101e-05
5 *1286:Q 5.03913e-05
6 *341:30 0.000159426
7 *341:15 0.00044626
8 *341:6 0.000138567
9 *1102:B1 *1107:C 2.54692e-05
10 *1107:D *1107:C 0.000101264
11 *341:30 *1064:A_N 4.82919e-05
12 *341:30 *343:38 0
13 *1096:B *1102:B1 8.33066e-06
14 *1103:A *1102:B1 8.52239e-05
15 *1103:A *1103:C 0
16 *1103:A *341:15 4.82863e-05
17 *1103:A *341:30 0.000105163
18 *1103:B *1102:B1 0
19 *1103:B *341:6 5.30673e-05
20 *1103:B *341:15 5.30673e-05
21 *1104:A_N *1107:D 1.47347e-05
22 *1104:B *1102:B1 0
23 *1109:A2 *1102:B1 0
24 *1109:B1 *341:30 1.91597e-05
25 *1275:D *1107:D 5.2089e-05
26 *125:8 *341:6 1.61831e-05
27 *128:34 *341:30 1.37328e-05
28 *340:30 *1102:B1 2.57991e-05
29 *340:32 *1102:B1 0.000148177
*RES
1 *1286:Q *341:6 2.74 
2 *341:6 *1103:C 1.96 
3 *341:6 *341:15 1.485 
4 *341:15 *1102:B1 11.825 
5 *341:15 *341:30 2.1 
6 *341:30 *1107:D 7.175 
7 *341:30 *1064:B_N 1.6 
*END

*D_NET *342 0.00141283
*CONN
*I *1107:C I *D sky130_fd_sc_hd__and4_1
*I *1064:A_N I *D sky130_fd_sc_hd__and4bb_1
*I *1371:A I *D sky130_fd_sc_hd__dlygate4sd3_1
*I *1287:Q O *D sky130_fd_sc_hd__dfrtp_1
*CAP
1 *1107:C 0.000124584
2 *1064:A_N 9.71884e-06
3 *1371:A 0
4 *1287:Q 0.000121364
5 *342:19 0.000198824
6 *342:10 0.000185886
7 *1102:B1 *1107:C 2.54692e-05
8 *1103:A *1107:C 0.000117825
9 *1104:A_N *1107:C 4.82919e-05
10 *1107:B *1107:C 5.83121e-06
11 *1107:D *1107:C 0.000101264
12 *1109:B1 *1064:A_N 4.82919e-05
13 *1109:B1 *342:10 8.53113e-06
14 *1109:B1 *342:19 0.00012904
15 *1275:D *1107:C 4.2857e-05
16 *1275:D *342:10 4.70343e-05
17 *1275:D *342:19 6.14602e-05
18 *1287:D *342:10 0
19 *257:58 *342:10 8.8266e-05
20 *341:30 *1064:A_N 4.82919e-05
*RES
1 *1287:Q *342:10 5.775 
2 *342:10 *1371:A 3.6 
3 *342:10 *342:19 1.89 
4 *342:19 *1064:A_N 4.05 
5 *342:19 *1107:C 6.45 
*END

*D_NET *343 0.00436354
*CONN
*I *1118:B I *D sky130_fd_sc_hd__and4_2
*I *1111:A I *D sky130_fd_sc_hd__or2_1
*I *1110:A I *D sky130_fd_sc_hd__nand2_1
*I *1064:D I *D sky130_fd_sc_hd__and4bb_1
*I *1114:B I *D sky130_fd_sc_hd__and3_1
*I *1115:A1 I *D sky130_fd_sc_hd__a21o_1
*I *1288:Q O *D sky130_fd_sc_hd__dfrtp_1
*CAP
1 *1118:B 7.67875e-05
2 *1111:A 2.15248e-05
3 *1110:A 0
4 *1064:D 1.02919e-05
5 *1114:B 0
6 *1115:A1 0
7 *1288:Q 0.00023429
8 *343:51 0.000303335
9 *343:38 0.000511696
10 *343:27 0.000571101
11 *343:25 0.0006171
12 *343:12 0.000423095
13 *343:25 *1118:A 6.88421e-05
14 *343:25 *344:24 7.06347e-05
15 *343:51 *344:38 0
16 *1109:B1 *1064:D 2.16833e-05
17 *1109:B1 *343:38 8.65961e-05
18 *1111:B *1111:A 4.82919e-05
19 *1112:B *1111:A 7.60965e-05
20 *1115:A2 *1118:B 4.66108e-05
21 *1115:A2 *343:27 1.91597e-05
22 *1116:C *343:25 8.38605e-05
23 *1275:D *343:51 0
24 *1288:RESET_B *343:12 0.000179049
25 *1289:CLK *343:12 6.31865e-05
26 *1289:D *343:25 2.0851e-06
27 *1393:A *343:25 0
28 *128:14 *343:51 0
29 *128:34 *1064:D 4.82863e-05
30 *128:34 *343:38 0.000136838
31 *128:41 *343:38 8.82557e-05
32 *128:52 *343:27 2.7441e-05
33 *128:52 *343:38 2.30292e-05
34 *133:8 *343:27 0.000308664
35 *136:29 *1118:B 0.000122801
36 *236:62 *343:12 2.68464e-05
37 *257:58 *1111:A 4.60584e-05
38 *341:30 *343:38 0
*RES
1 *1288:Q *343:12 9.65 
2 *343:12 *1115:A1 1.6 
3 *343:12 *343:25 6.94 
4 *343:25 *343:27 4.59 
5 *343:27 *1114:B 1.6 
6 *343:27 *343:38 4.62 
7 *343:38 *1064:D 2.05 
8 *343:38 *343:51 7.93 
9 *343:51 *1110:A 1.6 
10 *343:51 *1111:A 2.74 
11 *343:25 *1118:B 3.61 
*END

*D_NET *344 0.00395923
*CONN
*I *1115:B1 I *D sky130_fd_sc_hd__a21o_1
*I *1118:A I *D sky130_fd_sc_hd__and4_2
*I *1064:C I *D sky130_fd_sc_hd__and4bb_1
*I *1114:A I *D sky130_fd_sc_hd__and3_1
*I *1289:Q O *D sky130_fd_sc_hd__dfrtp_1
*CAP
1 *1115:B1 0
2 *1118:A 4.7295e-05
3 *1064:C 0.000282246
4 *1114:A 0
5 *1289:Q 0.000432608
6 *344:38 0.000762632
7 *344:24 0.000564739
8 *344:18 0.000469665
9 *1108:A *1064:C 4.82919e-05
10 *1112:A *344:38 0
11 *1114:C *1064:C 9.53428e-06
12 *1115:A2 *1118:A 8.20052e-05
13 *1115:A2 *344:24 7.06347e-05
14 *1116:A_N *344:38 0.000124331
15 *1116:B *344:38 0.000160314
16 *1116:C *344:18 7.44125e-05
17 *1116:C *344:24 4.77719e-05
18 *1117:A *344:18 0.000173634
19 *1117:A *344:24 4.66108e-05
20 *1117:A *344:38 7.63277e-05
21 *1394:A *344:18 4.61744e-05
22 *120:16 *344:38 0
23 *128:34 *1064:C 0.000226953
24 *128:41 *1064:C 7.35729e-05
25 *343:25 *1118:A 6.88421e-05
26 *343:25 *344:24 7.06347e-05
27 *343:51 *344:38 0
*RES
1 *1289:Q *344:18 12.74 
2 *344:18 *344:24 3.32 
3 *344:24 *344:38 13.545 
4 *344:38 *1114:A 1.6 
5 *344:38 *1064:C 6.325 
6 *344:24 *1118:A 4.725 
7 *344:18 *1115:B1 1.6 
*END

*D_NET *345 0.00346466
*CONN
*I *1065:B_N I *D sky130_fd_sc_hd__and4bb_1
*I *1343:A I *D sky130_fd_sc_hd__dlygate4sd3_1
*I *1118:C I *D sky130_fd_sc_hd__and4_2
*I *1290:Q O *D sky130_fd_sc_hd__dfrtp_1
*CAP
1 *1065:B_N 0.000451768
2 *1343:A 0.000137258
3 *1118:C 0.000226569
4 *1290:Q 0.000241201
5 *345:21 0.000710852
6 *345:8 0.000589596
7 *1065:B_N *1123:A 0.000106599
8 *1065:B_N *1124:B1 4.89362e-05
9 *1065:B_N *346:54 4.77807e-05
10 *1065:B_N *347:12 7.38676e-05
11 *1065:A_N *1065:B_N 1.14169e-05
12 *1120:A2 *1118:C 0
13 *1120:A2 *345:21 0
14 *1125:B *1065:B_N 8.23697e-05
15 *97:14 *1065:B_N 1.32102e-05
16 *136:29 *1065:B_N 0.000136296
17 *136:29 *1118:C 0.000341591
18 *136:29 *345:21 0.000245352
*RES
1 *1290:Q *345:8 6.12 
2 *345:8 *1118:C 6.99 
3 *345:8 *345:21 2.91 
4 *345:21 *1343:A 5.43 
5 *345:21 *1065:B_N 12.12 
*END

*D_NET *346 0.00405532
*CONN
*I *1355:A I *D sky130_fd_sc_hd__dlygate4sd3_1
*I *1123:A I *D sky130_fd_sc_hd__nand3_1
*I *1065:C I *D sky130_fd_sc_hd__and4bb_1
*I *1121:A1 I *D sky130_fd_sc_hd__a211o_1
*I *1124:A1 I *D sky130_fd_sc_hd__a21o_1
*I *1291:Q O *D sky130_fd_sc_hd__dfrtp_1
*CAP
1 *1355:A 0
2 *1123:A 8.59867e-05
3 *1065:C 0
4 *1121:A1 3.74483e-05
5 *1124:A1 8.90604e-05
6 *1291:Q 0.000323515
7 *346:54 0.000371245
8 *346:35 0.000481539
9 *346:18 0.000609521
10 *346:10 0.000685144
11 *1123:A *347:12 1.41165e-05
12 *346:54 *1124:B1 0.000266795
13 *1065:B_N *1123:A 0.000106599
14 *1065:B_N *346:54 4.77807e-05
15 *1121:A2 *1121:A1 1.61484e-05
16 *1121:A2 *346:35 0.000169692
17 *1121:B1 *1121:A1 5.12969e-06
18 *1121:C1 *1121:A1 8.50369e-06
19 *1122:A1 *346:18 4.99619e-05
20 *1122:A2 *346:18 0.000169341
21 *1122:B1_N *346:18 6.14024e-05
22 *1125:B *346:54 2.74056e-05
23 *1346:A *1121:A1 1.22608e-05
24 *97:14 *1123:A 8.51175e-05
25 *97:14 *346:54 0.000161292
26 *136:42 *346:54 0
27 *136:53 *1124:A1 0.000112284
28 *136:53 *346:18 9.09788e-06
29 *136:53 *346:54 0
30 *260:119 *1124:A1 4.89295e-05
*RES
1 *1291:Q *346:10 6.295 
2 *346:10 *346:18 8.405 
3 *346:18 *1124:A1 5.43 
4 *346:18 *346:35 4.88 
5 *346:35 *1121:A1 2.41 
6 *346:35 *346:54 10.525 
7 *346:54 *1065:C 1.6 
8 *346:54 *1123:A 4.165 
9 *346:10 *1355:A 1.6 
*END

*D_NET *347 0.00256077
*CONN
*I *1123:B I *D sky130_fd_sc_hd__nand3_1
*I *1065:D I *D sky130_fd_sc_hd__and4bb_1
*I *1124:B1 I *D sky130_fd_sc_hd__a21o_1
*I *1292:Q O *D sky130_fd_sc_hd__dfrtp_1
*CAP
1 *1123:B 0
2 *1065:D 0
3 *1124:B1 0.000214971
4 *1292:Q 0.000587542
5 *347:12 0.000261721
6 *347:10 0.000634291
7 *1065:B_N *1124:B1 4.89362e-05
8 *1065:B_N *347:12 7.38676e-05
9 *1123:A *347:12 1.41165e-05
10 *1125:B *1124:B1 4.77757e-05
11 *1125:B *347:12 0.000123955
12 *1125:C *1124:B1 0.000162325
13 *136:42 *1124:B1 0
14 *260:119 *1124:B1 0.000124471
15 *346:54 *1124:B1 0.000266795
*RES
1 *1292:Q *347:10 9.835 
2 *347:10 *347:12 1.485 
3 *347:12 *1124:B1 11.225 
4 *347:12 *1065:D 1.6 
5 *347:10 *1123:B 1.6 
*END

*D_NET *348 0.00754093
*CONN
*I *1070:C I *D sky130_fd_sc_hd__and3_1
*I *1236:A2 I *D sky130_fd_sc_hd__a31o_1
*I *1092:S0 I *D sky130_fd_sc_hd__mux4_1
*I *1090:S0 I *D sky130_fd_sc_hd__mux4_1
*I *1231:A I *D sky130_fd_sc_hd__nand2_1
*I *1234:A2 I *D sky130_fd_sc_hd__a31o_1
*I *1232:A1 I *D sky130_fd_sc_hd__o21a_1
*I *1294:Q O *D sky130_fd_sc_hd__dfrtp_4
*CAP
1 *1070:C 0.000105326
2 *1236:A2 7.49963e-06
3 *1092:S0 0.000192731
4 *1090:S0 0.000332536
5 *1231:A 0
6 *1234:A2 7.00785e-05
7 *1232:A1 0.000104349
8 *1294:Q 0.000396425
9 *348:67 0.00151788
10 *348:53 0.00102231
11 *348:51 0.000267362
12 *348:31 0.000125299
13 *348:25 0.000388094
14 *348:12 0.000693802
15 *1070:C *1070:A 5.23568e-05
16 *1070:C *1070:B 9.69737e-05
17 *1070:C *1236:A1 8.35068e-05
18 *1090:S0 *1090:A2 9.50542e-05
19 *1090:S0 *1090:A3 4.99619e-05
20 *1090:S0 *349:32 4.23703e-05
21 *1092:S0 *1092:A2 0
22 *1092:S0 *1092:S1 0
23 *1092:S0 *1352:A 0
24 *348:51 *1234:A1 0
25 *348:53 *1236:A1 1.14169e-05
26 *1091:B *348:67 7.01303e-05
27 *1232:A2 *1232:A1 1.16578e-05
28 *1232:B1 *1232:A1 1.37328e-05
29 *1234:A3 *348:25 0
30 *1234:B1 *348:25 2.10871e-05
31 *1234:B1 *348:51 1.94182e-05
32 *1235:A1 *348:25 0
33 *1236:A3 *348:25 5.1875e-05
34 *1236:A3 *348:51 0.000240391
35 *1236:A3 *348:67 9.09788e-06
36 *1237:A *1070:C 6.87121e-05
37 *1237:A *348:53 1.16854e-05
38 *1237:A *348:67 3.52249e-05
39 *1237:B *348:51 0
40 *1237:B *348:67 4.00541e-06
41 *1240:A0 *1090:S0 9.61344e-05
42 *1241:A *1090:S0 4.19059e-05
43 *1296:CLK *348:67 6.0011e-05
44 *214:6 *1232:A1 0.000224193
45 *216:16 *1234:A2 1.24578e-05
46 *216:16 *348:31 9.13949e-06
47 *217:6 *1234:A2 0.000161467
48 *217:6 *348:31 2.01504e-05
49 *260:52 *348:12 4.31625e-05
50 *260:72 *1090:S0 7.23602e-05
51 *260:72 *1092:S0 0.000426074
52 *260:103 *348:12 0.000161525
*RES
1 *1294:Q *348:12 9.15 
2 *348:12 *1232:A1 6.135 
3 *348:12 *348:25 2.655 
4 *348:25 *348:31 3.065 
5 *348:31 *1234:A2 3.445 
6 *348:31 *1231:A 1.6 
7 *348:25 *348:51 5.27 
8 *348:51 *348:53 0.45 
9 *348:53 *348:67 17.52 
10 *348:67 *1090:S0 12.91 
11 *348:67 *1092:S0 8.55 
12 *348:53 *1236:A2 1.96 
13 *348:51 *1070:C 4.465 
*END

*D_NET *349 0.00572884
*CONN
*I *1092:S1 I *D sky130_fd_sc_hd__mux4_1
*I *1236:A1 I *D sky130_fd_sc_hd__a31o_1
*I *1070:B I *D sky130_fd_sc_hd__and3_1
*I *1234:A1 I *D sky130_fd_sc_hd__a31o_1
*I *1090:S1 I *D sky130_fd_sc_hd__mux4_1
*I *1363:A I *D sky130_fd_sc_hd__dlygate4sd3_1
*I *1295:Q O *D sky130_fd_sc_hd__dfrtp_2
*CAP
1 *1092:S1 0.000316759
2 *1236:A1 5.66323e-05
3 *1070:B 8.48398e-05
4 *1234:A1 0.000114027
5 *1090:S1 0
6 *1363:A 0.000244651
7 *1295:Q 7.91457e-05
8 *349:55 0.000394035
9 *349:38 0.000962834
10 *349:32 0.00111648
11 *349:23 0.000344448
12 *349:8 0.000464766
13 *1092:S1 *1092:A2 4.43871e-06
14 *1092:S1 *1352:A 9.61052e-05
15 *1236:A1 *1070:A 4.66108e-05
16 *349:23 *1090:A3 2.03578e-05
17 *349:38 *1352:A 6.36578e-05
18 *1070:C *1070:B 9.69737e-05
19 *1070:C *1236:A1 8.35068e-05
20 *1090:S0 *349:32 4.23703e-05
21 *1091:B *349:32 4.80285e-05
22 *1092:S0 *1092:S1 0
23 *1234:B1 *1234:A1 0.00011432
24 *1235:A1 *1234:A1 0
25 *1236:A3 *1236:A1 3.07656e-05
26 *1236:A3 *349:55 7.01359e-05
27 *1237:A *1236:A1 1.41095e-05
28 *1237:B *1234:A1 6.89704e-05
29 *1237:B *349:38 8.43478e-06
30 *1237:B *349:55 3.1562e-06
31 *1240:A0 *349:23 0
32 *1252:A0 *1092:S1 7.19427e-05
33 *1252:A0 *349:38 4.49498e-05
34 *1254:D *1363:A 9.57888e-05
35 *1254:D *349:23 0.000206051
36 *1304:CLK *349:38 0.000123295
37 *1304:RESET_B *1363:A 0.000132713
38 *1304:RESET_B *349:23 3.23391e-05
39 *215:23 *349:55 1.9784e-05
40 *237:68 *1234:A1 0
41 *348:51 *1234:A1 0
42 *348:53 *1236:A1 1.14169e-05
*RES
1 *1295:Q *349:8 4.395 
2 *349:8 *1363:A 8.775 
3 *349:8 *349:23 5.42 
4 *349:23 *1090:S1 1.6 
5 *349:23 *349:32 5.21 
6 *349:32 *349:38 9.695 
7 *349:38 *1234:A1 8.255 
8 *349:38 *349:55 5.045 
9 *349:55 *1070:B 4.74 
10 *349:55 *1236:A1 5.01 
11 *349:32 *1092:S1 9.825 
*END

*D_NET *350 0.00131524
*CONN
*I *1091:A I *D sky130_fd_sc_hd__or2_1
*I *1093:B_N I *D sky130_fd_sc_hd__or2b_1
*I *1236:B1 I *D sky130_fd_sc_hd__a31o_1
*I *1070:A I *D sky130_fd_sc_hd__and3_1
*I *1296:Q O *D sky130_fd_sc_hd__dfrtp_1
*CAP
1 *1091:A 0.000100064
2 *1093:B_N 7.70625e-05
3 *1236:B1 0
4 *1070:A 3.64584e-05
5 *1296:Q 0
6 *350:12 0.000181711
7 *350:8 0.0002635
8 *350:4 0.000141249
9 *1070:C *1070:A 5.23568e-05
10 *1091:B *1091:A 4.77757e-05
11 *1091:B *350:8 8.73389e-06
12 *1091:B *350:12 1.87328e-05
13 *1236:A1 *1070:A 4.66108e-05
14 *1237:A *1070:A 4.8854e-05
15 *1296:RESET_B *1091:A 0
16 *262:26 *1093:B_N 0.000134503
17 *262:26 *350:12 0.000114824
18 *262:54 *1091:A 4.2801e-05
*RES
1 *1296:Q *350:4 1.6 
2 *350:4 *350:8 2.45 
3 *350:8 *350:12 4.655 
4 *350:12 *1070:A 2.755 
5 *350:12 *1236:B1 1.6 
6 *350:8 *1093:B_N 5.235 
7 *350:4 *1091:A 3.61 
*END

*D_NET *351 0.00276092
*CONN
*I *1090:A0 I *D sky130_fd_sc_hd__mux4_1
*I *1361:A I *D sky130_fd_sc_hd__dlygate4sd3_1
*I *1303:Q O *D sky130_fd_sc_hd__dfrtp_1
*CAP
1 *1090:A0 0.000879273
2 *1361:A 9.33271e-05
3 *1303:Q 0.000134578
4 *351:6 0.00110718
5 *1090:A0 *1090:A2 0.000236203
6 *1090:A0 *1092:A0 3.64998e-06
7 *1308:CLK *1090:A0 5.83121e-06
8 *1308:CLK *351:6 2.49909e-05
9 *1308:D *1361:A 4.41857e-05
10 *234:36 *1090:A0 0
11 *234:47 *1090:A0 0
12 *234:47 *1361:A 5.23362e-05
13 *234:62 *1361:A 0.000179362
*RES
1 *1303:Q *351:6 3.085 
2 *351:6 *1361:A 8.255 
3 *351:6 *1090:A0 17.93 
*END

*D_NET *352 0.00223533
*CONN
*I *1352:A I *D sky130_fd_sc_hd__dlygate4sd3_1
*I *1090:A1 I *D sky130_fd_sc_hd__mux4_1
*I *1304:Q O *D sky130_fd_sc_hd__dfrtp_1
*CAP
1 *1352:A 0.000599808
2 *1090:A1 0.000220481
3 *1304:Q 0
4 *352:4 0.000820288
5 *1090:A1 *1353:A 0
6 *1092:S0 *1352:A 0
7 *1092:S1 *1352:A 9.61052e-05
8 *1241:A *1090:A1 3.04704e-05
9 *1304:D *1090:A1 5.23992e-05
10 *1304:D *1352:A 0.000349153
11 *260:72 *1352:A 2.97004e-06
12 *349:38 *1352:A 6.36578e-05
*RES
1 *1304:Q *352:4 1.6 
2 *352:4 *1090:A1 8.465 
3 *352:4 *1352:A 14.645 
*END

*D_NET *353 0.00276844
*CONN
*I *1090:A2 I *D sky130_fd_sc_hd__mux4_1
*I *1362:A I *D sky130_fd_sc_hd__dlygate4sd3_1
*I *1305:Q O *D sky130_fd_sc_hd__dfrtp_1
*CAP
1 *1090:A2 0.0007013
2 *1362:A 6.00487e-05
3 *1305:Q 9.15341e-05
4 *353:6 0.000852883
5 *1090:A2 *1090:A3 0.000337448
6 *1090:A0 *1090:A2 0.000236203
7 *1090:S0 *1090:A2 9.50542e-05
8 *1245:A *1362:A 0.00011852
9 *1303:RESET_B *1362:A 0
10 *1305:RESET_B *1090:A2 3.81908e-06
11 *1305:RESET_B *353:6 9.46111e-06
12 *1306:RESET_B *1090:A2 2.74996e-05
13 *234:36 *1090:A2 0.000184712
14 *234:36 *353:6 4.99619e-05
*RES
1 *1305:Q *353:6 2.74 
2 *353:6 *1362:A 6.98 
3 *353:6 *1090:A2 19.4338 
*END

*D_NET *354 0.00153656
*CONN
*I *1090:A3 I *D sky130_fd_sc_hd__mux4_1
*I *1353:A I *D sky130_fd_sc_hd__dlygate4sd3_1
*I *1306:Q O *D sky130_fd_sc_hd__dfrtp_1
*CAP
1 *1090:A3 0.000426791
2 *1353:A 0.000100243
3 *1306:Q 0
4 *354:4 0.000527034
5 *1090:A1 *1353:A 0
6 *1090:A2 *1090:A3 0.000337448
7 *1090:S0 *1090:A3 4.99619e-05
8 *1240:A0 *1090:A3 7.47284e-05
9 *1254:D *1090:A3 0
10 *1304:D *1353:A 0
11 *349:23 *1090:A3 2.03578e-05
*RES
1 *1306:Q *354:4 1.6 
2 *354:4 *1353:A 7.085 
3 *354:4 *1090:A3 11.75 
*END

*D_NET *355 0.00309878
*CONN
*I *1359:A I *D sky130_fd_sc_hd__dlygate4sd3_1
*I *1092:A0 I *D sky130_fd_sc_hd__mux4_1
*I *1307:Q O *D sky130_fd_sc_hd__dfrtp_1
*CAP
1 *1359:A 0.000270212
2 *1092:A0 0.000616432
3 *1307:Q 3.72213e-05
4 *355:8 0.000923865
5 *1092:A0 *1092:A1 0.000238919
6 *1092:A0 *356:6 1.5567e-05
7 *1090:A0 *1092:A0 3.64998e-06
8 *1246:A1 *1359:A 3.86607e-05
9 *1248:A0 *1092:A0 3.72007e-05
10 *1248:A0 *1359:A 0.00019941
11 *1307:RESET_B *355:8 1.79174e-05
12 *1308:D *1092:A0 0.000115945
13 *1308:RESET_B *1092:A0 0.000269514
14 *1396:A *1359:A 0.000161105
15 *234:62 *1359:A 0
16 *263:46 *1092:A0 0.00015316
*RES
1 *1307:Q *355:8 4.05 
2 *355:8 *1092:A0 15.87 
3 *355:8 *1359:A 9.78 
*END

*D_NET *356 0.000772746
*CONN
*I *1337:A I *D sky130_fd_sc_hd__dlygate4sd3_1
*I *1092:A1 I *D sky130_fd_sc_hd__mux4_1
*I *1308:Q O *D sky130_fd_sc_hd__dfrtp_1
*CAP
1 *1337:A 7.95237e-05
2 *1092:A1 0.000125916
3 *1308:Q 3.38124e-05
4 *356:6 0.000239252
5 *1092:A0 *1092:A1 0.000238919
6 *1092:A0 *356:6 1.5567e-05
7 *263:56 *1337:A 3.97568e-05
*RES
1 *1308:Q *356:6 2.05 
2 *356:6 *1092:A1 4.39 
3 *356:6 *1337:A 6.98 
*END

*D_NET *357 0.0020442
*CONN
*I *1347:A I *D sky130_fd_sc_hd__dlygate4sd3_1
*I *1092:A2 I *D sky130_fd_sc_hd__mux4_1
*I *1309:Q O *D sky130_fd_sc_hd__dfrtp_1
*CAP
1 *1347:A 0.000252215
2 *1092:A2 0.000363002
3 *1309:Q 0.00030766
4 *357:8 0.000922877
5 *1092:A2 *1092:A3 2.05864e-05
6 *1092:S0 *1092:A2 0
7 *1092:S1 *1092:A2 4.43871e-06
8 *1252:A0 *1092:A2 0
9 *1254:CLK *357:8 6.60261e-06
10 *1254:RESET_B *357:8 1.13009e-05
11 *1293:RESET_B *357:8 4.58939e-06
12 *1396:A *1347:A 9.66021e-05
13 *114:25 *1092:A2 0
14 *114:25 *1347:A 0
15 *260:72 *1092:A2 0
16 *260:72 *1347:A 0
17 *260:72 *357:8 4.10576e-05
18 *263:46 *1092:A2 1.32668e-05
*RES
1 *1309:Q *357:8 7.155 
2 *357:8 *1092:A2 9.51375 
3 *357:8 *1347:A 7.995 
*END

*D_NET *358 0.0016301
*CONN
*I *1340:A I *D sky130_fd_sc_hd__dlygate4sd3_1
*I *1092:A3 I *D sky130_fd_sc_hd__mux4_1
*I *1310:Q O *D sky130_fd_sc_hd__dfrtp_1
*CAP
1 *1340:A 0.000284935
2 *1092:A3 0.000167714
3 *1310:Q 6.77871e-05
4 *358:8 0.000520435
5 *1092:A2 *1092:A3 2.05864e-05
6 *1093:A *358:8 7.4027e-05
7 *1252:A0 *1340:A 7.83711e-05
8 *1252:A0 *358:8 3.73895e-05
9 *1252:A1 *1340:A 0.000160342
10 *1252:S *1340:A 8.33066e-06
11 *1330:A *1092:A3 2.75145e-05
12 *263:40 *358:8 7.23533e-05
13 *263:46 *1092:A3 0.000110313
*RES
1 *1310:Q *358:8 5.235 
2 *358:8 *1092:A3 6.81 
3 *358:8 *1340:A 9.045 
*END

*D_NET *359 0.00300338
*CONN
*I *1088:A I *D sky130_fd_sc_hd__nand2_4
*I *1094:C1 I *D sky130_fd_sc_hd__a311o_1
*I *1229:B I *D sky130_fd_sc_hd__and2b_1
*I *1068:B_N I *D sky130_fd_sc_hd__or2b_1
*I *1311:Q O *D sky130_fd_sc_hd__dfstp_1
*CAP
1 *1088:A 0.000132317
2 *1094:C1 4.43712e-05
3 *1229:B 0.000108188
4 *1068:B_N 1.37747e-05
5 *1311:Q 8.35637e-06
6 *359:19 0.000560485
7 *359:15 0.000540243
8 *359:6 2.2131e-05
9 *1094:C1 *1095:A 1.61831e-05
10 *1229:B *1095:A 1.34594e-05
11 *1229:B *1229:A_N 1.19928e-05
12 *359:19 *361:12 0
13 *1068:A *1068:B_N 2.75145e-05
14 *1068:A *359:6 1.01771e-05
15 *1089:A1 *359:19 0
16 *1089:B1 *1088:A 5.93844e-05
17 *1089:B1 *359:19 0.000193703
18 *1094:A2 *1094:C1 0
19 *1094:A2 *1229:B 0.000238137
20 *1094:B1 *1229:B 2.75229e-05
21 *1094:B1 *359:19 0.000511537
22 *1095:C *359:19 0
23 *1275:D *1094:C1 4.82919e-05
24 *1275:D *1229:B 0.000234674
25 *1275:D *359:19 1.52184e-05
26 *1314:CLK *1088:A 0
27 *1314:CLK *359:19 0
28 *1314:D *359:19 3.06743e-05
29 *1385:A *1088:A 4.9253e-06
30 *100:10 *359:19 0
31 *114:12 *1088:A 8.65961e-05
32 *238:97 *1068:B_N 2.75145e-05
33 *238:97 *359:6 1.60083e-05
*RES
1 *1311:Q *359:6 1.8775 
2 *359:6 *1068:B_N 2.05 
3 *359:6 *359:15 2 
4 *359:15 *359:19 12.05 
5 *359:19 *1229:B 4.81 
6 *359:19 *1094:C1 2.665 
7 *359:15 *1088:A 6.285 
*END

*D_NET *360 0.0046431
*CONN
*I *1095:A I *D sky130_fd_sc_hd__nor3_2
*I *1094:A1 I *D sky130_fd_sc_hd__a311o_1
*I *1229:A_N I *D sky130_fd_sc_hd__and2b_1
*I *1078:A I *D sky130_fd_sc_hd__and3_1
*I *1345:A I *D sky130_fd_sc_hd__dlygate4sd3_1
*I *1230:A2 I *D sky130_fd_sc_hd__a41o_1
*I *1228:B I *D sky130_fd_sc_hd__and4_1
*I *1312:Q O *D sky130_fd_sc_hd__dfrtp_2
*CAP
1 *1095:A 0.00022964
2 *1094:A1 0
3 *1229:A_N 0.000168248
4 *1078:A 0.000131606
5 *1345:A 6.85082e-05
6 *1230:A2 0
7 *1228:B 0.000221476
8 *1312:Q 8.29073e-05
9 *360:56 0.000497991
10 *360:37 0.000262904
11 *360:14 0.000470084
12 *360:10 0.000406317
13 *360:8 0.000203301
14 *1071:B *1078:A 7.89178e-05
15 *1072:B1 *1345:A 0.000161529
16 *1072:B1 *360:10 7.4027e-05
17 *1078:B *1078:A 0
18 *1094:A2 *1229:A_N 0.000110107
19 *1094:A3 *1229:A_N 0.000200615
20 *1094:B1 *1095:A 4.99619e-05
21 *1094:C1 *1095:A 1.61831e-05
22 *1096:B *360:14 5.12017e-06
23 *1228:D *1228:B 0.000229227
24 *1229:B *1095:A 1.34594e-05
25 *1229:B *1229:A_N 1.19928e-05
26 *1230:A1 *360:14 5.13065e-05
27 *1230:B1 *360:14 0.000159755
28 *1275:D *1095:A 1.03323e-05
29 *1275:D *360:10 0
30 *1275:D *360:14 0
31 *1275:D *360:37 0
32 *1275:D *360:56 0
33 *99:30 *1078:A 1.08758e-05
34 *99:30 *360:56 9.54399e-05
35 *215:10 *1078:A 1.88904e-05
36 *215:10 *1229:A_N 0.00016063
37 *215:10 *360:10 3.47757e-05
38 *215:10 *360:14 3.05373e-05
39 *215:10 *360:37 1.25121e-05
40 *215:10 *360:56 3.32209e-05
41 *262:54 *1078:A 0.00023635
42 *262:54 *360:8 9.43504e-05
*RES
1 *1312:Q *360:8 4.74 
2 *360:8 *360:10 1.635 
3 *360:10 *360:14 6.695 
4 *360:14 *1228:B 4.465 
5 *360:14 *1230:A2 1.6 
6 *360:10 *1345:A 5.085 
7 *360:8 *360:37 0.4875 
8 *360:37 *1078:A 7.0725 
9 *360:37 *360:56 4.0175 
10 *360:56 *1229:A_N 5.5 
11 *360:56 *1094:A1 1.6 
12 *360:56 *1095:A 5.17 
*END

*D_NET *361 0.00171264
*CONN
*I *1095:B I *D sky130_fd_sc_hd__nor3_2
*I *1072:A1 I *D sky130_fd_sc_hd__a22o_1
*I *1360:A I *D sky130_fd_sc_hd__dlygate4sd3_1
*I *1313:Q O *D sky130_fd_sc_hd__dfrtp_1
*CAP
1 *1095:B 0
2 *1072:A1 0.000257953
3 *1360:A 0
4 *1313:Q 0.00012172
5 *361:23 0.000392892
6 *361:12 0.000256659
7 *1072:B1 *1072:A1 2.68526e-05
8 *1089:A1 *361:12 0.00011893
9 *1089:A1 *361:23 3.03684e-05
10 *1095:C *361:12 7.63204e-05
11 *1097:A *1072:A1 1.22762e-05
12 *1275:D *1072:A1 0
13 *99:10 *1072:A1 2.96466e-05
14 *99:22 *1072:A1 0
15 *99:114 *1072:A1 1.58555e-05
16 *119:10 *1072:A1 0
17 *238:60 *1072:A1 0
18 *238:60 *361:23 0
19 *238:71 *361:23 0
20 *262:54 *1072:A1 5.4003e-05
21 *262:61 *1072:A1 0.000143266
22 *262:61 *361:23 0.000175901
23 *359:19 *361:12 0
*RES
1 *1313:Q *361:12 8.375 
2 *361:12 *1360:A 1.6 
3 *361:12 *361:23 4.94 
4 *361:23 *1072:A1 8.835 
5 *361:23 *1095:B 3.6 
*END

*D_NET *362 0.00142464
*CONN
*I *1374:A I *D sky130_fd_sc_hd__dlygate4sd3_1
*I *1368:A I *D sky130_fd_sc_hd__buf_1
*I *1314:Q O *D sky130_fd_sc_hd__dfrtp_1
*CAP
1 *1374:A 0.000139853
2 *1368:A 0.000149629
3 *1314:Q 5.38177e-05
4 *362:6 0.0003433
5 *1069:A2 *1368:A 0.000111256
6 *1069:B1_N *362:6 3.56402e-05
7 *1094:B1 *1368:A 3.72007e-05
8 *1094:B1 *1374:A 1.42674e-05
9 *1094:B1 *362:6 3.112e-05
10 *1250:A0 *1374:A 0.000127689
11 *1250:A0 *362:6 0.000115345
12 *1311:D *1374:A 0.000198987
13 *238:86 *1368:A 7.27704e-06
14 *273:6 *1374:A 5.92543e-05
*RES
1 *1314:Q *362:6 3.43 
2 *362:6 *1368:A 8.645 
3 *362:6 *1374:A 5.5 
*END
