*SPEF "ieee 1481-1999"
*DESIGN "uart_top"
*DATE "11:11:11 Fri 11 11, 1111"
*VENDOR "OpenRCX"
*PROGRAM "Parallel Extraction"
*VERSION "1.0"
*DESIGN_FLOW "NAME_SCOPE LOCAL" "PIN_CAP NONE"
*DIVIDER /
*DELIMITER :
*BUS_DELIMITER []
*T_UNIT 1 NS
*C_UNIT 1 PF
*R_UNIT 1 OHM
*L_UNIT 1 HENRY

*NAME_MAP
*3 clk
*4 data_in[0]
*5 data_in[1]
*6 data_in[2]
*7 data_in[3]
*8 data_in[4]
*9 data_in[5]
*10 data_in[6]
*11 data_in[7]
*12 data_out[0]
*13 data_out[1]
*14 data_out[2]
*15 data_out[3]
*16 data_out[4]
*17 data_out[5]
*18 data_out[6]
*19 data_out[7]
*20 data_ready
*21 data_valid
*22 rst_n
*23 rx_in
*24 tx_busy
*25 tx_out
*26 _000_
*27 _001_
*28 _002_
*29 _003_
*30 _004_
*31 _005_
*32 _006_
*33 _007_
*34 _008_
*35 _009_
*36 _010_
*37 _011_
*38 _012_
*39 _013_
*40 _014_
*41 _015_
*42 _016_
*43 _017_
*44 _018_
*45 _019_
*46 _020_
*47 _021_
*48 _022_
*49 _023_
*50 _024_
*51 _025_
*52 _026_
*53 _027_
*54 _028_
*55 _029_
*56 _030_
*57 _031_
*58 _032_
*59 _033_
*60 _034_
*61 _035_
*62 _036_
*63 _037_
*64 _038_
*65 _039_
*66 _040_
*67 _041_
*68 _042_
*69 _043_
*70 _044_
*71 _045_
*72 _046_
*73 _047_
*74 _048_
*75 _049_
*76 _050_
*77 _051_
*78 _052_
*79 _053_
*80 _054_
*81 _055_
*82 _056_
*83 _057_
*84 _058_
*85 _059_
*86 _060_
*87 _061_
*88 _062_
*89 _063_
*90 _064_
*91 _065_
*92 _066_
*93 _067_
*94 _068_
*95 _069_
*96 _070_
*97 _071_
*98 _072_
*99 _073_
*100 _074_
*101 _075_
*102 _076_
*103 _077_
*104 _078_
*105 _079_
*106 _080_
*107 _081_
*108 _082_
*109 _083_
*110 _084_
*111 _085_
*112 _086_
*113 _087_
*114 _088_
*115 _089_
*116 _090_
*117 _091_
*118 _092_
*119 _093_
*120 _094_
*121 _095_
*122 _096_
*123 _097_
*124 _098_
*125 _099_
*126 _100_
*127 _101_
*128 _102_
*129 _103_
*130 _104_
*131 _105_
*132 _106_
*133 _107_
*134 _108_
*135 _109_
*136 _110_
*137 _111_
*138 _112_
*139 _113_
*140 _114_
*141 _115_
*142 _116_
*143 _117_
*144 _118_
*145 _119_
*146 _120_
*147 _121_
*148 _122_
*149 _123_
*150 _124_
*151 _125_
*152 _126_
*153 _127_
*154 _128_
*155 _129_
*156 _130_
*157 _131_
*158 _132_
*159 _133_
*160 _134_
*161 _135_
*162 _136_
*163 _137_
*164 _138_
*165 _139_
*166 _140_
*167 _141_
*168 _142_
*169 _143_
*170 _144_
*171 _145_
*172 _146_
*173 _147_
*174 _148_
*175 _149_
*176 _150_
*177 _151_
*178 _152_
*179 _153_
*180 _154_
*181 _155_
*182 _156_
*183 _157_
*184 _158_
*185 _159_
*186 _160_
*187 _161_
*188 _162_
*189 _163_
*190 _164_
*191 _165_
*192 _166_
*193 _167_
*194 _168_
*195 _169_
*196 _170_
*197 _171_
*198 _172_
*199 _173_
*200 _174_
*201 _175_
*202 _176_
*203 _177_
*204 _178_
*205 _179_
*206 _180_
*207 _181_
*208 _182_
*209 _183_
*210 _184_
*211 _185_
*212 _186_
*213 _187_
*214 _188_
*215 _189_
*216 _190_
*217 _191_
*218 _192_
*219 _193_
*220 _194_
*221 _195_
*222 _196_
*223 _197_
*224 _198_
*225 _199_
*226 _200_
*227 _201_
*228 _202_
*229 _203_
*230 clknet_0_clk
*231 clknet_3_0__leaf_clk
*232 clknet_3_1__leaf_clk
*233 clknet_3_2__leaf_clk
*234 clknet_3_3__leaf_clk
*235 clknet_3_4__leaf_clk
*236 clknet_3_5__leaf_clk
*237 clknet_3_6__leaf_clk
*238 clknet_3_7__leaf_clk
*239 net1
*240 net10
*241 net11
*242 net12
*243 net13
*244 net14
*245 net15
*246 net16
*247 net17
*248 net18
*249 net19
*250 net2
*251 net20
*252 net21
*253 net22
*254 net23
*255 net24
*256 net25
*257 net26
*258 net27
*259 net28
*260 net29
*261 net3
*262 net30
*263 net31
*264 net32
*265 net33
*266 net34
*267 net35
*268 net36
*269 net37
*270 net38
*271 net39
*272 net4
*273 net40
*274 net41
*275 net42
*276 net43
*277 net44
*278 net45
*279 net46
*280 net47
*281 net48
*282 net49
*283 net5
*284 net50
*285 net51
*286 net52
*287 net53
*288 net54
*289 net55
*290 net56
*291 net57
*292 net58
*293 net59
*294 net6
*295 net60
*296 net61
*297 net62
*298 net63
*299 net64
*300 net65
*301 net66
*302 net67
*303 net68
*304 net69
*305 net7
*306 net70
*307 net71
*308 net72
*309 net73
*310 net74
*311 net8
*312 net9
*313 rx_baud_cnt\[0\]
*314 rx_baud_cnt\[1\]
*315 rx_baud_cnt\[2\]
*316 rx_baud_cnt\[3\]
*317 rx_baud_cnt\[4\]
*318 rx_baud_cnt\[5\]
*319 rx_baud_cnt\[6\]
*320 rx_baud_cnt\[7\]
*321 rx_baud_cnt\[8\]
*322 rx_bit_cnt\[0\]
*323 rx_bit_cnt\[1\]
*324 rx_bit_cnt\[2\]
*325 rx_shift_reg\[0\]
*326 rx_shift_reg\[1\]
*327 rx_shift_reg\[2\]
*328 rx_shift_reg\[3\]
*329 rx_shift_reg\[4\]
*330 rx_shift_reg\[5\]
*331 rx_shift_reg\[6\]
*332 rx_shift_reg\[7\]
*333 rx_state\[0\]
*334 rx_state\[1\]
*335 rx_state\[2\]
*336 rx_state\[3\]
*337 rx_sync1
*338 rx_sync2
*339 tx_baud_cnt\[0\]
*340 tx_baud_cnt\[1\]
*341 tx_baud_cnt\[2\]
*342 tx_baud_cnt\[3\]
*343 tx_baud_cnt\[4\]
*344 tx_baud_cnt\[5\]
*345 tx_baud_cnt\[6\]
*346 tx_baud_cnt\[7\]
*347 tx_baud_cnt\[8\]
*348 tx_bit_cnt\[0\]
*349 tx_bit_cnt\[1\]
*350 tx_bit_cnt\[2\]
*351 tx_shift_reg\[0\]
*352 tx_shift_reg\[1\]
*353 tx_shift_reg\[2\]
*354 tx_shift_reg\[3\]
*355 tx_shift_reg\[4\]
*356 tx_shift_reg\[5\]
*357 tx_shift_reg\[6\]
*358 tx_shift_reg\[7\]
*359 tx_state\[0\]
*360 tx_state\[1\]
*361 tx_state\[2\]
*362 tx_state\[3\]
*363 FILLER_0_0_104
*364 FILLER_0_0_113
*365 FILLER_0_0_119
*366 FILLER_0_0_155
*367 FILLER_0_0_167
*368 FILLER_0_0_169
*369 FILLER_0_0_181
*370 FILLER_0_0_26
*371 FILLER_0_0_43
*372 FILLER_0_0_55
*373 FILLER_0_0_57
*374 FILLER_0_0_63
*375 FILLER_0_0_70
*376 FILLER_0_0_79
*377 FILLER_0_0_83
*378 FILLER_0_0_85
*379 FILLER_0_0_97
*380 FILLER_0_10_107
*381 FILLER_0_10_128
*382 FILLER_0_10_144
*383 FILLER_0_10_156
*384 FILLER_0_10_168
*385 FILLER_0_10_180
*386 FILLER_0_10_192
*387 FILLER_0_10_23
*388 FILLER_0_10_27
*389 FILLER_0_10_29
*390 FILLER_0_10_41
*391 FILLER_0_10_79
*392 FILLER_0_10_83
*393 FILLER_0_10_9
*394 FILLER_0_10_93
*395 FILLER_0_11_139
*396 FILLER_0_11_15
*397 FILLER_0_11_151
*398 FILLER_0_11_163
*399 FILLER_0_11_167
*400 FILLER_0_11_169
*401 FILLER_0_11_181
*402 FILLER_0_11_27
*403 FILLER_0_11_3
*404 FILLER_0_11_39
*405 FILLER_0_11_44
*406 FILLER_0_11_52
*407 FILLER_0_11_73
*408 FILLER_0_12_125
*409 FILLER_0_12_15
*410 FILLER_0_12_161
*411 FILLER_0_12_169
*412 FILLER_0_12_27
*413 FILLER_0_12_29
*414 FILLER_0_12_3
*415 FILLER_0_12_46
*416 FILLER_0_12_54
*417 FILLER_0_12_67
*418 FILLER_0_12_85
*419 FILLER_0_12_90
*420 FILLER_0_12_99
*421 FILLER_0_13_104
*422 FILLER_0_13_113
*423 FILLER_0_13_119
*424 FILLER_0_13_131
*425 FILLER_0_13_143
*426 FILLER_0_13_155
*427 FILLER_0_13_160
*428 FILLER_0_13_169
*429 FILLER_0_13_181
*430 FILLER_0_13_24
*431 FILLER_0_13_3
*432 FILLER_0_13_45
*433 FILLER_0_13_65
*434 FILLER_0_13_73
*435 FILLER_0_13_95
*436 FILLER_0_14_111
*437 FILLER_0_14_123
*438 FILLER_0_14_135
*439 FILLER_0_14_139
*440 FILLER_0_14_141
*441 FILLER_0_14_15
*442 FILLER_0_14_153
*443 FILLER_0_14_174
*444 FILLER_0_14_186
*445 FILLER_0_14_192
*446 FILLER_0_14_27
*447 FILLER_0_14_29
*448 FILLER_0_14_3
*449 FILLER_0_14_39
*450 FILLER_0_14_45
*451 FILLER_0_14_55
*452 FILLER_0_14_66
*453 FILLER_0_14_85
*454 FILLER_0_14_93
*455 FILLER_0_14_99
*456 FILLER_0_15_107
*457 FILLER_0_15_111
*458 FILLER_0_15_113
*459 FILLER_0_15_14
*460 FILLER_0_15_145
*461 FILLER_0_15_151
*462 FILLER_0_15_165
*463 FILLER_0_15_169
*464 FILLER_0_15_38
*465 FILLER_0_15_50
*466 FILLER_0_15_6
*467 FILLER_0_15_63
*468 FILLER_0_15_75
*469 FILLER_0_15_87
*470 FILLER_0_15_91
*471 FILLER_0_15_95
*472 FILLER_0_16_116
*473 FILLER_0_16_122
*474 FILLER_0_16_126
*475 FILLER_0_16_138
*476 FILLER_0_16_145
*477 FILLER_0_16_157
*478 FILLER_0_16_165
*479 FILLER_0_16_184
*480 FILLER_0_16_192
*481 FILLER_0_16_24
*482 FILLER_0_16_33
*483 FILLER_0_16_38
*484 FILLER_0_16_50
*485 FILLER_0_16_56
*486 FILLER_0_16_74
*487 FILLER_0_16_82
*488 FILLER_0_16_91
*489 FILLER_0_17_113
*490 FILLER_0_17_137
*491 FILLER_0_17_143
*492 FILLER_0_17_15
*493 FILLER_0_17_161
*494 FILLER_0_17_169
*495 FILLER_0_17_178
*496 FILLER_0_17_190
*497 FILLER_0_17_27
*498 FILLER_0_17_3
*499 FILLER_0_17_35
*500 FILLER_0_17_42
*501 FILLER_0_17_51
*502 FILLER_0_17_57
*503 FILLER_0_17_71
*504 FILLER_0_17_77
*505 FILLER_0_17_84
*506 FILLER_0_18_108
*507 FILLER_0_18_139
*508 FILLER_0_18_141
*509 FILLER_0_18_151
*510 FILLER_0_18_163
*511 FILLER_0_18_189
*512 FILLER_0_18_27
*513 FILLER_0_18_29
*514 FILLER_0_18_3
*515 FILLER_0_18_46
*516 FILLER_0_18_58
*517 FILLER_0_18_63
*518 FILLER_0_18_75
*519 FILLER_0_18_85
*520 FILLER_0_19_101
*521 FILLER_0_19_107
*522 FILLER_0_19_111
*523 FILLER_0_19_113
*524 FILLER_0_19_121
*525 FILLER_0_19_128
*526 FILLER_0_19_149
*527 FILLER_0_19_15
*528 FILLER_0_19_161
*529 FILLER_0_19_167
*530 FILLER_0_19_169
*531 FILLER_0_19_176
*532 FILLER_0_19_188
*533 FILLER_0_19_192
*534 FILLER_0_19_3
*535 FILLER_0_19_47
*536 FILLER_0_19_55
*537 FILLER_0_19_64
*538 FILLER_0_19_76
*539 FILLER_0_19_80
*540 FILLER_0_19_93
*541 FILLER_0_1_110
*542 FILLER_0_1_119
*543 FILLER_0_1_163
*544 FILLER_0_1_167
*545 FILLER_0_1_169
*546 FILLER_0_1_181
*547 FILLER_0_1_25
*548 FILLER_0_1_3
*549 FILLER_0_1_48
*550 FILLER_0_1_52
*551 FILLER_0_1_57
*552 FILLER_0_1_68
*553 FILLER_0_20_121
*554 FILLER_0_20_147
*555 FILLER_0_20_157
*556 FILLER_0_20_169
*557 FILLER_0_20_181
*558 FILLER_0_20_29
*559 FILLER_0_20_3
*560 FILLER_0_20_44
*561 FILLER_0_20_77
*562 FILLER_0_20_81
*563 FILLER_0_20_85
*564 FILLER_0_20_97
*565 FILLER_0_21_101
*566 FILLER_0_21_109
*567 FILLER_0_21_136
*568 FILLER_0_21_15
*569 FILLER_0_21_183
*570 FILLER_0_21_191
*571 FILLER_0_21_27
*572 FILLER_0_21_3
*573 FILLER_0_21_45
*574 FILLER_0_21_65
*575 FILLER_0_22_112
*576 FILLER_0_22_120
*577 FILLER_0_22_132
*578 FILLER_0_22_154
*579 FILLER_0_22_160
*580 FILLER_0_22_164
*581 FILLER_0_22_27
*582 FILLER_0_22_50
*583 FILLER_0_22_74
*584 FILLER_0_22_83
*585 FILLER_0_22_85
*586 FILLER_0_22_97
*587 FILLER_0_23_127
*588 FILLER_0_23_139
*589 FILLER_0_23_15
*590 FILLER_0_23_157
*591 FILLER_0_23_165
*592 FILLER_0_23_169
*593 FILLER_0_23_175
*594 FILLER_0_23_185
*595 FILLER_0_23_3
*596 FILLER_0_23_32
*597 FILLER_0_23_44
*598 FILLER_0_23_57
*599 FILLER_0_23_69
*600 FILLER_0_23_81
*601 FILLER_0_23_89
*602 FILLER_0_24_105
*603 FILLER_0_24_117
*604 FILLER_0_24_129
*605 FILLER_0_24_137
*606 FILLER_0_24_141
*607 FILLER_0_24_164
*608 FILLER_0_24_177
*609 FILLER_0_24_18
*610 FILLER_0_24_26
*611 FILLER_0_24_29
*612 FILLER_0_24_41
*613 FILLER_0_24_51
*614 FILLER_0_24_6
*615 FILLER_0_24_66
*616 FILLER_0_24_77
*617 FILLER_0_25_102
*618 FILLER_0_25_110
*619 FILLER_0_25_113
*620 FILLER_0_25_120
*621 FILLER_0_25_133
*622 FILLER_0_25_139
*623 FILLER_0_25_146
*624 FILLER_0_25_15
*625 FILLER_0_25_27
*626 FILLER_0_25_3
*627 FILLER_0_25_35
*628 FILLER_0_25_77
*629 FILLER_0_26_103
*630 FILLER_0_26_107
*631 FILLER_0_26_133
*632 FILLER_0_26_149
*633 FILLER_0_26_15
*634 FILLER_0_26_153
*635 FILLER_0_26_162
*636 FILLER_0_26_170
*637 FILLER_0_26_192
*638 FILLER_0_26_27
*639 FILLER_0_26_29
*640 FILLER_0_26_3
*641 FILLER_0_26_37
*642 FILLER_0_26_43
*643 FILLER_0_26_62
*644 FILLER_0_26_74
*645 FILLER_0_26_82
*646 FILLER_0_26_85
*647 FILLER_0_27_110
*648 FILLER_0_27_113
*649 FILLER_0_27_125
*650 FILLER_0_27_132
*651 FILLER_0_27_144
*652 FILLER_0_27_15
*653 FILLER_0_27_152
*654 FILLER_0_27_166
*655 FILLER_0_27_169
*656 FILLER_0_27_181
*657 FILLER_0_27_27
*658 FILLER_0_27_3
*659 FILLER_0_27_39
*660 FILLER_0_27_51
*661 FILLER_0_27_55
*662 FILLER_0_27_57
*663 FILLER_0_27_69
*664 FILLER_0_27_81
*665 FILLER_0_27_89
*666 FILLER_0_28_115
*667 FILLER_0_28_127
*668 FILLER_0_28_139
*669 FILLER_0_28_141
*670 FILLER_0_28_15
*671 FILLER_0_28_173
*672 FILLER_0_28_185
*673 FILLER_0_28_27
*674 FILLER_0_28_29
*675 FILLER_0_28_3
*676 FILLER_0_28_61
*677 FILLER_0_28_85
*678 FILLER_0_28_89
*679 FILLER_0_29_106
*680 FILLER_0_29_121
*681 FILLER_0_29_129
*682 FILLER_0_29_136
*683 FILLER_0_29_148
*684 FILLER_0_29_15
*685 FILLER_0_29_160
*686 FILLER_0_29_164
*687 FILLER_0_29_169
*688 FILLER_0_29_181
*689 FILLER_0_29_27
*690 FILLER_0_29_3
*691 FILLER_0_29_39
*692 FILLER_0_29_53
*693 FILLER_0_29_77
*694 FILLER_0_29_86
*695 FILLER_0_2_122
*696 FILLER_0_2_133
*697 FILLER_0_2_139
*698 FILLER_0_2_141
*699 FILLER_0_2_15
*700 FILLER_0_2_160
*701 FILLER_0_2_172
*702 FILLER_0_2_184
*703 FILLER_0_2_192
*704 FILLER_0_2_27
*705 FILLER_0_2_29
*706 FILLER_0_2_33
*707 FILLER_0_2_37
*708 FILLER_0_2_47
*709 FILLER_0_2_6
*710 FILLER_0_2_77
*711 FILLER_0_2_83
*712 FILLER_0_2_94
*713 FILLER_0_30_106
*714 FILLER_0_30_118
*715 FILLER_0_30_136
*716 FILLER_0_30_15
*717 FILLER_0_30_161
*718 FILLER_0_30_178
*719 FILLER_0_30_190
*720 FILLER_0_30_27
*721 FILLER_0_30_29
*722 FILLER_0_30_3
*723 FILLER_0_30_41
*724 FILLER_0_30_49
*725 FILLER_0_30_70
*726 FILLER_0_30_81
*727 FILLER_0_30_94
*728 FILLER_0_31_140
*729 FILLER_0_31_169
*730 FILLER_0_31_18
*731 FILLER_0_31_181
*732 FILLER_0_31_30
*733 FILLER_0_31_42
*734 FILLER_0_31_50
*735 FILLER_0_31_54
*736 FILLER_0_31_6
*737 FILLER_0_31_66
*738 FILLER_0_32_111
*739 FILLER_0_32_119
*740 FILLER_0_32_123
*741 FILLER_0_32_135
*742 FILLER_0_32_139
*743 FILLER_0_32_141
*744 FILLER_0_32_161
*745 FILLER_0_32_167
*746 FILLER_0_32_169
*747 FILLER_0_32_181
*748 FILLER_0_32_189
*749 FILLER_0_32_21
*750 FILLER_0_32_27
*751 FILLER_0_32_29
*752 FILLER_0_32_34
*753 FILLER_0_32_46
*754 FILLER_0_32_54
*755 FILLER_0_32_57
*756 FILLER_0_32_65
*757 FILLER_0_32_77
*758 FILLER_0_32_83
*759 FILLER_0_32_85
*760 FILLER_0_32_9
*761 FILLER_0_32_99
*762 FILLER_0_3_105
*763 FILLER_0_3_111
*764 FILLER_0_3_113
*765 FILLER_0_3_121
*766 FILLER_0_3_146
*767 FILLER_0_3_15
*768 FILLER_0_3_155
*769 FILLER_0_3_167
*770 FILLER_0_3_169
*771 FILLER_0_3_181
*772 FILLER_0_3_19
*773 FILLER_0_3_3
*774 FILLER_0_3_30
*775 FILLER_0_3_38
*776 FILLER_0_3_43
*777 FILLER_0_3_53
*778 FILLER_0_3_65
*779 FILLER_0_3_89
*780 FILLER_0_4_106
*781 FILLER_0_4_118
*782 FILLER_0_4_130
*783 FILLER_0_4_138
*784 FILLER_0_4_141
*785 FILLER_0_4_153
*786 FILLER_0_4_165
*787 FILLER_0_4_177
*788 FILLER_0_4_189
*789 FILLER_0_4_29
*790 FILLER_0_4_3
*791 FILLER_0_4_33
*792 FILLER_0_4_54
*793 FILLER_0_4_7
*794 FILLER_0_4_91
*795 FILLER_0_4_95
*796 FILLER_0_4_99
*797 FILLER_0_5_103
*798 FILLER_0_5_107
*799 FILLER_0_5_111
*800 FILLER_0_5_133
*801 FILLER_0_5_145
*802 FILLER_0_5_15
*803 FILLER_0_5_157
*804 FILLER_0_5_165
*805 FILLER_0_5_169
*806 FILLER_0_5_181
*807 FILLER_0_5_189
*808 FILLER_0_5_19
*809 FILLER_0_5_28
*810 FILLER_0_5_3
*811 FILLER_0_5_48
*812 FILLER_0_5_57
*813 FILLER_0_5_69
*814 FILLER_0_5_77
*815 FILLER_0_5_85
*816 FILLER_0_5_95
*817 FILLER_0_6_121
*818 FILLER_0_6_134
*819 FILLER_0_6_141
*820 FILLER_0_6_15
*821 FILLER_0_6_153
*822 FILLER_0_6_165
*823 FILLER_0_6_177
*824 FILLER_0_6_189
*825 FILLER_0_6_27
*826 FILLER_0_6_29
*827 FILLER_0_6_3
*828 FILLER_0_6_33
*829 FILLER_0_6_45
*830 FILLER_0_6_70
*831 FILLER_0_6_82
*832 FILLER_0_6_85
*833 FILLER_0_6_97
*834 FILLER_0_7_110
*835 FILLER_0_7_113
*836 FILLER_0_7_121
*837 FILLER_0_7_14
*838 FILLER_0_7_156
*839 FILLER_0_7_169
*840 FILLER_0_7_181
*841 FILLER_0_7_22
*842 FILLER_0_7_3
*843 FILLER_0_7_53
*844 FILLER_0_7_61
*845 FILLER_0_7_77
*846 FILLER_0_7_87
*847 FILLER_0_7_95
*848 FILLER_0_8_130
*849 FILLER_0_8_138
*850 FILLER_0_8_141
*851 FILLER_0_8_162
*852 FILLER_0_8_174
*853 FILLER_0_8_186
*854 FILLER_0_8_192
*855 FILLER_0_8_25
*856 FILLER_0_8_29
*857 FILLER_0_8_3
*858 FILLER_0_8_41
*859 FILLER_0_8_65
*860 FILLER_0_8_76
*861 FILLER_0_8_96
*862 FILLER_0_9_109
*863 FILLER_0_9_113
*864 FILLER_0_9_125
*865 FILLER_0_9_15
*866 FILLER_0_9_157
*867 FILLER_0_9_165
*868 FILLER_0_9_169
*869 FILLER_0_9_181
*870 FILLER_0_9_26
*871 FILLER_0_9_3
*872 FILLER_0_9_49
*873 FILLER_0_9_55
*874 FILLER_0_9_57
*875 FILLER_0_9_69
*876 FILLER_0_9_81
*877 FILLER_0_9_93
*878 FILLER_0_9_99
*879 PHY_0
*880 PHY_1
*881 PHY_10
*882 PHY_11
*883 PHY_12
*884 PHY_13
*885 PHY_14
*886 PHY_15
*887 PHY_16
*888 PHY_17
*889 PHY_18
*890 PHY_19
*891 PHY_2
*892 PHY_20
*893 PHY_21
*894 PHY_22
*895 PHY_23
*896 PHY_24
*897 PHY_25
*898 PHY_26
*899 PHY_27
*900 PHY_28
*901 PHY_29
*902 PHY_3
*903 PHY_30
*904 PHY_31
*905 PHY_32
*906 PHY_33
*907 PHY_34
*908 PHY_35
*909 PHY_36
*910 PHY_37
*911 PHY_38
*912 PHY_39
*913 PHY_4
*914 PHY_40
*915 PHY_41
*916 PHY_42
*917 PHY_43
*918 PHY_44
*919 PHY_45
*920 PHY_46
*921 PHY_47
*922 PHY_48
*923 PHY_49
*924 PHY_5
*925 PHY_50
*926 PHY_51
*927 PHY_52
*928 PHY_53
*929 PHY_54
*930 PHY_55
*931 PHY_56
*932 PHY_57
*933 PHY_58
*934 PHY_59
*935 PHY_6
*936 PHY_60
*937 PHY_61
*938 PHY_62
*939 PHY_63
*940 PHY_64
*941 PHY_65
*942 PHY_7
*943 PHY_8
*944 PHY_9
*945 TAP_100
*946 TAP_101
*947 TAP_102
*948 TAP_103
*949 TAP_104
*950 TAP_105
*951 TAP_106
*952 TAP_107
*953 TAP_108
*954 TAP_109
*955 TAP_110
*956 TAP_111
*957 TAP_112
*958 TAP_113
*959 TAP_114
*960 TAP_115
*961 TAP_116
*962 TAP_117
*963 TAP_118
*964 TAP_119
*965 TAP_120
*966 TAP_121
*967 TAP_122
*968 TAP_123
*969 TAP_124
*970 TAP_125
*971 TAP_126
*972 TAP_127
*973 TAP_128
*974 TAP_129
*975 TAP_130
*976 TAP_131
*977 TAP_132
*978 TAP_133
*979 TAP_134
*980 TAP_135
*981 TAP_136
*982 TAP_137
*983 TAP_138
*984 TAP_139
*985 TAP_140
*986 TAP_141
*987 TAP_142
*988 TAP_143
*989 TAP_144
*990 TAP_145
*991 TAP_146
*992 TAP_147
*993 TAP_148
*994 TAP_149
*995 TAP_150
*996 TAP_151
*997 TAP_152
*998 TAP_153
*999 TAP_154
*1000 TAP_155
*1001 TAP_156
*1002 TAP_157
*1003 TAP_158
*1004 TAP_159
*1005 TAP_160
*1006 TAP_161
*1007 TAP_162
*1008 TAP_163
*1009 TAP_164
*1010 TAP_165
*1011 TAP_166
*1012 TAP_167
*1013 TAP_168
*1014 TAP_169
*1015 TAP_170
*1016 TAP_66
*1017 TAP_67
*1018 TAP_68
*1019 TAP_69
*1020 TAP_70
*1021 TAP_71
*1022 TAP_72
*1023 TAP_73
*1024 TAP_74
*1025 TAP_75
*1026 TAP_76
*1027 TAP_77
*1028 TAP_78
*1029 TAP_79
*1030 TAP_80
*1031 TAP_81
*1032 TAP_82
*1033 TAP_83
*1034 TAP_84
*1035 TAP_85
*1036 TAP_86
*1037 TAP_87
*1038 TAP_88
*1039 TAP_89
*1040 TAP_90
*1041 TAP_91
*1042 TAP_92
*1043 TAP_93
*1044 TAP_94
*1045 TAP_95
*1046 TAP_96
*1047 TAP_97
*1048 TAP_98
*1049 TAP_99
*1050 _204_
*1051 _205_
*1052 _206_
*1053 _207_
*1054 _208_
*1055 _209_
*1056 _210_
*1057 _211_
*1058 _212_
*1059 _213_
*1060 _214_
*1061 _215_
*1062 _216_
*1063 _217_
*1064 _218_
*1065 _219_
*1066 _220_
*1067 _221_
*1068 _222_
*1069 _223_
*1070 _224_
*1071 _225_
*1072 _226_
*1073 _227_
*1074 _228_
*1075 _229_
*1076 _230_
*1077 _231_
*1078 _232_
*1079 _233_
*1080 _234_
*1081 _235_
*1082 _236_
*1083 _237_
*1084 _238_
*1085 _239_
*1086 _240_
*1087 _241_
*1088 _242_
*1089 _243_
*1090 _244_
*1091 _245_
*1092 _246_
*1093 _247_
*1094 _248_
*1095 _249_
*1096 _250_
*1097 _251_
*1098 _252_
*1099 _253_
*1100 _254_
*1101 _255_
*1102 _256_
*1103 _257_
*1104 _258_
*1105 _259_
*1106 _260_
*1107 _261_
*1108 _262_
*1109 _263_
*1110 _264_
*1111 _265_
*1112 _266_
*1113 _267_
*1114 _268_
*1115 _269_
*1116 _270_
*1117 _271_
*1118 _272_
*1119 _273_
*1120 _274_
*1121 _275_
*1122 _276_
*1123 _277_
*1124 _278_
*1125 _279_
*1126 _280_
*1127 _281_
*1128 _282_
*1129 _283_
*1130 _284_
*1131 _285_
*1132 _286_
*1133 _287_
*1134 _288_
*1135 _289_
*1136 _290_
*1137 _291_
*1138 _292_
*1139 _293_
*1140 _294_
*1141 _295_
*1142 _296_
*1143 _297_
*1144 _298_
*1145 _299_
*1146 _300_
*1147 _301_
*1148 _302_
*1149 _303_
*1150 _304_
*1151 _305_
*1152 _306_
*1153 _307_
*1154 _308_
*1155 _309_
*1156 _310_
*1157 _311_
*1158 _312_
*1159 _313_
*1160 _314_
*1161 _315_
*1162 _316_
*1163 _317_
*1164 _318_
*1165 _319_
*1166 _320_
*1167 _321_
*1168 _322_
*1169 _323_
*1170 _324_
*1171 _325_
*1172 _326_
*1173 _327_
*1174 _328_
*1175 _329_
*1176 _330_
*1177 _331_
*1178 _332_
*1179 _333_
*1180 _334_
*1181 _335_
*1182 _336_
*1183 _337_
*1184 _338_
*1185 _339_
*1186 _340_
*1187 _341_
*1188 _342_
*1189 _343_
*1190 _344_
*1191 _345_
*1192 _346_
*1193 _347_
*1194 _348_
*1195 _349_
*1196 _350_
*1197 _351_
*1198 _352_
*1199 _353_
*1200 _354_
*1201 _355_
*1202 _356_
*1203 _357_
*1204 _358_
*1205 _359_
*1206 _360_
*1207 _361_
*1208 _362_
*1209 _363_
*1210 _364_
*1211 _365_
*1212 _366_
*1213 _367_
*1214 _368_
*1215 _369_
*1216 _370_
*1217 _371_
*1218 _372_
*1219 _373_
*1220 _374_
*1221 _375_
*1222 _376_
*1223 _377_
*1224 _378_
*1225 _379_
*1226 _380_
*1227 _381_
*1228 _382_
*1229 _383_
*1230 _384_
*1231 _385_
*1232 _386_
*1233 _387_
*1234 _388_
*1235 _389_
*1236 _390_
*1237 _391_
*1238 _392_
*1239 _393_
*1240 _394_
*1241 _395_
*1242 _396_
*1243 _397_
*1244 _398_
*1245 _399_
*1246 _400_
*1247 _401_
*1248 _402_
*1249 _403_
*1250 _404_
*1251 _405_
*1252 _406_
*1253 _407_
*1254 _408_
*1255 _409_
*1256 _410_
*1257 _411_
*1258 _412_
*1259 _413_
*1260 _414_
*1261 _415_
*1262 _416_
*1263 _417_
*1264 _418_
*1265 _419_
*1266 _420_
*1267 _421_
*1268 _422_
*1269 _423_
*1270 _424_
*1271 _425_
*1272 _426_
*1273 _427_
*1274 _428_
*1275 _429_
*1276 _430_
*1277 _431_
*1278 _432_
*1279 _433_
*1280 _434_
*1281 _435_
*1282 _436_
*1283 _437_
*1284 _438_
*1285 _439_
*1286 _440_
*1287 _441_
*1288 _442_
*1289 _443_
*1290 _444_
*1291 _445_
*1292 _446_
*1293 _447_
*1294 _448_
*1295 _449_
*1296 _450_
*1297 _451_
*1298 _452_
*1299 _453_
*1300 _454_
*1301 _455_
*1302 _456_
*1303 _457_
*1304 _458_
*1305 _459_
*1306 _460_
*1307 _461_
*1308 _462_
*1309 _463_
*1310 _464_
*1311 _465_
*1312 _466_
*1313 _467_
*1314 _468_
*1315 clkbuf_0_clk
*1316 clkbuf_3_0__f_clk
*1317 clkbuf_3_1__f_clk
*1318 clkbuf_3_2__f_clk
*1319 clkbuf_3_3__f_clk
*1320 clkbuf_3_4__f_clk
*1321 clkbuf_3_5__f_clk
*1322 clkbuf_3_6__f_clk
*1323 clkbuf_3_7__f_clk
*1324 fanout24
*1325 fanout25
*1326 fanout26
*1327 fanout27
*1328 fanout28
*1329 fanout29
*1330 fanout30
*1331 fanout31
*1332 hold1
*1333 hold10
*1334 hold11
*1335 hold12
*1336 hold13
*1337 hold14
*1338 hold15
*1339 hold16
*1340 hold17
*1341 hold18
*1342 hold19
*1343 hold2
*1344 hold20
*1345 hold21
*1346 hold22
*1347 hold23
*1348 hold24
*1349 hold25
*1350 hold26
*1351 hold27
*1352 hold28
*1353 hold29
*1354 hold3
*1355 hold30
*1356 hold31
*1357 hold32
*1358 hold33
*1359 hold34
*1360 hold35
*1361 hold36
*1362 hold37
*1363 hold38
*1364 hold39
*1365 hold4
*1366 hold40
*1367 hold41
*1368 hold42
*1369 hold43
*1370 hold5
*1371 hold6
*1372 hold7
*1373 hold8
*1374 hold9
*1375 input1
*1376 input10
*1377 input11
*1378 input2
*1379 input3
*1380 input4
*1381 input5
*1382 input6
*1383 input7
*1384 input8
*1385 input9
*1386 max_cap23
*1387 output12
*1388 output13
*1389 output14
*1390 output15
*1391 output16
*1392 output17
*1393 output18
*1394 output19
*1395 output20
*1396 output21
*1397 output22

*PORTS
clk I
data_in[0] I
data_in[1] I
data_in[2] I
data_in[3] I
data_in[4] I
data_in[5] I
data_in[6] I
data_in[7] I
data_out[0] O
data_out[1] O
data_out[2] O
data_out[3] O
data_out[4] O
data_out[5] O
data_out[6] O
data_out[7] O
data_ready O
data_valid I
rst_n I
rx_in I
tx_busy O
tx_out O

*D_NET *3 0.012122
*CONN
*P clk I
*I *1315:A I *D sky130_fd_sc_hd__clkbuf_16
*CAP
1 clk 0.00589944
2 *1315:A 0
3 *3:17 0.00589944
4 *3:17 *1286:CLK 0.000195991
5 *3:17 *96:14 0.000115261
6 *3:17 *237:10 1.18349e-05
7 *3:17 *240:23 0
*RES
1 clk *3:17 42.2271 
2 *3:17 *1315:A 38 
*END

*D_NET *4 0.000590187
*CONN
*P data_in[0] I
*I *1375:A I *D sky130_fd_sc_hd__clkbuf_1
*CAP
1 data_in[0] 0.000295094
2 *1375:A 0.000295094
*RES
1 data_in[0] *1375:A 47.67 
*END

*D_NET *5 0.000907633
*CONN
*P data_in[1] I
*I *1378:A I *D sky130_fd_sc_hd__buf_1
*CAP
1 data_in[1] 0.000448094
2 *1378:A 0.000448094
3 *1378:A *16:10 0
4 *1378:A *246:27 1.14452e-05
*RES
1 data_in[1] *1378:A 47.9429 
*END

*D_NET *6 0.000504257
*CONN
*P data_in[2] I
*I *1379:A I *D sky130_fd_sc_hd__buf_1
*CAP
1 data_in[2] 0.000252128
2 *1379:A 0.000252128
*RES
1 data_in[2] *1379:A 49.1767 
*END

*D_NET *7 0.000655774
*CONN
*P data_in[3] I
*I *1380:A I *D sky130_fd_sc_hd__clkbuf_1
*CAP
1 data_in[3] 0.000327887
2 *1380:A 0
3 *7:13 0.000327887
4 *7:13 *59:10 0
*RES
1 data_in[3] *7:13 27.5853 
2 *7:13 *1380:A 23 
*END

*D_NET *8 0.0010187
*CONN
*P data_in[4] I
*I *1381:A I *D sky130_fd_sc_hd__clkbuf_1
*CAP
1 data_in[4] 0.00048037
2 *1381:A 0.00048037
3 *1381:A *252:14 5.79559e-05
*RES
1 data_in[4] *1381:A 48.3779 
*END

*D_NET *9 0.00114358
*CONN
*P data_in[5] I
*I *1382:A I *D sky130_fd_sc_hd__clkbuf_1
*CAP
1 data_in[5] 0.00057179
2 *1382:A 0.00057179
*RES
1 data_in[5] *1382:A 49.9521 
*END

*D_NET *10 0.00100819
*CONN
*P data_in[6] I
*I *1383:A I *D sky130_fd_sc_hd__clkbuf_1
*CAP
1 data_in[6] 0.000504093
2 *1383:A 0.000504093
*RES
1 data_in[6] *1383:A 48.3779 
*END

*D_NET *11 0.000673265
*CONN
*P data_in[7] I
*I *1384:A I *D sky130_fd_sc_hd__buf_1
*CAP
1 data_in[7] 0.000336633
2 *1384:A 0
3 *11:13 0.000336633
*RES
1 data_in[7] *11:13 27.5469 
2 *11:13 *1384:A 23 
*END

*D_NET *12 0.00168564
*CONN
*P data_out[0] O
*I *1387:X O *D sky130_fd_sc_hd__clkbuf_4
*CAP
1 data_out[0] 0.000471517
2 *1387:X 0.000256847
3 *12:8 0.000728363
4 *12:8 *1387:A 0.000228909
*RES
1 *1387:X *12:8 41.9564 
2 *12:8 data_out[0] 11.4136 
*END

*D_NET *13 0.00149177
*CONN
*P data_out[1] O
*I *1388:X O *D sky130_fd_sc_hd__clkbuf_4
*CAP
1 data_out[1] 0.000372805
2 *1388:X 0.000373081
3 *13:8 0.000745886
*RES
1 *1388:X *13:8 45.2914 
2 *13:8 data_out[1] 8.34786 
*END

*D_NET *14 0.00172638
*CONN
*P data_out[2] O
*I *1389:X O *D sky130_fd_sc_hd__clkbuf_4
*CAP
1 data_out[2] 0.000371241
2 *1389:X 0.000308447
3 *14:10 0.000679688
4 *14:10 *1129:A0 0.000367008
*RES
1 *1389:X *14:10 43.0543 
2 *14:10 data_out[2] 7.99571 
*END

*D_NET *15 0.00061592
*CONN
*P data_out[3] O
*I *1390:X O *D sky130_fd_sc_hd__clkbuf_4
*CAP
1 data_out[3] 8.56082e-05
2 *1390:X 0.000222352
3 *15:12 0.00030796
4 *15:12 *1271:CLK 0
*RES
1 *1390:X *15:12 49.9046 
2 *15:12 data_out[3] 0.328533 
*END

*D_NET *16 0.00126649
*CONN
*P data_out[4] O
*I *1391:X O *D sky130_fd_sc_hd__clkbuf_4
*CAP
1 data_out[4] 0.000197482
2 *1391:X 0.000435763
3 *16:10 0.000633245
4 *1378:A *16:10 0
*RES
1 *1391:X *16:10 46.6896 
2 *16:10 data_out[4] 8.75787 
*END

*D_NET *17 0.000740866
*CONN
*P data_out[5] O
*I *1392:X O *D sky130_fd_sc_hd__clkbuf_4
*CAP
1 data_out[5] 0.000370433
2 *1392:X 0.000370433
*RES
1 *1392:X data_out[5] 45.9957 
*END

*D_NET *18 0.00092223
*CONN
*P data_out[6] O
*I *1393:X O *D sky130_fd_sc_hd__clkbuf_4
*CAP
1 data_out[6] 0.000197482
2 *1393:X 0.000202803
3 *18:8 0.000400285
4 *18:8 *249:31 0.000121659
*RES
1 *1393:X *18:8 42.8989 
2 *18:8 data_out[6] 8.75787 
*END

*D_NET *19 0.00102432
*CONN
*P data_out[7] O
*I *1394:X O *D sky130_fd_sc_hd__buf_2
*CAP
1 data_out[7] 0.000282884
2 *1394:X 0.000229275
3 *19:10 0.000512158
4 *19:10 *1291:RESET_B 0
*RES
1 *1394:X *19:10 49.8425 
2 *19:10 data_out[7] 0.843733 
*END

*D_NET *20 0.00147964
*CONN
*P data_ready O
*I *1395:X O *D sky130_fd_sc_hd__clkbuf_4
*CAP
1 data_ready 0.000390438
2 *1395:X 0.000260427
3 *20:12 0.000650865
4 *20:12 *114:25 0.000177909
*RES
1 *1395:X *20:12 42.4225 
2 *20:12 data_ready 8.52393 
*END

*D_NET *21 0.00174112
*CONN
*P data_valid I
*I *1385:A I *D sky130_fd_sc_hd__buf_1
*CAP
1 data_valid 0.000811638
2 *1385:A 0
3 *21:13 0.000811638
4 *21:13 *1088:A 5.37348e-06
5 *21:13 *114:6 5.47927e-05
6 *21:13 *114:12 7.43025e-06
7 *21:13 *312:8 5.02496e-05
*RES
1 data_valid *21:13 30.4321 
2 *21:13 *1385:A 23 
*END

*D_NET *22 0.000878799
*CONN
*P rst_n I
*I *1376:A I *D sky130_fd_sc_hd__buf_1
*CAP
1 rst_n 0.0004394
2 *1376:A 0.0004394
3 *1376:A *250:20 0
*RES
1 rst_n *1376:A 47.4664 
*END

*D_NET *23 0.000707179
*CONN
*P rx_in I
*I *1377:A I *D sky130_fd_sc_hd__clkbuf_1
*CAP
1 rx_in 0.000337414
2 *1377:A 0.000337414
3 *1377:A *241:8 3.23515e-05
*RES
1 rx_in *1377:A 48.7264 
*END

*D_NET *24 0.00165132
*CONN
*P tx_busy O
*I *1396:X O *D sky130_fd_sc_hd__clkbuf_4
*CAP
1 tx_busy 0.0003882
2 *1396:X 0.000437461
3 *24:8 0.000825662
*RES
1 *1396:X *24:8 45.7679 
2 *24:8 tx_busy 8.7 
*END

*D_NET *25 0.000761334
*CONN
*P tx_out O
*I *1397:X O *D sky130_fd_sc_hd__buf_2
*CAP
1 tx_out 0.000349616
2 *1397:X 0.000349616
3 tx_out *248:25 6.21013e-05
*RES
1 *1397:X tx_out 48.6592 
*END

*D_NET *26 0.00692519
*CONN
*I *1254:D I *D sky130_fd_sc_hd__dfrtp_1
*I *1086:Y O *D sky130_fd_sc_hd__inv_2
*CAP
1 *1254:D 0
2 *1086:Y 0.000436366
3 *26:18 0.00154116
4 *26:12 0.00197753
5 *26:12 *1086:A 4.84129e-06
6 *26:12 *38:10 5.56203e-05
7 *26:12 *230:20 0.000183171
8 *26:12 *230:90 6.07971e-05
9 *26:12 *250:30 0
10 *26:12 *259:12 0
11 *26:12 *263:14 0
12 *26:12 *311:16 0
13 *26:18 *1240:S 9.57951e-05
14 *26:18 *1304:RESET_B 0
15 *26:18 *1363:A 9.46108e-05
16 *26:18 *83:8 0.000325993
17 *26:18 *114:44 7.25241e-05
18 *26:18 *230:90 0.000195092
19 *26:18 *234:90 0
20 *26:18 *250:30 0
21 *26:18 *259:26 0
22 *26:18 *260:68 0.00164768
23 *26:18 *263:14 0
24 *26:18 *288:10 0
25 *26:18 *311:16 0
26 *26:18 *349:23 0.000234008
27 *26:18 *354:25 0
*RES
1 *1086:Y *26:12 47.3111 
2 *26:12 *26:18 40.2996 
3 *26:18 *1254:D 38 
*END

*D_NET *27 0.00313433
*CONN
*I *1284:D I *D sky130_fd_sc_hd__dfrtp_4
*I *1096:Y O *D sky130_fd_sc_hd__nor2_1
*CAP
1 *1284:D 0.000554738
2 *1096:Y 0.000705106
3 *27:10 0.00125984
4 *1284:D *237:25 3.7122e-06
5 *1284:D *260:14 1.59094e-05
6 *27:10 *1096:A 3.26241e-05
7 *27:10 *1286:RESET_B 8.7816e-05
8 *27:10 *1294:RESET_B 7.2918e-05
9 *27:10 *1365:A 5.28076e-05
10 *27:10 *126:10 1.00084e-05
11 *27:10 *260:14 0.000268348
12 *27:10 *339:23 7.04956e-05
*RES
1 *1096:Y *27:10 49.6414 
2 *27:10 *1284:D 45.3121 
*END

*D_NET *28 0.000610242
*CONN
*I *1285:D I *D sky130_fd_sc_hd__dfrtp_2
*I *1101:X O *D sky130_fd_sc_hd__clkbuf_1
*CAP
1 *1285:D 0.00014755
2 *1101:X 6.25101e-05
3 *28:8 0.00021006
4 *1285:D *340:8 0.000104373
5 *28:8 *96:14 8.57485e-05
*RES
1 *1101:X *28:8 39.2014 
2 *28:8 *1285:D 40.118 
*END

*D_NET *29 0.000786132
*CONN
*I *1286:D I *D sky130_fd_sc_hd__dfrtp_1
*I *1105:X O *D sky130_fd_sc_hd__clkbuf_1
*CAP
1 *1286:D 0.000175309
2 *1105:X 0.00018406
3 *29:10 0.000359369
4 *29:10 *1105:A 4.84129e-06
5 *29:10 *126:10 6.25525e-05
*RES
1 *1105:X *29:10 41.0036 
2 *29:10 *1286:D 40.5271 
*END

*D_NET *30 0.00139551
*CONN
*I *1287:D I *D sky130_fd_sc_hd__dfrtp_1
*I *1109:Y O *D sky130_fd_sc_hd__a21oi_1
*CAP
1 *1287:D 0.000294063
2 *1109:Y 0.000313424
3 *30:12 0.000607488
4 *30:12 *1109:A2 5.41385e-05
5 *30:12 *127:8 0.000104183
6 *30:12 *129:10 0
7 *30:12 *229:10 0
8 *30:12 *257:44 2.22183e-05
9 *30:12 *342:10 0
*RES
1 *1109:Y *30:12 44.3386 
2 *30:12 *1287:D 43.3857 
*END

*D_NET *31 0.000175553
*CONN
*I *1288:D I *D sky130_fd_sc_hd__dfrtp_1
*I *1113:X O *D sky130_fd_sc_hd__clkbuf_1
*CAP
1 *1288:D 0
2 *1113:X 7.18123e-05
3 *31:8 7.18123e-05
4 *31:8 *132:8 3.19287e-05
*RES
1 *1113:X *31:8 39.5536 
2 *31:8 *1288:D 38 
*END

*D_NET *32 0.000657876
*CONN
*I *1289:D I *D sky130_fd_sc_hd__dfrtp_1
*I *1117:X O *D sky130_fd_sc_hd__clkbuf_1
*CAP
1 *1289:D 0.00012779
2 *1117:X 0.000145447
3 *32:8 0.000273237
4 *1289:D *1289:RESET_B 9.74561e-05
5 *1289:D *257:58 1.21972e-05
6 *32:8 *343:25 1.74874e-06
*RES
1 *1117:X *32:8 40.2579 
2 *32:8 *1289:D 40.5271 
*END

*D_NET *33 0.000885324
*CONN
*I *1290:D I *D sky130_fd_sc_hd__dfrtp_1
*I *1120:X O *D sky130_fd_sc_hd__o21a_1
*CAP
1 *1290:D 0
2 *1120:X 0.00036642
3 *33:18 0.00036642
4 *33:18 *1120:A2 9.62369e-05
5 *33:18 *1120:B1 1.75737e-05
6 *33:18 *1290:CLK 1.75614e-05
7 *33:18 *137:10 2.11131e-05
*RES
1 *1120:X *33:18 44.5457 
2 *33:18 *1290:D 38 
*END

*D_NET *34 0.000368145
*CONN
*I *1291:D I *D sky130_fd_sc_hd__dfrtp_1
*I *1122:X O *D sky130_fd_sc_hd__o21ba_1
*CAP
1 *1291:D 0
2 *1122:X 0.000184073
3 *34:10 0.000184073
4 *34:10 *1291:RESET_B 0
*RES
1 *1122:X *34:10 40.6514 
2 *34:10 *1291:D 38 
*END

*D_NET *35 0.000856559
*CONN
*I *1292:D I *D sky130_fd_sc_hd__dfrtp_1
*I *1126:X O *D sky130_fd_sc_hd__clkbuf_1
*CAP
1 *1292:D 0.000156077
2 *1126:X 5.86868e-05
3 *35:8 0.000214763
4 *1292:D *1125:C 6.17437e-06
5 *1292:D *141:10 0.000145521
6 *35:8 *136:42 0.000136609
7 *35:8 *260:121 0.000138727
*RES
1 *1126:X *35:8 39.9057 
2 *35:8 *1292:D 41.0036 
*END

*D_NET *36 0.000466666
*CONN
*I *1299:D I *D sky130_fd_sc_hd__dfstp_1
*I *1060:X O *D sky130_fd_sc_hd__a22o_1
*CAP
1 *1299:D 0.000147099
2 *1060:X 0.000147099
3 *1299:D *1060:A2 5.47983e-06
4 *1299:D *232:85 2.93335e-05
5 *1299:D *258:56 0.000137654
*RES
1 *1060:X *1299:D 49.3764 
*END

*D_NET *37 0.00118642
*CONN
*I *1300:D I *D sky130_fd_sc_hd__dfrtp_4
*I *1063:Y O *D sky130_fd_sc_hd__o21ai_1
*CAP
1 *1300:D 0.000128476
2 *1063:Y 0.000304284
3 *37:10 0.000432759
4 *1300:D *1300:CLK 0.000110048
5 *37:10 *1063:A1 0.00014196
6 *37:10 *1063:B1 7.10644e-06
7 *37:10 *93:12 0
8 *37:10 *93:14 0
9 *37:10 *202:10 6.17903e-05
10 *37:10 *232:14 0
*RES
1 *1063:Y *37:10 43.6136 
2 *37:10 *1300:D 40.118 
*END

*D_NET *38 0.000431088
*CONN
*I *1301:D I *D sky130_fd_sc_hd__dfrtp_4
*I *1076:X O *D sky130_fd_sc_hd__clkbuf_1
*CAP
1 *1301:D 0
2 *1076:X 0.000137644
3 *38:10 0.000137644
4 *38:10 *259:10 0.00010018
5 *38:10 *259:12 0
6 *26:12 *38:10 5.56203e-05
*RES
1 *1076:X *38:10 40.6514 
2 *38:10 *1301:D 38 
*END

*D_NET *39 0.00170216
*CONN
*I *1302:D I *D sky130_fd_sc_hd__dfrtp_4
*I *1084:X O *D sky130_fd_sc_hd__a22o_1
*CAP
1 *1302:D 0.000334693
2 *1084:X 9.11245e-05
3 *39:8 0.000425818
4 *1302:D *1302:RESET_B 4.70852e-05
5 *1302:D *108:44 0.000265277
6 *1302:D *112:86 0.000279088
7 *1302:D *257:28 0.000148865
8 *39:8 *112:86 8.78864e-05
9 *39:8 *311:16 1.223e-05
10 *39:8 *336:76 1.0092e-05
*RES
1 *1084:X *39:8 39.9057 
2 *39:8 *1302:D 46.7207 
*END

*D_NET *40 0.0016111
*CONN
*I *1311:D I *D sky130_fd_sc_hd__dfstp_1
*I *1069:X O *D sky130_fd_sc_hd__a21bo_1
*CAP
1 *1311:D 0.000314716
2 *1069:X 0.00017598
3 *40:10 0.000490696
4 *1311:D *238:86 5.50049e-05
5 *1311:D *238:97 0.000105494
6 *40:10 *1374:A 0.00023585
7 *40:10 *305:18 0.000233359
*RES
1 *1069:X *40:10 42.785 
2 *40:10 *1311:D 44.0279 
*END

*D_NET *41 0.00126165
*CONN
*I *1346:A I *D sky130_fd_sc_hd__dlygate4sd3_1
*I *1072:X O *D sky130_fd_sc_hd__a22o_1
*CAP
1 *1346:A 0
2 *1072:X 0.000509819
3 *41:10 0.000509819
4 *41:10 *1121:A1 1.16915e-05
5 *41:10 *1121:A2 3.22879e-05
6 *41:10 *1121:B1 0.000198037
7 *41:10 *138:10 0
*RES
1 *1072:X *41:10 45.7679 
2 *41:10 *1346:A 38 
*END

*D_NET *42 0.00158683
*CONN
*I *1313:D I *D sky130_fd_sc_hd__dfrtp_1
*I *1089:Y O *D sky130_fd_sc_hd__o21ai_1
*CAP
1 *1313:D 0
2 *1089:Y 0.000761454
3 *42:12 0.000761454
4 *42:12 *1313:CLK 1.83408e-05
5 *42:12 *99:79 1.32939e-05
6 *42:12 *114:127 3.22879e-05
*RES
1 *1089:Y *42:12 33.8129 
2 *42:12 *1313:D 23 
*END

*D_NET *43 0.00117632
*CONN
*I *1314:D I *D sky130_fd_sc_hd__dfrtp_1
*I *1079:Y O *D sky130_fd_sc_hd__o21bai_1
*CAP
1 *1314:D 0
2 *1079:Y 0.000522809
3 *43:10 0.000522809
4 *43:10 *1079:A1 2.95423e-05
5 *43:10 *1079:A2 6.19869e-05
6 *43:10 *100:8 8.0612e-06
7 *43:10 *107:31 3.95707e-06
8 *43:10 *359:19 2.71586e-05
*RES
1 *1079:Y *43:10 45.4157 
2 *43:10 *1314:D 38 
*END

*D_NET *44 0.000449614
*CONN
*I *1255:D I *D sky130_fd_sc_hd__dfrtp_1
*I *1128:X O *D sky130_fd_sc_hd__clkbuf_1
*CAP
1 *1255:D 0
2 *1128:X 8.92109e-05
3 *44:10 8.92109e-05
4 *44:10 *1372:A 0.00014411
5 *44:10 *112:117 7.03766e-05
6 *44:10 *142:8 5.67058e-05
*RES
1 *1128:X *44:10 40.5271 
2 *44:10 *1255:D 38 
*END

*D_NET *45 0.000522539
*CONN
*I *1256:D I *D sky130_fd_sc_hd__dfrtp_1
*I *1130:X O *D sky130_fd_sc_hd__clkbuf_1
*CAP
1 *1256:D 4.01985e-05
2 *1130:X 0.000221071
3 *45:10 0.00026127
4 *45:10 *1256:CLK 0
5 *45:10 *292:10 0
*RES
1 *1130:X *45:10 41.1279 
2 *45:10 *1256:D 38.6214 
*END

*D_NET *46 0.000568285
*CONN
*I *1257:D I *D sky130_fd_sc_hd__dfrtp_1
*I *1132:X O *D sky130_fd_sc_hd__clkbuf_1
*CAP
1 *1257:D 0
2 *1132:X 0.000284142
3 *46:10 0.000284142
*RES
1 *1132:X *46:10 42.0807 
2 *46:10 *1257:D 38 
*END

*D_NET *47 0.000489346
*CONN
*I *1258:D I *D sky130_fd_sc_hd__dfrtp_1
*I *1134:X O *D sky130_fd_sc_hd__clkbuf_1
*CAP
1 *1258:D 0
2 *1134:X 0.000186516
3 *47:10 0.000186516
4 *47:10 *261:12 0.000116314
5 *47:10 *299:10 0
*RES
1 *1134:X *47:10 41.1279 
2 *47:10 *1258:D 38 
*END

*D_NET *48 0.000373359
*CONN
*I *1259:D I *D sky130_fd_sc_hd__dfrtp_1
*I *1136:X O *D sky130_fd_sc_hd__clkbuf_1
*CAP
1 *1259:D 7.91391e-05
2 *1136:X 7.91391e-05
3 *1259:D *1136:A 3.91386e-05
4 *1259:D *1259:CLK 3.22879e-05
5 *1259:D *1259:RESET_B 0.000143655
*RES
1 *1136:X *1259:D 48.5479 
*END

*D_NET *49 0.000316315
*CONN
*I *1260:D I *D sky130_fd_sc_hd__dfrtp_1
*I *1138:X O *D sky130_fd_sc_hd__clkbuf_1
*CAP
1 *1260:D 0
2 *1138:X 0.000146643
3 *49:10 0.000146643
4 *49:10 *93:18 0
5 *49:10 *255:40 2.30292e-05
6 *49:10 *280:10 0
*RES
1 *1138:X *49:10 40.175 
2 *49:10 *1260:D 38 
*END

*D_NET *50 0.000850207
*CONN
*I *1261:D I *D sky130_fd_sc_hd__dfrtp_1
*I *1140:X O *D sky130_fd_sc_hd__clkbuf_1
*CAP
1 *1261:D 8.73058e-05
2 *1140:X 0.00010405
3 *50:8 0.000191356
4 *1261:D *1261:CLK 1.39317e-05
5 *50:8 *1140:A 0.000154385
6 *50:8 *1261:CLK 0.000223034
7 *50:8 *236:25 7.6144e-05
*RES
1 *1140:X *50:8 42.0186 
2 *50:8 *1261:D 38.9995 
*END

*D_NET *51 0.000913432
*CONN
*I *1262:D I *D sky130_fd_sc_hd__dfrtp_1
*I *1142:X O *D sky130_fd_sc_hd__clkbuf_1
*CAP
1 *1262:D 8.2568e-05
2 *1142:X 6.65992e-05
3 *51:8 0.000149167
4 *1262:D *1302:CLK 0.000141352
5 *1262:D *236:27 6.72382e-05
6 *1262:D *249:14 0.000269099
7 *51:8 *149:8 0.000110258
8 *51:8 *332:8 2.71504e-05
*RES
1 *1142:X *51:8 39.5536 
2 *51:8 *1262:D 41.0036 
*END

*D_NET *52 0.0005168
*CONN
*I *1263:D I *D sky130_fd_sc_hd__dfrtp_2
*I *1148:X O *D sky130_fd_sc_hd__clkbuf_1
*CAP
1 *1263:D 0.000111405
2 *1148:X 0.000130634
3 *52:10 0.000242039
4 *1263:D *1263:CLK 3.2723e-05
*RES
1 *1148:X *52:10 39.8229 
2 *52:10 *1263:D 39.595 
*END

*D_NET *53 0.00109769
*CONN
*I *1264:D I *D sky130_fd_sc_hd__dfrtp_2
*I *1153:X O *D sky130_fd_sc_hd__a32o_1
*CAP
1 *1264:D 0
2 *1153:X 0.000319913
3 *53:10 0.000319913
4 *53:10 *1152:A 0.000188526
5 *53:10 *1153:A2 0.000147656
6 *53:10 *234:10 0.000110458
7 *53:10 *314:55 1.12268e-05
*RES
1 *1153:X *53:10 43.51 
2 *53:10 *1264:D 38 
*END

*D_NET *54 0.00103924
*CONN
*I *1265:D I *D sky130_fd_sc_hd__dfrtp_1
*I *1157:X O *D sky130_fd_sc_hd__o211a_1
*CAP
1 *1265:D 0
2 *1157:X 0.000429189
3 *54:6 0.000429189
4 *54:6 *104:81 9.46363e-05
5 *54:6 *315:10 3.22051e-05
6 *54:6 *315:51 5.40241e-05
*RES
1 *1157:X *54:6 31.2443 
2 *54:6 *1265:D 23 
*END

*D_NET *55 0.00155908
*CONN
*I *1266:D I *D sky130_fd_sc_hd__dfrtp_1
*I *1162:Y O *D sky130_fd_sc_hd__a31oi_1
*CAP
1 *1266:D 0
2 *1162:Y 0.000621908
3 *55:10 0.000621908
4 *55:10 *268:19 9.67842e-05
5 *55:10 *316:8 0.000218476
*RES
1 *1162:Y *55:10 33.7921 
2 *55:10 *1266:D 23 
*END

*D_NET *56 0.002309
*CONN
*I *1267:D I *D sky130_fd_sc_hd__dfrtp_2
*I *1166:X O *D sky130_fd_sc_hd__a32o_1
*CAP
1 *1267:D 0.000543519
2 *1166:X 0.000533982
3 *56:10 0.0010775
4 *1267:D *1267:RESET_B 5.02669e-05
5 *1267:D *1269:RESET_B 2.55858e-05
6 *56:10 *1269:RESET_B 2.14404e-05
7 *56:10 *1318:A 5.67058e-05
*RES
1 *1166:X *56:10 45.0636 
2 *56:10 *1267:D 45.3121 
*END

*D_NET *57 0.00161506
*CONN
*I *1268:D I *D sky130_fd_sc_hd__dfrtp_1
*I *1174:X O *D sky130_fd_sc_hd__o211a_1
*CAP
1 *1268:D 0.000179486
2 *1174:X 0.000552973
3 *57:10 0.000732458
4 *1268:D *1133:S 3.5022e-07
5 *1268:D *1268:CLK 3.52615e-05
6 *1268:D *112:16 1.23032e-05
7 *57:10 *145:10 0
8 *57:10 *231:12 8.71559e-05
9 *57:10 *319:38 1.50735e-05
*RES
1 *1174:X *57:10 46.8864 
2 *57:10 *1268:D 40.5479 
*END

*D_NET *58 0.00244058
*CONN
*I *1269:D I *D sky130_fd_sc_hd__dfrtp_4
*I *1178:X O *D sky130_fd_sc_hd__a2bb2o_1
*CAP
1 *1269:D 0
2 *1178:X 0.000992033
3 *58:8 0.000992033
4 *58:8 *1175:A 0.000261932
5 *58:8 *1269:RESET_B 5.00902e-05
6 *58:8 *319:6 0.000144494
*RES
1 *1178:X *58:8 36.9821 
2 *58:8 *1269:D 23 
*END

*D_NET *59 0.00130209
*CONN
*I *1270:D I *D sky130_fd_sc_hd__dfrtp_2
*I *1181:X O *D sky130_fd_sc_hd__a32o_1
*CAP
1 *1270:D 0
2 *1181:X 0.000411383
3 *59:10 0.000411383
4 *59:10 *261:14 3.56537e-05
5 *59:10 *272:10 0.000443673
6 *7:13 *59:10 0
*RES
1 *1181:X *59:10 44.9393 
2 *59:10 *1270:D 38 
*END

*D_NET *60 0.00181335
*CONN
*I *1271:D I *D sky130_fd_sc_hd__dfrtp_1
*I *1185:X O *D sky130_fd_sc_hd__a31o_1
*CAP
1 *1271:D 0
2 *1185:X 0.000599859
3 *60:10 0.000599859
4 *60:10 *1183:A3 4.78497e-05
5 *60:10 *1183:B1 5.79559e-05
6 *60:10 *1185:A3 5.56356e-05
7 *60:10 *319:30 0.000317927
8 *60:10 *321:8 4.77213e-05
9 *60:10 *321:37 8.65399e-05
*RES
1 *1185:X *60:10 36.1743 
2 *60:10 *1271:D 23 
*END

*D_NET *61 0.00169862
*CONN
*I *1272:D I *D sky130_fd_sc_hd__dfrtp_2
*I *1190:Y O *D sky130_fd_sc_hd__a21oi_1
*CAP
1 *1272:D 0.000689545
2 *1190:Y 3.55839e-05
3 *61:8 0.000725129
4 *1272:D *187:14 2.93747e-05
5 *1272:D *235:27 2.6521e-05
6 *1272:D *322:8 1.76557e-05
7 *61:8 *187:14 8.62876e-05
8 *61:8 *240:23 8.85189e-05
*RES
1 *1190:Y *61:8 39.2014 
2 *61:8 *1272:D 46.7829 
*END

*D_NET *62 0.00181591
*CONN
*I *1273:D I *D sky130_fd_sc_hd__dfrtp_1
*I *1194:X O *D sky130_fd_sc_hd__clkbuf_1
*CAP
1 *1273:D 0
2 *1194:X 0.000311234
3 *62:10 0.000311234
4 *62:10 *208:16 0.000629677
5 *62:10 *311:6 0.000244996
6 *62:10 *323:10 0.000318766
*RES
1 *1194:X *62:10 34.745 
2 *62:10 *1273:D 23 
*END

*D_NET *63 0.0011438
*CONN
*I *1274:D I *D sky130_fd_sc_hd__dfrtp_2
*I *1197:Y O *D sky130_fd_sc_hd__a21oi_1
*CAP
1 *1274:D 0.00011465
2 *1197:Y 0.000325528
3 *63:8 0.000440177
4 *1274:D *1278:RESET_B 5.45541e-05
5 *1274:D *255:85 4.70565e-05
6 *63:8 *1279:RESET_B 0
7 *63:8 *232:14 3.81391e-05
8 *63:8 *255:89 0.000123691
9 *63:8 *334:8 0
*RES
1 *1197:Y *63:8 45.54 
2 *63:8 *1274:D 40.5271 
*END

*D_NET *64 0.000319974
*CONN
*I *1276:D I *D sky130_fd_sc_hd__dfrtp_1
*I *1201:X O *D sky130_fd_sc_hd__clkbuf_1
*CAP
1 *1276:D 0
2 *1201:X 0.000127777
3 *64:10 0.000127777
4 *64:10 *1201:A 3.22879e-05
5 *64:10 *194:8 3.21327e-05
6 *64:10 *330:25 0
*RES
1 *1201:X *64:10 40.175 
2 *64:10 *1276:D 38 
*END

*D_NET *65 0.000510887
*CONN
*I *1277:D I *D sky130_fd_sc_hd__dfrtp_1
*I *1205:X O *D sky130_fd_sc_hd__clkbuf_1
*CAP
1 *1277:D 0.000129101
2 *1205:X 5.63456e-05
3 *65:8 0.000185446
4 *1277:D *1256:RESET_B 5.37068e-05
5 *65:8 *291:23 8.62876e-05
*RES
1 *1205:X *65:8 39.2014 
2 *65:8 *1277:D 40.0714 
*END

*D_NET *66 0.000586292
*CONN
*I *1278:D I *D sky130_fd_sc_hd__dfrtp_1
*I *1209:X O *D sky130_fd_sc_hd__clkbuf_1
*CAP
1 *1278:D 0
2 *1209:X 0.000162619
3 *66:10 0.000162619
4 *66:10 *1208:A1 0.000147656
5 *66:10 *289:10 0.000113398
*RES
1 *1209:X *66:10 41.1279 
2 *66:10 *1278:D 38 
*END

*D_NET *67 0.000517717
*CONN
*I *1279:D I *D sky130_fd_sc_hd__dfrtp_1
*I *1212:X O *D sky130_fd_sc_hd__clkbuf_1
*CAP
1 *1279:D 0
2 *1212:X 0.000226441
3 *67:10 0.000226441
4 *67:10 *1258:RESET_B 0
5 *67:10 *112:31 6.48356e-05
*RES
1 *1212:X *67:10 41.48 
2 *67:10 *1279:D 38 
*END

*D_NET *68 0.000360739
*CONN
*I *1280:D I *D sky130_fd_sc_hd__dfrtp_1
*I *1215:X O *D sky130_fd_sc_hd__clkbuf_1
*CAP
1 *1280:D 0.000158535
2 *1215:X 0.000158535
3 *1280:D *1215:A 1.24376e-05
4 *1280:D *1280:CLK 3.12321e-05
*RES
1 *1215:X *1280:D 48.5479 
*END

*D_NET *69 0.000294987
*CONN
*I *1281:D I *D sky130_fd_sc_hd__dfrtp_1
*I *1218:X O *D sky130_fd_sc_hd__clkbuf_1
*CAP
1 *1281:D 0
2 *1218:X 0.000147494
3 *69:12 0.000147494
4 *69:12 *207:8 0
5 *69:12 *247:10 0
*RES
1 *1218:X *69:12 40.6721 
2 *69:12 *1281:D 38 
*END

*D_NET *70 0.000363801
*CONN
*I *1282:D I *D sky130_fd_sc_hd__dfrtp_1
*I *1221:X O *D sky130_fd_sc_hd__clkbuf_1
*CAP
1 *1282:D 0.000140604
2 *1221:X 0.000140604
3 *1282:D *256:68 8.25925e-05
*RES
1 *1221:X *1282:D 48.5479 
*END

*D_NET *71 0.000309197
*CONN
*I *1283:D I *D sky130_fd_sc_hd__dfrtp_1
*I *1224:X O *D sky130_fd_sc_hd__clkbuf_1
*CAP
1 *1283:D 0.000114815
2 *1224:X 0.000114815
3 *1283:D *1283:CLK 7.9566e-05
*RES
1 *1224:X *1283:D 48.5479 
*END

*D_NET *72 0.000691824
*CONN
*I *1293:D I *D sky130_fd_sc_hd__dfrtp_1
*I *1227:X O *D sky130_fd_sc_hd__o22a_1
*CAP
1 *1293:D 0
2 *1227:X 0.000282253
3 *72:10 0.000282253
4 *72:10 *1293:CLK 0.000127317
*RES
1 *1227:X *72:10 28.5514 
2 *72:10 *1293:D 23 
*END

*D_NET *73 0.000370428
*CONN
*I *1294:D I *D sky130_fd_sc_hd__dfrtp_4
*I *1232:X O *D sky130_fd_sc_hd__o21a_1
*CAP
1 *1294:D 6.94224e-05
2 *1232:X 6.64099e-05
3 *73:8 0.000135832
4 *1294:D *260:50 5.76359e-05
5 *73:8 *237:57 4.11274e-05
*RES
1 *1232:X *73:8 39.2014 
2 *73:8 *1294:D 39.595 
*END

*D_NET *74 0.00039625
*CONN
*I *1295:D I *D sky130_fd_sc_hd__dfrtp_2
*I *1235:Y O *D sky130_fd_sc_hd__a21oi_1
*CAP
1 *1295:D 0.000161074
2 *1235:Y 0.000161074
3 *1295:D *1235:A2 1.37232e-05
4 *1295:D *1235:B1 5.37348e-06
5 *1295:D *1295:CLK 5.50049e-05
*RES
1 *1235:Y *1295:D 49.0243 
*END

*D_NET *75 0.000614045
*CONN
*I *1296:D I *D sky130_fd_sc_hd__dfrtp_1
*I *1237:Y O *D sky130_fd_sc_hd__nor3b_1
*CAP
1 *1296:D 0
2 *1237:Y 0.000163726
3 *75:10 0.000163726
4 *75:10 *1296:CLK 0.000110922
5 *75:10 *115:12 0.000141052
6 *75:10 *263:38 3.46181e-05
*RES
1 *1237:Y *75:10 41.1279 
2 *75:10 *1296:D 38 
*END

*D_NET *76 0.000420921
*CONN
*I *1303:D I *D sky130_fd_sc_hd__dfrtp_1
*I *1239:X O *D sky130_fd_sc_hd__clkbuf_1
*CAP
1 *1303:D 3.16782e-05
2 *1239:X 0.000117776
3 *76:8 0.000149455
4 *1303:D *1303:CLK 2.93845e-05
5 *76:8 *1307:CLK 6.23469e-05
6 *76:8 *233:97 3.02809e-05
*RES
1 *1239:X *76:8 40.61 
2 *76:8 *1303:D 38.6214 
*END

*D_NET *77 0.00131418
*CONN
*I *1304:D I *D sky130_fd_sc_hd__dfrtp_1
*I *1241:X O *D sky130_fd_sc_hd__clkbuf_1
*CAP
1 *1304:D 0
2 *1241:X 0.000345748
3 *77:8 0.000345748
4 *77:8 *1241:A 0.000142577
5 *77:8 *1304:RESET_B 4.93341e-05
6 *77:8 *352:12 5.70007e-05
7 *77:8 *352:25 0.00037377
8 *77:8 *354:12 0
*RES
1 *1241:X *77:8 32.2179 
2 *77:8 *1304:D 23 
*END

*D_NET *78 0.000304332
*CONN
*I *1305:D I *D sky130_fd_sc_hd__dfrtp_1
*I *1243:X O *D sky130_fd_sc_hd__clkbuf_1
*CAP
1 *1305:D 0
2 *1243:X 0.000134344
3 *78:10 0.000134344
4 *78:10 *223:8 3.56433e-05
*RES
1 *1243:X *78:10 40.175 
2 *78:10 *1305:D 38 
*END

*D_NET *79 0.00048738
*CONN
*I *1306:D I *D sky130_fd_sc_hd__dfrtp_1
*I *1245:X O *D sky130_fd_sc_hd__clkbuf_1
*CAP
1 *1306:D 0
2 *1245:X 0.00014608
3 *79:10 0.00014608
4 *79:10 *1306:RESET_B 0
5 *79:10 *224:10 0.000165583
6 *79:10 *234:36 2.96369e-05
*RES
1 *1245:X *79:10 40.8793 
2 *79:10 *1306:D 38 
*END

*D_NET *80 0.000201567
*CONN
*I *1307:D I *D sky130_fd_sc_hd__dfrtp_1
*I *1247:X O *D sky130_fd_sc_hd__clkbuf_1
*CAP
1 *1307:D 0
2 *1247:X 0.000100784
3 *80:8 0.000100784
4 *80:8 *114:102 0
5 *80:8 *239:12 0
*RES
1 *1247:X *80:8 39.9057 
2 *80:8 *1307:D 38 
*END

*D_NET *81 0.00029104
*CONN
*I *1308:D I *D sky130_fd_sc_hd__dfrtp_1
*I *1249:X O *D sky130_fd_sc_hd__clkbuf_1
*CAP
1 *1308:D 0
2 *1249:X 5.37121e-05
3 *81:8 5.37121e-05
4 *81:8 *351:12 4.04496e-05
5 *81:8 *355:18 0.000143166
*RES
1 *1249:X *81:8 39.9057 
2 *81:8 *1308:D 38 
*END

*D_NET *82 0.000516838
*CONN
*I *1309:D I *D sky130_fd_sc_hd__dfrtp_1
*I *1251:X O *D sky130_fd_sc_hd__clkbuf_1
*CAP
1 *1309:D 3.92543e-05
2 *1251:X 0.000181286
3 *82:10 0.00022054
4 *1309:D *1254:CLK 1.83327e-05
5 *82:10 *1307:RESET_B 5.74259e-05
*RES
1 *1251:X *82:10 41.0036 
2 *82:10 *1309:D 38.6214 
*END

*D_NET *83 0.000811005
*CONN
*I *1310:D I *D sky130_fd_sc_hd__dfrtp_1
*I *1253:X O *D sky130_fd_sc_hd__clkbuf_1
*CAP
1 *1310:D 4.01985e-05
2 *1253:X 0.000123233
3 *83:8 0.000163431
4 *83:8 *1240:S 0.000158149
5 *26:18 *83:8 0.000325993
*RES
1 *1253:X *83:8 42.3707 
2 *83:8 *1310:D 38.6214 
*END

*D_NET *84 0.00688734
*CONN
*I *1159:A1 I *D sky130_fd_sc_hd__o31a_1
*I *1057:B I *D sky130_fd_sc_hd__or4_2
*I *1080:A I *D sky130_fd_sc_hd__or3_2
*I *1186:A1 I *D sky130_fd_sc_hd__o31a_2
*I *1053:A I *D sky130_fd_sc_hd__nor3_1
*I *1073:A1 I *D sky130_fd_sc_hd__o31a_1
*I *1050:X O *D sky130_fd_sc_hd__or3b_2
*CAP
1 *1159:A1 3.2572e-05
2 *1057:B 0
3 *1080:A 0
4 *1186:A1 0
5 *1053:A 0
6 *1073:A1 9.13036e-05
7 *1050:X 0.000556252
8 *84:58 0.000338953
9 *84:45 0.000220558
10 *84:37 0.000586391
11 *84:33 0.000395236
12 *84:18 0.000509459
13 *84:16 0.000118191
14 *84:14 0.000657216
15 *1073:A1 *1057:C 9.41704e-05
16 *1073:A1 *1057:D 9.5877e-05
17 *1073:A1 *103:50 2.24608e-05
18 *1159:A1 *103:50 2.93747e-05
19 *84:14 *1050:C_N 2.95526e-05
20 *84:14 *1146:B1 0
21 *84:14 *1163:B 8.36198e-05
22 *84:14 *1163:C 7.8483e-05
23 *84:14 *1163:D 0
24 *84:14 *91:14 0.000136082
25 *84:14 *156:41 4.32581e-05
26 *84:14 *234:90 4.44742e-05
27 *84:14 *316:18 5.98355e-05
28 *84:16 *91:14 0.000166522
29 *84:16 *103:50 3.72639e-05
30 *84:16 *156:41 2.61802e-05
31 *84:18 *91:14 1.14452e-05
32 *84:18 *103:50 3.62323e-05
33 *84:18 *152:8 0
34 *84:18 *335:106 3.62714e-05
35 *84:33 *1168:A2 0.000135707
36 *84:33 *86:27 0.000147895
37 *84:33 *87:20 0.00024105
38 *84:33 *103:50 1.6873e-05
39 *84:33 *155:39 0.000123951
40 *84:33 *156:41 3.53893e-05
41 *84:33 *335:57 2.46399e-05
42 *84:33 *335:89 0.000102579
43 *84:33 *335:106 0.000163449
44 *84:37 *1186:A3 6.12484e-05
45 *84:37 *86:27 1.13812e-05
46 *84:37 *87:20 6.12484e-05
47 *84:45 *1168:B1 0.000183544
48 *84:45 *1186:A3 3.28604e-05
49 *84:45 *85:14 1.39826e-05
50 *84:45 *104:52 0.000110267
51 *84:58 *1168:B1 0.000147344
52 *84:58 *91:43 0.000175352
53 *84:58 *333:37 9.168e-05
54 *84:58 *333:54 0.000279095
55 *84:58 *336:22 0.000190571
*RES
1 *1050:X *84:14 48.3571 
2 *84:14 *84:16 2.25786 
3 *84:16 *84:18 1.3775 
4 *84:18 *1073:A1 40.0404 
5 *84:18 *84:33 11.2375 
6 *84:33 *84:37 15.8493 
7 *84:37 *84:45 33.9564 
8 *84:45 *1053:A 23 
9 *84:37 *84:58 37.6021 
10 *84:58 *1186:A1 23 
11 *84:33 *1080:A 38 
12 *84:16 *1057:B 38 
13 *84:14 *1159:A1 38.6214 
*END

*D_NET *85 0.00337956
*CONN
*I *1186:A2 I *D sky130_fd_sc_hd__o31a_2
*I *1053:B I *D sky130_fd_sc_hd__nor3_1
*I *1080:B I *D sky130_fd_sc_hd__or3_2
*I *1051:Y O *D sky130_fd_sc_hd__nand2_1
*CAP
1 *1186:A2 0
2 *1053:B 0
3 *1080:B 0
4 *1051:Y 8.78727e-05
5 *85:38 0.000281299
6 *85:14 0.000423456
7 *85:6 0.000792627
8 *85:6 *1167:C 0.000145163
9 *85:6 *318:14 1.61385e-05
10 *85:14 *1186:A3 0
11 *85:14 *86:16 9.97754e-05
12 *85:14 *104:52 0.00024189
13 *85:14 *108:8 6.41457e-05
14 *85:14 *108:35 9.00432e-05
15 *85:14 *108:44 9.41704e-05
16 *85:14 *318:8 0
17 *85:38 *1167:C 0.000272915
18 *85:38 *1186:B1 5.50049e-05
19 *85:38 *1386:A 9.41704e-05
20 *85:38 *87:6 0.000230715
21 *85:38 *91:43 0.000140308
22 *85:38 *94:20 0.000166442
23 *85:38 *104:30 1.61361e-05
24 *85:38 *258:60 5.3304e-05
25 *84:45 *85:14 1.39826e-05
*RES
1 *1051:Y *85:6 25.0507 
2 *85:6 *85:14 37.3743 
3 *85:14 *1080:B 23 
4 *85:6 *1053:B 23 
5 *85:6 *85:38 37.9543 
6 *85:38 *1186:A2 23 
*END

*D_NET *86 0.00391827
*CONN
*I *1080:C I *D sky130_fd_sc_hd__or3_2
*I *1186:A3 I *D sky130_fd_sc_hd__o31a_2
*I *1053:C I *D sky130_fd_sc_hd__nor3_1
*I *1052:X O *D sky130_fd_sc_hd__or4bb_1
*CAP
1 *1080:C 7.90934e-05
2 *1186:A3 0.000399119
3 *1053:C 0
4 *1052:X 4.30532e-05
5 *86:27 0.000825118
6 *86:16 0.000256486
7 *86:6 0.000646445
8 *1080:C *1168:B1 0.0001088
9 *1080:C *108:8 1.12796e-05
10 *1080:C *108:44 0.000137533
11 *1186:A3 *1168:A2 1.13812e-05
12 *1186:A3 *87:20 0.000166434
13 *1186:A3 *94:20 4.78516e-05
14 *1186:A3 *258:60 0.000182826
15 *86:6 *183:10 5.5792e-05
16 *86:16 *1167:C 3.81816e-05
17 *86:16 *108:35 0.000113389
18 *86:16 *169:6 5.58003e-05
19 *86:16 *318:14 1.9054e-05
20 *86:27 *1168:A2 0.000147895
21 *86:27 *1184:A1 0.000159782
22 *86:27 *87:20 6.48951e-06
23 *86:27 *183:10 5.3304e-05
24 *84:33 *86:27 0.000147895
25 *84:37 *1186:A3 6.12484e-05
26 *84:37 *86:27 1.13812e-05
27 *84:45 *1186:A3 3.28604e-05
28 *85:14 *1186:A3 0
29 *85:14 *86:16 9.97754e-05
*RES
1 *1052:X *86:6 23.6214 
2 *86:6 *86:16 35.4893 
3 *86:16 *1053:C 23 
4 *86:6 *86:27 20.7379 
5 *86:27 *1186:A3 45.1257 
6 *86:27 *1080:C 40.5686 
*END

*D_NET *87 0.00292004
*CONN
*I *1386:A I *D sky130_fd_sc_hd__clkbuf_2
*I *1184:B1 I *D sky130_fd_sc_hd__a32o_1
*I *1053:Y O *D sky130_fd_sc_hd__nor3_1
*CAP
1 *1386:A 0.000318338
2 *1184:B1 0
3 *1053:Y 0.000158639
4 *87:20 0.000432342
5 *87:6 0.000909318
6 *1386:A *93:137 0
7 *1386:A *104:30 1.17164e-05
8 *87:20 *1168:B1 3.21827e-05
9 *87:20 *1184:A1 0
10 *87:20 *1184:B2 2.64616e-05
11 *87:20 *91:43 0.000148525
12 *87:20 *94:20 5.57593e-05
13 *87:20 *104:52 0
14 *87:20 *335:57 2.66471e-05
15 *1186:A3 *87:20 0.000166434
16 *84:33 *87:20 0.00024105
17 *84:37 *87:20 6.12484e-05
18 *85:38 *1386:A 9.41704e-05
19 *85:38 *87:6 0.000230715
20 *86:27 *87:20 6.48951e-06
*RES
1 *1053:Y *87:6 25.5271 
2 *87:6 *87:20 39.4354 
3 *87:20 *1184:B1 23 
4 *87:6 *1386:A 27.205 
*END

*D_NET *88 0.000369696
*CONN
*I *1057:A I *D sky130_fd_sc_hd__or4_2
*I *1054:Y O *D sky130_fd_sc_hd__inv_2
*CAP
1 *1057:A 0.00012371
2 *1054:Y 0.00012371
3 *1057:A *1054:A 0.000122275
*RES
1 *1054:Y *1057:A 48.5271 
*END

*D_NET *89 0.00169103
*CONN
*I *1159:A2 I *D sky130_fd_sc_hd__o31a_1
*I *1057:C I *D sky130_fd_sc_hd__or4_2
*I *1073:A2 I *D sky130_fd_sc_hd__o31a_1
*I *1055:Y O *D sky130_fd_sc_hd__nand2_1
*CAP
1 *1159:A2 5.33885e-05
2 *1057:C 8.81093e-05
3 *1073:A2 0
4 *1055:Y 0.00010364
5 *89:14 0.000177311
6 *89:6 0.00024623
7 *1057:C *1057:D 4.50413e-05
8 *1057:C *1073:B1 0.00022109
9 *1159:A2 *1159:A3 2.02872e-05
10 *1159:A2 *1159:B1 1.32314e-05
11 *1159:A2 *103:50 1.32314e-05
12 *1159:A2 *316:18 1.40958e-05
13 *89:6 *1159:A3 2.64616e-05
14 *89:6 *1159:B1 5.67058e-05
15 *89:6 *155:28 9.91798e-05
16 *89:6 *316:18 6.70749e-05
17 *89:14 *1055:B 0
18 *89:14 *1159:A3 0.000188424
19 *89:14 *156:41 0.000163361
20 *1073:A1 *1057:C 9.41704e-05
*RES
1 *1055:Y *89:6 26.0036 
2 *89:6 *89:14 32.755 
3 *89:14 *1073:A2 23 
4 *89:14 *1057:C 25.5271 
5 *89:6 *1159:A2 24.0979 
*END

*D_NET *90 0.00275141
*CONN
*I *1159:A3 I *D sky130_fd_sc_hd__o31a_1
*I *1073:A3 I *D sky130_fd_sc_hd__o31a_1
*I *1057:D I *D sky130_fd_sc_hd__or4_2
*I *1056:X O *D sky130_fd_sc_hd__or4bb_1
*CAP
1 *1159:A3 0.000214992
2 *1073:A3 0
3 *1057:D 0.000124389
4 *1056:X 0.000394087
5 *90:12 0.000124389
6 *90:10 0.000609078
7 *1057:D *1073:B1 2.55231e-05
8 *1057:D *103:6 5.50106e-05
9 *1057:D *103:8 9.41704e-05
10 *1057:D *103:18 5.3304e-05
11 *1159:A3 *1055:B 0
12 *1159:A3 *103:50 3.91386e-05
13 *1159:A3 *155:28 0.000155068
14 *1159:A3 *156:41 1.47563e-05
15 *1159:A3 *316:24 0
16 *90:10 *103:31 0.000136486
17 *90:10 *108:35 8.62876e-05
18 *90:10 *155:28 0.000166522
19 *90:10 *156:41 6.21447e-05
20 *90:10 *316:24 0
21 *90:10 *338:27 1.99691e-05
22 *1057:C *1057:D 4.50413e-05
23 *1073:A1 *1057:D 9.5877e-05
24 *1159:A2 *1159:A3 2.02872e-05
25 *89:6 *1159:A3 2.64616e-05
26 *89:14 *1159:A3 0.000188424
*RES
1 *1056:X *90:10 45.25 
2 *90:10 *90:12 15 
3 *90:12 *1057:D 26.0243 
4 *90:12 *1073:A3 23 
5 *90:10 *1159:A3 42.7021 
*END

*D_NET *91 0.00809238
*CONN
*I *1058:B_N I *D sky130_fd_sc_hd__or2b_1
*I *1063:A2 I *D sky130_fd_sc_hd__o21ai_1
*I *1146:A1 I *D sky130_fd_sc_hd__a21oi_1
*I *1057:X O *D sky130_fd_sc_hd__or4_2
*CAP
1 *1058:B_N 0
2 *1063:A2 0
3 *1146:A1 0
4 *1057:X 0
5 *91:68 0.000293303
6 *91:51 0.000751892
7 *91:43 0.00150431
8 *91:33 0.00120138
9 *91:14 0.000516878
10 *91:4 0.00125913
11 *91:14 *1054:A 0.000140259
12 *91:14 *1073:B1 5.50049e-05
13 *91:14 *1146:B1 0.000139346
14 *91:14 *151:41 2.63049e-05
15 *91:14 *152:8 0
16 *91:33 *1054:A 4.08664e-05
17 *91:33 *152:8 0.000431852
18 *91:33 *333:54 0.000216719
19 *91:33 *335:53 1.36433e-05
20 *91:33 *335:89 0
21 *91:43 *1168:B1 0.000135616
22 *91:43 *1186:B1 8.62876e-05
23 *91:43 *94:20 5.22748e-05
24 *91:43 *333:37 1.88972e-05
25 *91:43 *333:54 1.18379e-05
26 *91:43 *336:22 0.000188618
27 *91:51 *94:20 0
28 *91:51 *112:16 4.71722e-05
29 *91:51 *230:62 0
30 *91:51 *232:14 0
31 *91:51 *298:29 0
32 *91:51 *318:8 0
33 *91:68 *1186:B1 4.00259e-06
34 *91:68 *112:16 5.73835e-06
35 *91:68 *184:6 2.93431e-05
36 *91:68 *258:60 5.79559e-05
37 *91:68 *333:22 3.42479e-05
38 *91:68 *333:37 5.12605e-05
39 *84:14 *91:14 0.000136082
40 *84:16 *91:14 0.000166522
41 *84:18 *91:14 1.14452e-05
42 *84:58 *91:43 0.000175352
43 *85:38 *91:43 0.000140308
44 *87:20 *91:43 0.000148525
*RES
1 *1057:X *91:4 23 
2 *91:4 *91:14 38.5964 
3 *91:14 *1146:A1 23 
4 *91:4 *91:33 43.7957 
5 *91:33 *91:43 40.4193 
6 *91:43 *91:51 41.3929 
7 *91:51 *1063:A2 23 
8 *91:43 *91:68 34.7229 
9 *91:68 *1058:B_N 23 
*END

*D_NET *92 0.000863261
*CONN
*I *1060:B1 I *D sky130_fd_sc_hd__a22o_1
*I *1058:X O *D sky130_fd_sc_hd__or2b_1
*CAP
1 *1060:B1 7.05672e-05
2 *1058:X 0.000155646
3 *92:10 0.000226213
4 *1060:B1 *1060:A2 2.93431e-05
5 *1060:B1 *104:30 9.65021e-05
6 *1060:B1 *232:85 1.21972e-05
7 *1060:B1 *254:6 1.47709e-05
8 *92:10 *1085:C 1.46378e-05
9 *92:10 *232:85 0.000110184
10 *92:10 *258:56 8.64543e-05
11 *92:10 *258:60 2.93431e-05
12 *92:10 *307:14 1.7403e-05
*RES
1 *1058:X *92:10 41.2314 
2 *92:10 *1060:B1 39.5743 
*END

*D_NET *93 0.0190414
*CONN
*I *1060:B2 I *D sky130_fd_sc_hd__a22o_1
*I *1063:A1 I *D sky130_fd_sc_hd__o21ai_1
*I *1211:A0 I *D sky130_fd_sc_hd__mux2_1
*I *1208:A0 I *D sky130_fd_sc_hd__mux2_1
*I *1214:A0 I *D sky130_fd_sc_hd__mux2_1
*I *1223:A0 I *D sky130_fd_sc_hd__mux2_1
*I *1220:A0 I *D sky130_fd_sc_hd__mux2_1
*I *1200:A0 I *D sky130_fd_sc_hd__mux2_1
*I *1217:A0 I *D sky130_fd_sc_hd__mux2_1
*I *1204:A0 I *D sky130_fd_sc_hd__mux2_1
*I *1059:X O *D sky130_fd_sc_hd__buf_2
*CAP
1 *1060:B2 0
2 *1063:A1 0.000139182
3 *1211:A0 0
4 *1208:A0 0
5 *1214:A0 2.20512e-05
6 *1223:A0 0
7 *1220:A0 4.22202e-05
8 *1200:A0 0
9 *1217:A0 0
10 *1204:A0 0.000200315
11 *1059:X 0.000168832
12 *93:137 0.00137992
13 *93:107 0.000172424
14 *93:84 0.000621824
15 *93:65 0.0012281
16 *93:57 0.00129129
17 *93:46 4.50565e-05
18 *93:40 0.00132109
19 *93:33 0.00180394
20 *93:18 0.00171025
21 *93:14 0.000869446
22 *93:12 0.00125623
23 *93:8 0.00217913
24 *1063:A1 *1279:RESET_B 4.94192e-05
25 *1063:A1 *202:10 0.000271476
26 *1204:A0 *197:16 5.47808e-05
27 *1204:A0 *291:23 2.30292e-05
28 *1214:A0 *1214:S 5.56356e-05
29 *1220:A0 *208:24 0.000140935
30 *1220:A0 *235:6 5.3304e-05
31 *1220:A0 *235:66 0.000100069
32 *93:8 *1051:A 6.68986e-05
33 *93:8 *169:6 3.95707e-06
34 *93:12 *1268:RESET_B 0
35 *93:12 *258:77 0
36 *93:12 *298:29 9.63815e-05
37 *93:12 *318:8 0.000298974
38 *93:12 *328:8 0
39 *93:14 *203:8 0
40 *93:14 *232:25 0
41 *93:18 *232:27 0
42 *93:18 *280:10 0
43 *93:33 *1260:CLK 0.000132154
44 *93:33 *1260:RESET_B 0.000144484
45 *93:33 *1338:A 7.8257e-05
46 *93:33 *197:16 4.4259e-05
47 *93:33 *232:52 0.000582453
48 *93:40 *232:52 0.000213872
49 *93:46 *194:8 8.62783e-05
50 *93:46 *240:10 4.08537e-05
51 *93:57 *1214:S 5.56279e-05
52 *93:57 *1327:A 0.000185133
53 *93:57 *325:8 0.000135173
54 *93:65 *1214:S 0.000341048
55 *93:65 *208:24 0.000267146
56 *93:65 *235:10 3.43144e-05
57 *93:84 *1223:A1 2.93335e-05
58 *93:84 *1273:RESET_B 0
59 *93:84 *208:24 2.51382e-05
60 *93:84 *209:8 0.000163858
61 *93:84 *210:10 1.59071e-05
62 *93:84 *230:77 0.000112446
63 *93:84 *235:10 0.000215582
64 *93:84 *235:21 0.000117951
65 *93:84 *235:27 0
66 *93:107 *1279:RESET_B 6.43701e-05
67 *93:137 *1060:A2 2.64681e-06
68 *93:137 *1085:C 2.05503e-05
69 *93:137 *104:30 1.83327e-05
70 *93:137 *254:6 5.79559e-05
71 *93:137 *318:8 4.81894e-05
72 *1386:A *93:137 0
73 *37:10 *1063:A1 0.00014196
74 *37:10 *93:12 0
75 *37:10 *93:14 0
76 *49:10 *93:18 0
*RES
1 *1059:X *93:8 40.5271 
2 *93:8 *93:12 11.6829 
3 *93:12 *93:14 10.7093 
4 *93:14 *93:18 19.0186 
5 *93:18 *1204:A0 26.0036 
6 *93:18 *93:33 20.8179 
7 *93:33 *1217:A0 23 
8 *93:33 *93:40 7.76786 
9 *93:40 *93:46 31.2014 
10 *93:46 *1200:A0 23 
11 *93:40 *93:57 11.6207 
12 *93:57 *93:65 27.18 
13 *93:65 *1220:A0 39.5743 
14 *93:65 *93:84 27.5736 
15 *93:84 *1223:A0 23 
16 *93:57 *1214:A0 23.6214 
17 *93:14 *1208:A0 38 
18 *93:12 *93:107 15.8493 
19 *93:107 *1211:A0 23 
20 *93:107 *1063:A1 27.4329 
21 *93:8 *93:137 36.1087 
22 *93:137 *1060:B2 23 
*END

*D_NET *94 0.00250789
*CONN
*I *1062:B1 I *D sky130_fd_sc_hd__a41o_1
*I *1167:B I *D sky130_fd_sc_hd__and4b_1
*I *1061:Y O *D sky130_fd_sc_hd__inv_2
*CAP
1 *1062:B1 0
2 *1167:B 0
3 *1061:Y 9.5283e-05
4 *94:31 9.6058e-05
5 *94:20 0.000624161
6 *94:6 0.000815502
7 *94:6 *192:14 0.000104475
8 *94:20 *1186:B1 0
9 *94:20 *192:14 0.000147848
10 *94:20 *230:62 0.000171941
11 *94:20 *232:14 1.19692e-05
12 *94:20 *232:85 4.79544e-05
13 *94:20 *334:10 0
14 *94:31 *334:8 7.03663e-05
15 *1186:A3 *94:20 4.78516e-05
16 *85:38 *94:20 0.000166442
17 *87:20 *94:20 5.57593e-05
18 *91:43 *94:20 5.22748e-05
19 *91:51 *94:20 0
*RES
1 *1061:Y *94:6 24.5743 
2 *94:6 *94:20 42.7393 
3 *94:20 *1167:B 23 
4 *94:6 *94:31 31.9057 
5 *94:31 *1062:B1 23 
*END

*D_NET *95 0.000810958
*CONN
*I *1197:A1 I *D sky130_fd_sc_hd__a21oi_1
*I *1063:B1 I *D sky130_fd_sc_hd__o21ai_1
*I *1062:X O *D sky130_fd_sc_hd__a41o_1
*CAP
1 *1197:A1 1.75705e-05
2 *1063:B1 0.000107741
3 *1062:X 3.95808e-05
4 *95:6 0.000164892
5 *1063:B1 *1197:B1 4.06849e-05
6 *1063:B1 *202:10 0.000331345
7 *1197:A1 *1197:A2 1.14154e-05
8 *95:6 *1197:B1 5.37348e-06
9 *95:6 *202:10 8.52481e-05
10 *37:10 *1063:B1 7.10644e-06
*RES
1 *1062:X *95:6 24.0979 
2 *95:6 *1063:B1 26.9979 
3 *95:6 *1197:A1 23.4971 
*END

*D_NET *96 0.00358769
*CONN
*I *1066:B I *D sky130_fd_sc_hd__and3_1
*I *1230:A3 I *D sky130_fd_sc_hd__a41o_1
*I *1228:C I *D sky130_fd_sc_hd__and4_1
*I *1064:X O *D sky130_fd_sc_hd__and4bb_1
*CAP
1 *1066:B 2.00578e-05
2 *1230:A3 5.67313e-05
3 *1228:C 0.00020976
4 *1064:X 0
5 *96:16 0.000420804
6 *96:14 0.00107371
7 *96:6 0.000899338
8 *1228:C *1228:D 0.000185199
9 *1228:C *216:10 0.000228001
10 *1230:A3 *1228:D 0.000104392
11 *1230:A3 *1230:A4 4.00259e-06
12 *96:14 *97:14 4.22759e-05
13 *96:14 *97:18 3.10399e-06
14 *96:14 *98:8 6.07611e-06
15 *96:14 *99:120 0
16 *96:14 *119:18 0
17 *96:14 *119:35 8.30555e-05
18 *96:14 *128:8 0
19 *96:14 *229:10 0
20 *96:14 *339:44 0
21 *96:16 *1228:D 1.76557e-05
22 *96:16 *97:18 1.66123e-05
23 *96:16 *339:44 1.59094e-05
24 *3:17 *96:14 0.000115261
25 *28:8 *96:14 8.57485e-05
*RES
1 *1064:X *96:6 38 
2 *96:6 *96:14 31.7786 
3 *96:14 *96:16 3.00357 
4 *96:16 *1228:C 28.2821 
5 *96:16 *1230:A3 24.9471 
6 *96:14 *1066:B 23.4971 
*END

*D_NET *97 0.00446769
*CONN
*I *1066:C I *D sky130_fd_sc_hd__and3_1
*I *1230:A4 I *D sky130_fd_sc_hd__a41o_1
*I *1228:D I *D sky130_fd_sc_hd__and4_1
*I *1065:X O *D sky130_fd_sc_hd__and4bb_1
*CAP
1 *1066:C 0
2 *1230:A4 6.33775e-06
3 *1228:D 0.000278672
4 *1065:X 0.000306852
5 *97:18 0.000430866
6 *97:14 0.000896419
7 *97:10 0.00105742
8 *1228:D *1228:B 0.000260475
9 *1228:D *216:10 1.32939e-05
10 *1230:A4 *339:44 2.02517e-05
11 *97:10 *1065:B_N 1.358e-05
12 *97:10 *1123:A 9.76057e-05
13 *97:10 *139:10 3.54728e-05
14 *97:10 *346:54 0.00019353
15 *97:14 *1125:A 4.08664e-05
16 *97:14 *1125:C 0.000125476
17 *97:14 *1292:CLK 3.12273e-05
18 *97:14 *120:6 0.000226899
19 *97:18 *339:44 5.92108e-05
20 *1228:C *1228:D 0.000185199
21 *1230:A3 *1228:D 0.000104392
22 *1230:A3 *1230:A4 4.00259e-06
23 *96:14 *97:14 4.22759e-05
24 *96:14 *97:18 3.10399e-06
25 *96:16 *1228:D 1.76557e-05
26 *96:16 *97:18 1.66123e-05
*RES
1 *1065:X *97:10 43.4893 
2 *97:10 *97:14 25.4918 
3 *97:14 *97:18 2.20607 
4 *97:18 *1228:D 31.12 
5 *97:18 *1230:A4 23.4971 
6 *97:14 *1066:C 23 
*END

*D_NET *98 0.000255392
*CONN
*I *1067:A I *D sky130_fd_sc_hd__buf_2
*I *1066:X O *D sky130_fd_sc_hd__and3_1
*CAP
1 *1067:A 0
2 *1066:X 0.000124658
3 *98:8 0.000124658
4 *98:8 *99:120 0
5 *98:8 *229:10 0
6 *96:14 *98:8 6.07611e-06
*RES
1 *1066:X *98:8 40.2579 
2 *98:8 *1067:A 38 
*END

*D_NET *99 0.0109944
*CONN
*I *1121:C1 I *D sky130_fd_sc_hd__a211o_1
*I *1072:A2 I *D sky130_fd_sc_hd__a22o_1
*I *1097:A I *D sky130_fd_sc_hd__nor2_1
*I *1071:A I *D sky130_fd_sc_hd__nand2_1
*I *1089:A2 I *D sky130_fd_sc_hd__o21ai_1
*I *1069:A2 I *D sky130_fd_sc_hd__a21bo_1
*I *1226:A2 I *D sky130_fd_sc_hd__a21boi_1
*I *1079:A2 I *D sky130_fd_sc_hd__o21bai_1
*I *1078:B I *D sky130_fd_sc_hd__and3_1
*I *1067:X O *D sky130_fd_sc_hd__buf_2
*CAP
1 *1121:C1 0.000272163
2 *1072:A2 0
3 *1097:A 0
4 *1071:A 0
5 *1089:A2 0
6 *1069:A2 0
7 *1226:A2 0.000167343
8 *1079:A2 0.000133021
9 *1078:B 0.000436368
10 *1067:X 0.000127855
11 *99:120 0.000221215
12 *99:114 0.000668731
13 *99:95 0.00014448
14 *99:89 0.000478444
15 *99:79 0.000621954
16 *99:53 0.000685216
17 *99:47 0.000994663
18 *99:30 0.000878511
19 *99:22 0.000468849
20 *99:10 0.000523881
21 *99:8 0.000127855
22 *1078:B *1078:A 0
23 *1078:B *107:8 0
24 *1078:B *107:31 0
25 *1078:B *215:10 0.000213551
26 *1078:B *262:50 0.000272377
27 *1079:A2 *1079:A1 5.82853e-05
28 *1079:A2 *107:31 2.95423e-05
29 *1121:C1 *1121:A1 7.86509e-06
30 *1121:C1 *1121:B1 0.000195997
31 *1226:A2 *1079:A1 8.14696e-05
32 *1226:A2 *1226:A1 7.48505e-05
33 *1226:A2 *100:8 6.51997e-06
34 *1226:A2 *238:116 1.7403e-05
35 *1226:A2 *305:18 0.000141347
36 *99:8 *1072:A1 2.89256e-05
37 *99:8 *229:10 0
38 *99:22 *1072:A1 0
39 *99:22 *1072:B1 0.000228903
40 *99:22 *229:10 0.000166513
41 *99:22 *262:50 0.000198497
42 *99:30 *1071:B 6.68617e-05
43 *99:30 *1078:A 1.24376e-05
44 *99:30 *215:10 8.4047e-05
45 *99:30 *229:10 0
46 *99:30 *262:50 2.18409e-05
47 *99:30 *360:56 0.000114083
48 *99:47 *107:31 0
49 *99:47 *118:10 0
50 *99:47 *229:10 0
51 *99:47 *273:24 0.000257482
52 *99:53 *1079:A1 4.41821e-06
53 *99:79 *114:127 2.95423e-05
54 *99:89 *114:127 8.57577e-05
55 *99:89 *273:16 0.000297681
56 *99:89 *309:8 0.000453646
57 *99:89 *362:16 5.45541e-05
58 *99:95 *238:86 0.00024503
59 *99:95 *362:16 6.58399e-05
60 *99:114 *1072:A1 1.70513e-05
61 *99:114 *1072:B1 0.000191271
62 *99:114 *1121:B1 1.4345e-05
63 *99:120 *1072:A1 1.19796e-05
64 *99:120 *119:12 0.000104051
65 *99:120 *119:14 0.000108569
66 *99:120 *119:18 6.07611e-06
67 *42:12 *99:79 1.32939e-05
68 *43:10 *1079:A2 6.19869e-05
69 *96:14 *99:120 0
70 *98:8 *99:120 0
*RES
1 *1067:X *99:8 40.61 
2 *99:8 *99:10 15 
3 *99:10 *99:22 37.8093 
4 *99:22 *99:30 18.2004 
5 *99:30 *1078:B 45.5918 
6 *99:30 *99:47 22.0118 
7 *99:47 *99:53 20.2614 
8 *99:53 *1079:A2 41.5214 
9 *99:53 *1226:A2 42.1843 
10 *99:47 *99:79 3.48 
11 *99:79 *99:89 39.4664 
12 *99:89 *99:95 33.3143 
13 *99:95 *1069:A2 23 
14 *99:79 *1089:A2 23 
15 *99:22 *1071:A 23 
16 *99:10 *99:114 3.85286 
17 *99:114 *99:120 35.7793 
18 *99:120 *1097:A 23 
19 *99:114 *1072:A2 23 
20 *99:114 *1121:C1 28.5721 
*END

*D_NET *100 0.00292898
*CONN
*I *1069:B1_N I *D sky130_fd_sc_hd__a21bo_1
*I *1226:A1 I *D sky130_fd_sc_hd__a21boi_1
*I *1068:X O *D sky130_fd_sc_hd__or2b_1
*CAP
1 *1069:B1_N 0.000718411
2 *1226:A1 0.000241993
3 *1068:X 0.000164615
4 *100:10 0.000960403
5 *100:8 0.000164615
6 *1069:B1_N *1314:RESET_B 2.57362e-05
7 *1069:B1_N *238:116 1.24376e-05
8 *1069:B1_N *305:18 1.32385e-05
9 *1069:B1_N *309:33 0.000207005
10 *1069:B1_N *362:6 3.71887e-05
11 *1226:A1 *238:116 5.5792e-05
12 *1226:A1 *305:18 2.60063e-05
13 *1226:A1 *309:33 2.50118e-05
14 *100:8 *238:116 0.000187098
15 *100:8 *359:19 0
16 *1226:A2 *1226:A1 7.48505e-05
17 *1226:A2 *100:8 6.51997e-06
18 *43:10 *100:8 8.0612e-06
*RES
1 *1068:X *100:8 40.9621 
2 *100:8 *100:10 15 
3 *100:10 *1226:A1 26.48 
4 *100:10 *1069:B1_N 33.15 
*END

*D_NET *101 0.00110825
*CONN
*I *1071:B I *D sky130_fd_sc_hd__nand2_1
*I *1078:C I *D sky130_fd_sc_hd__and3_1
*I *1070:X O *D sky130_fd_sc_hd__and3_1
*CAP
1 *1071:B 0.000269759
2 *1078:C 0
3 *1070:X 0.000137021
4 *101:6 0.000406779
5 *1071:B *1078:A 8.46337e-05
6 *1071:B *262:50 2.62989e-05
7 *101:6 *1237:A 9.58714e-05
8 *101:6 *262:50 2.10245e-05
9 *99:30 *1071:B 6.68617e-05
*RES
1 *1070:X *101:6 24.9161 
2 *101:6 *1078:C 23 
3 *101:6 *1071:B 27.4639 
*END

*D_NET *102 0.00162007
*CONN
*I *1072:B1 I *D sky130_fd_sc_hd__a22o_1
*I *1071:Y O *D sky130_fd_sc_hd__nand2_1
*CAP
1 *1072:B1 0.000335368
2 *1071:Y 4.11681e-05
3 *102:8 0.000376536
4 *1072:B1 *1072:A1 2.93431e-05
5 *1072:B1 *1072:B2 5.67058e-05
6 *1072:B1 *1345:A 0.000183733
7 *102:8 *215:10 8.85189e-05
8 *102:8 *360:10 8.85189e-05
9 *99:22 *1072:B1 0.000228903
10 *99:114 *1072:B1 0.000191271
*RES
1 *1071:Y *102:8 39.2014 
2 *102:8 *1072:B1 46.6379 
*END

*D_NET *103 0.00512994
*CONN
*I *1075:A I *D sky130_fd_sc_hd__or2b_1
*I *1158:A1 I *D sky130_fd_sc_hd__o21bai_1
*I *1151:B1 I *D sky130_fd_sc_hd__a21o_1
*I *1177:A1 I *D sky130_fd_sc_hd__o22a_1
*I *1073:X O *D sky130_fd_sc_hd__o31a_1
*CAP
1 *1075:A 0
2 *1158:A1 1.96933e-05
3 *1151:B1 0
4 *1177:A1 0
5 *1073:X 3.18133e-05
6 *103:65 0.000154664
7 *103:50 0.000888943
8 *103:31 9.72499e-05
9 *103:18 0.000592783
10 *103:8 0.000766004
11 *103:6 0.00082237
12 *103:18 *1073:B1 8.06804e-06
13 *103:18 *157:23 8.33365e-05
14 *103:18 *316:24 0
15 *103:31 *108:35 1.32314e-05
16 *103:31 *155:28 5.3304e-05
17 *103:31 *156:41 0.000136486
18 *103:50 *1158:A2 0.000144501
19 *103:50 *1158:B1_N 0.000231039
20 *103:50 *1160:A 2.93747e-05
21 *103:50 *1160:B 2.93845e-05
22 *103:50 *156:41 0.00021039
23 *103:65 *104:81 0.000141879
24 *103:65 *151:29 0.000141879
25 *1057:D *103:6 5.50106e-05
26 *1057:D *103:8 9.41704e-05
27 *1057:D *103:18 5.3304e-05
28 *1073:A1 *103:50 2.24608e-05
29 *1159:A1 *103:50 2.93747e-05
30 *1159:A2 *103:50 1.32314e-05
31 *1159:A3 *103:50 3.91386e-05
32 *84:16 *103:50 3.72639e-05
33 *84:18 *103:50 3.62323e-05
34 *84:33 *103:50 1.6873e-05
35 *90:10 *103:31 0.000136486
*RES
1 *1073:X *103:6 23.6214 
2 *103:6 *103:8 1.09786 
3 *103:8 *103:18 39.0729 
4 *103:18 *1177:A1 23 
5 *103:8 *103:31 32.5271 
6 *103:31 *1151:B1 23 
7 *103:6 *103:50 44.2514 
8 *103:50 *1158:A1 23.4971 
9 *103:50 *103:65 33.48 
10 *103:65 *1075:A 23 
*END

*D_NET *104 0.0113141
*CONN
*I *1157:A1 I *D sky130_fd_sc_hd__o211a_1
*I *1153:A2 I *D sky130_fd_sc_hd__a32o_1
*I *1075:B_N I *D sky130_fd_sc_hd__or2b_1
*I *1167:D I *D sky130_fd_sc_hd__and4b_1
*I *1184:A2 I *D sky130_fd_sc_hd__a32o_1
*I *1074:X O *D sky130_fd_sc_hd__or2b_2
*CAP
1 *1157:A1 3.58108e-05
2 *1153:A2 0.000436944
3 *1075:B_N 0
4 *1167:D 0
5 *1184:A2 0
6 *1074:X 0.000120913
7 *104:81 0.00144083
8 *104:64 0.00115497
9 *104:52 0.000540621
10 *104:30 0.00117915
11 *104:24 0.00127802
12 *104:10 0.000947305
13 *1153:A2 *1156:A3 7.53303e-06
14 *1153:A2 *1156:B1 0.000330609
15 *1153:A2 *1157:B1 3.31122e-05
16 *1153:A2 *156:41 5.5792e-05
17 *1153:A2 *314:55 0.00010964
18 *1157:A1 *1157:B1 5.47983e-06
19 *104:10 *1145:A2 0.000316594
20 *104:10 *338:38 0.000100069
21 *104:10 *338:51 0.000130971
22 *104:24 *1085:C 3.33905e-05
23 *104:24 *112:14 1.0092e-05
24 *104:24 *151:8 7.63295e-05
25 *104:24 *151:29 3.59593e-05
26 *104:24 *155:10 0.000191429
27 *104:24 *307:14 8.36198e-05
28 *104:24 *334:48 0
29 *104:24 *335:53 0.000145851
30 *104:24 *338:51 0.000107249
31 *104:30 *1167:C 1.55117e-05
32 *104:30 *254:6 2.92496e-05
33 *104:52 *1167:C 9.90649e-05
34 *104:52 *1168:A2 4.76974e-05
35 *104:52 *1184:A1 3.96824e-05
36 *104:52 *1184:A3 4.70806e-05
37 *104:52 *108:35 0.000107806
38 *104:52 *169:6 9.66668e-05
39 *104:64 *151:29 0.000183898
40 *104:81 *1157:B1 1.35714e-05
41 *104:81 *1158:B1_N 6.53525e-05
42 *104:81 *151:29 0.000482634
43 *104:81 *151:89 0
44 *104:81 *151:93 0
45 *104:81 *159:10 3.06987e-05
46 *104:81 *165:12 7.34394e-06
47 *104:81 *250:30 0
48 *104:81 *268:19 0.000216712
49 *104:81 *315:10 6.30285e-06
50 *104:81 *315:51 3.75641e-05
51 *1060:B1 *104:30 9.65021e-05
52 *1386:A *104:30 1.17164e-05
53 *53:10 *1153:A2 0.000147656
54 *54:6 *104:81 9.46363e-05
55 *84:45 *104:52 0.000110267
56 *85:14 *104:52 0.00024189
57 *85:38 *104:30 1.61361e-05
58 *87:20 *104:52 0
59 *93:137 *104:30 1.83327e-05
60 *103:65 *104:81 0.000141879
*RES
1 *1074:X *104:10 41.9771 
2 *104:10 *104:24 42.5114 
3 *104:24 *104:30 22.918 
4 *104:30 *104:52 41.2012 
5 *104:52 *1184:A2 23 
6 *104:30 *1167:D 23 
7 *104:10 *104:64 4.72286 
8 *104:64 *1075:B_N 38 
9 *104:64 *104:81 35.4864 
10 *104:81 *1153:A2 31.41 
11 *104:81 *1157:A1 23.8493 
*END

*D_NET *105 0.000435636
*CONN
*I *1076:A I *D sky130_fd_sc_hd__clkbuf_1
*I *1075:X O *D sky130_fd_sc_hd__or2b_1
*CAP
1 *1076:A 8.8805e-05
2 *1075:X 4.63418e-05
3 *105:8 0.000135147
4 *1076:A *259:10 3.34831e-05
5 *105:8 *250:30 8.85189e-05
6 *105:8 *259:12 4.334e-05
*RES
1 *1075:X *105:8 39.2014 
2 *105:8 *1076:A 39.9471 
*END

*D_NET *106 0.00126121
*CONN
*I *1227:B2 I *D sky130_fd_sc_hd__o22a_1
*I *1079:A1 I *D sky130_fd_sc_hd__o21bai_1
*I *1077:Y O *D sky130_fd_sc_hd__inv_2
*CAP
1 *1227:B2 9.53055e-05
2 *1079:A1 0.000217892
3 *1077:Y 8.05161e-05
4 *106:8 0.000393713
5 *1079:A1 *213:10 3.46013e-05
6 *1227:B2 *212:10 2.08324e-05
7 *1227:B2 *213:10 0.000166318
8 *106:8 *213:10 5.3304e-05
9 *106:8 *305:18 2.50118e-05
10 *1079:A2 *1079:A1 5.82853e-05
11 *1226:A2 *1079:A1 8.14696e-05
12 *43:10 *1079:A1 2.95423e-05
13 *99:53 *1079:A1 4.41821e-06
*RES
1 *1077:Y *106:8 39.0979 
2 *106:8 *1079:A1 42.2879 
3 *106:8 *1227:B2 40.2579 
*END

*D_NET *107 0.00342681
*CONN
*I *1079:B1_N I *D sky130_fd_sc_hd__o21bai_1
*I *1237:A I *D sky130_fd_sc_hd__nor3b_1
*I *1078:X O *D sky130_fd_sc_hd__and3_1
*CAP
1 *1079:B1_N 0
2 *1237:A 0.00047071
3 *1078:X 7.42037e-05
4 *107:31 0.00069878
5 *107:8 0.00124369
6 *1237:A *1070:A 5.40337e-05
7 *1237:A *1070:C 7.86962e-05
8 *1237:A *1236:A1 1.46205e-05
9 *1237:A *1237:C_N 0.000145238
10 *1237:A *115:12 0.000214072
11 *1237:A *215:37 2.4754e-05
12 *1237:A *262:50 1.59094e-05
13 *1237:A *348:53 1.08287e-05
14 *1237:A *348:65 3.61029e-05
15 *107:8 *262:50 9.03784e-05
16 *107:31 *118:10 0
17 *107:31 *262:50 0.000125413
18 *1078:B *107:8 0
19 *1078:B *107:31 0
20 *1079:A2 *107:31 2.95423e-05
21 *43:10 *107:31 3.95707e-06
22 *99:47 *107:31 0
23 *101:6 *1237:A 9.58714e-05
*RES
1 *1078:X *107:8 39.5536 
2 *107:8 *1237:A 47.8807 
3 *107:8 *107:31 27.0557 
4 *107:31 *1079:B1_N 23 
*END

*D_NET *108 0.00857315
*CONN
*I *1084:A2 I *D sky130_fd_sc_hd__a22o_1
*I *1083:B I *D sky130_fd_sc_hd__nor3_1
*I *1151:A1 I *D sky130_fd_sc_hd__a21o_1
*I *1168:A1 I *D sky130_fd_sc_hd__a21o_1
*I *1080:X O *D sky130_fd_sc_hd__or3_2
*CAP
1 *1084:A2 0.000207857
2 *1083:B 0.000156799
3 *1151:A1 0
4 *1168:A1 1.78761e-05
5 *1080:X 0
6 *108:44 0.00142138
7 *108:35 0.000581153
8 *108:8 0.000649997
9 *108:4 0.00110769
10 *1083:B *1198:C 6.00824e-05
11 *1083:B *1302:RESET_B 6.12392e-05
12 *1083:B *1326:A 1.41891e-05
13 *1083:B *111:8 0.000193024
14 *1083:B *240:23 2.2385e-05
15 *1084:A2 *1084:B1 0.000377197
16 *1084:A2 *1302:RESET_B 0.000110267
17 *1084:A2 *111:8 0.000100175
18 *1084:A2 *112:80 2.33679e-05
19 *1084:A2 *335:37 0.000312462
20 *1168:A1 *1168:B1 5.55743e-06
21 *108:8 *1168:B1 7.95762e-05
22 *108:35 *1168:B1 2.69681e-05
23 *108:35 *1184:A3 0.000278671
24 *108:35 *155:28 2.18409e-05
25 *108:35 *155:35 1.14154e-05
26 *108:35 *156:41 7.70737e-05
27 *108:35 *316:24 2.52264e-05
28 *108:44 *1168:B1 7.30224e-05
29 *108:44 *112:86 0.000223077
30 *108:44 *155:10 9.88259e-05
31 *108:44 *336:6 0.000231542
32 *108:44 *336:8 0.000232049
33 *108:44 *336:12 0.000486963
34 *108:44 *336:22 0.000301036
35 *1080:C *108:8 1.12796e-05
36 *1080:C *108:44 0.000137533
37 *1302:D *108:44 0.000265277
38 *85:14 *108:8 6.41457e-05
39 *85:14 *108:35 9.00432e-05
40 *85:14 *108:44 9.41704e-05
41 *86:16 *108:35 0.000113389
42 *90:10 *108:35 8.62876e-05
43 *103:31 *108:35 1.32314e-05
44 *104:52 *108:35 0.000107806
*RES
1 *1080:X *108:4 23 
2 *108:4 *108:8 2.07143 
3 *108:8 *1168:A1 23.4971 
4 *108:8 *108:35 42.47 
5 *108:35 *1151:A1 23 
6 *108:4 *108:44 37.5371 
7 *108:44 *1083:B 41.3143 
8 *108:44 *1084:A2 44.7114 
*END

*D_NET *109 0.0078289
*CONN
*I *1213:A I *D sky130_fd_sc_hd__or4_1
*I *1083:A I *D sky130_fd_sc_hd__nor3_1
*I *1222:A I *D sky130_fd_sc_hd__or4_1
*I *1196:B1 I *D sky130_fd_sc_hd__o31a_1
*I *1219:A I *D sky130_fd_sc_hd__or4_1
*I *1216:A I *D sky130_fd_sc_hd__or4_1
*I *1081:Y O *D sky130_fd_sc_hd__inv_2
*CAP
1 *1213:A 0.000217055
2 *1083:A 0
3 *1222:A 0
4 *1196:B1 2.32701e-05
5 *1219:A 4.24639e-05
6 *1216:A 0.000209278
7 *1081:Y 0
8 *109:66 0.000216935
9 *109:51 0.000805689
10 *109:32 0.00084525
11 *109:21 0.000340917
12 *109:8 0.000473477
13 *109:4 0.000416027
14 *1196:B1 *1189:A2 5.3304e-05
15 *1196:B1 *1196:A3 5.3304e-05
16 *1213:A *184:51 0.000186032
17 *1216:A *1203:B 5.37348e-06
18 *1216:A *184:26 0.000102971
19 *1216:A *193:40 2.45092e-05
20 *1216:A *193:52 0.000391923
21 *1216:A *250:24 0.000266408
22 *1219:A *322:32 2.64616e-05
23 *109:8 *1207:B 5.3304e-05
24 *109:8 *184:51 0.000115813
25 *109:21 *1210:C 7.73447e-05
26 *109:21 *193:40 8.57577e-05
27 *109:21 *250:24 0.00015301
28 *109:32 *1192:A 6.7177e-06
29 *109:32 *1210:C 0.000404309
30 *109:32 *110:33 7.45175e-05
31 *109:32 *250:24 0.000598617
32 *109:32 *334:78 6.7177e-06
33 *109:51 *1222:D 2.64616e-05
34 *109:51 *110:33 2.05664e-05
35 *109:51 *110:55 8.78363e-05
36 *109:51 *184:96 0.000166062
37 *109:51 *250:24 0.000158011
38 *109:51 *308:10 7.24484e-05
39 *109:51 *334:78 0.00021448
40 *109:66 *1198:C 7.50355e-05
41 *109:66 *110:55 3.7122e-06
42 *109:66 *110:70 0.000247435
43 *109:66 *210:10 6.17437e-06
44 *109:66 *240:23 0.000208752
45 *109:66 *258:46 0.000230723
46 *109:66 *311:12 3.44448e-05
*RES
1 *1081:Y *109:4 23 
2 *109:4 *109:8 18.0036 
3 *109:8 *1216:A 44.1936 
4 *109:8 *109:21 2.25786 
5 *109:21 *1219:A 38.6214 
6 *109:21 *109:32 8.24429 
7 *109:32 *1196:B1 38.6214 
8 *109:32 *109:51 27.4079 
9 *109:51 *1222:A 23 
10 *109:51 *109:66 36.5871 
11 *109:66 *1083:A 23 
12 *109:4 *1213:A 27.35 
*END

*D_NET *110 0.00587032
*CONN
*I *1083:C I *D sky130_fd_sc_hd__nor3_1
*I *1222:B I *D sky130_fd_sc_hd__or4_1
*I *1192:B I *D sky130_fd_sc_hd__and3_1
*I *1196:A1 I *D sky130_fd_sc_hd__o31a_1
*I *1210:B I *D sky130_fd_sc_hd__or4_1
*I *1082:Y O *D sky130_fd_sc_hd__nand2_1
*CAP
1 *1083:C 0
2 *1222:B 0
3 *1192:B 5.13684e-05
4 *1196:A1 0
5 *1210:B 0.00027036
6 *1082:Y 0.000158607
7 *110:70 0.000174626
8 *110:55 0.000875989
9 *110:33 0.000366667
10 *110:14 0.000779016
11 *110:12 0.000193358
12 *110:10 0.000859971
13 *1192:B *1192:C 2.45549e-06
14 *1192:B *322:82 2.92911e-06
15 *1210:B *1210:C 0.000139754
16 *1210:B *322:82 2.92911e-06
17 *110:10 *1192:C 8.4047e-05
18 *110:10 *1210:C 0
19 *110:10 *323:20 1.59094e-05
20 *110:10 *323:24 1.94693e-05
21 *110:14 *1192:A 3.06338e-05
22 *110:14 *322:82 7.40624e-06
23 *110:33 *1189:A1 0
24 *110:33 *1189:A2 2.98648e-05
25 *110:33 *1192:A 0.000110913
26 *110:33 *1196:A3 0.000158696
27 *110:33 *1210:C 6.25829e-05
28 *110:55 *1192:A 3.88504e-05
29 *110:55 *1192:C 0.000120405
30 *110:55 *1320:A 0
31 *110:55 *184:102 2.87373e-05
32 *110:55 *185:8 0.000163361
33 *110:55 *250:24 0
34 *110:55 *308:10 1.01436e-05
35 *110:55 *333:14 0.000267951
36 *110:55 *334:78 7.64567e-05
37 *110:70 *1198:C 0.000141355
38 *110:70 *240:23 1.16455e-05
39 *110:70 *258:46 2.02872e-05
40 *110:70 *311:12 0.000159508
41 *109:32 *110:33 7.45175e-05
42 *109:51 *110:33 2.05664e-05
43 *109:51 *110:55 8.78363e-05
44 *109:66 *110:55 3.7122e-06
45 *109:66 *110:70 0.000247435
*RES
1 *1082:Y *110:10 40.2993 
2 *110:10 *110:12 15 
3 *110:12 *110:14 2.05071 
4 *110:14 *1210:B 26.48 
5 *110:14 *110:33 36.96 
6 *110:33 *1196:A1 23 
7 *110:12 *1192:B 23.6214 
8 *110:10 *110:55 29.1271 
9 *110:55 *1222:B 23 
10 *110:55 *110:70 34.4536 
11 *110:70 *1083:C 23 
*END

*D_NET *111 0.00185298
*CONN
*I *1084:B1 I *D sky130_fd_sc_hd__a22o_1
*I *1083:Y O *D sky130_fd_sc_hd__nor3_1
*CAP
1 *1084:B1 0.000228231
2 *1083:Y 0.000122142
3 *111:8 0.000350373
4 *1084:B1 *1084:A1 3.24148e-05
5 *1084:B1 *112:80 1.12268e-05
6 *1084:B1 *335:43 0.000144996
7 *111:8 *240:23 0.000293199
8 *1083:B *111:8 0.000193024
9 *1084:A2 *1084:B1 0.000377197
10 *1084:A2 *111:8 0.000100175
*RES
1 *1083:Y *111:8 42.0186 
2 *111:8 *1084:B1 43.7793 
*END

*D_NET *112 0.0276438
*CONN
*I *1086:A I *D sky130_fd_sc_hd__inv_2
*I *1139:S I *D sky130_fd_sc_hd__mux2_1
*I *1135:S I *D sky130_fd_sc_hd__mux2_1
*I *1127:S I *D sky130_fd_sc_hd__mux2_1
*I *1141:S I *D sky130_fd_sc_hd__mux2_1
*I *1131:S I *D sky130_fd_sc_hd__mux2_1
*I *1137:S I *D sky130_fd_sc_hd__mux2_1
*I *1129:S I *D sky130_fd_sc_hd__mux2_1
*I *1133:S I *D sky130_fd_sc_hd__mux2_1
*I *1085:Y O *D sky130_fd_sc_hd__nand3_4
*CAP
1 *1086:A 0.000270988
2 *1139:S 0.00012974
3 *1135:S 0
4 *1127:S 0
5 *1141:S 3.73824e-05
6 *1131:S 0.000112259
7 *1137:S 0
8 *1129:S 0.000194545
9 *1133:S 0.000192007
10 *1085:Y 0
11 *112:117 0.000689584
12 *112:103 0.00140577
13 *112:99 0.0019197
14 *112:86 0.00219728
15 *112:80 0.00181218
16 *112:54 0.000929533
17 *112:33 0.00140416
18 *112:31 0.00118336
19 *112:16 0.00301085
20 *112:14 0.00270111
21 *112:4 0.00112836
22 *1086:A *311:16 3.88725e-05
23 *1129:S *1129:A0 9.87624e-05
24 *1129:S *1389:A 0.000195349
25 *1131:S *1131:A0 8.06804e-06
26 *1131:S *1131:A1 4.89314e-05
27 *1133:S *1268:CLK 2.34585e-05
28 *1133:S *231:31 7.87147e-05
29 *1139:S *148:8 5.41385e-05
30 *1139:S *256:102 0.000357631
31 *112:14 *1085:A 9.79925e-05
32 *112:14 *1143:B 7.67324e-05
33 *112:14 *151:8 0.00018974
34 *112:14 *184:10 9.28739e-05
35 *112:14 *250:24 0
36 *112:14 *250:30 4.91732e-05
37 *112:14 *334:37 5.66294e-05
38 *112:14 *334:48 9.66231e-05
39 *112:14 *335:53 2.02872e-05
40 *112:14 *338:51 7.34394e-06
41 *112:16 *333:22 0.000382453
42 *112:31 *1279:CLK 0.000147903
43 *112:31 *231:65 3.74769e-05
44 *112:31 *244:10 0.00014962
45 *112:33 *1389:A 0.00047104
46 *112:33 *244:10 1.12863e-05
47 *112:54 *1137:A0 5.70419e-05
48 *112:54 *1256:RESET_B 0.000346476
49 *112:54 *232:35 1.22822e-05
50 *112:54 *255:40 0.000779554
51 *112:80 *1084:A1 0.000381853
52 *112:80 *1085:A 0.000103804
53 *112:80 *335:37 9.79925e-05
54 *112:86 *1302:CLK 0.000129682
55 *112:86 *311:16 9.66904e-05
56 *112:86 *335:37 3.6608e-05
57 *112:99 *1140:A 0
58 *112:99 *1261:CLK 0.000331064
59 *112:99 *1302:CLK 0.000131124
60 *112:99 *236:25 0.000591105
61 *112:99 *236:27 7.48505e-05
62 *112:99 *236:51 2.64616e-05
63 *112:99 *257:44 1.41891e-05
64 *112:99 *282:10 0
65 *112:99 *282:16 0
66 *112:99 *331:10 0
67 *112:103 *1140:A 0
68 *112:103 *256:53 0
69 *112:103 *256:62 0
70 *112:103 *282:16 0
71 *112:103 *284:8 7.03869e-05
72 *112:117 *1127:A0 5.56279e-05
73 *112:117 *1127:A1 2.46906e-05
74 *112:117 *1214:A1 0.000315857
75 *112:117 *1372:A 3.89103e-05
76 *112:117 *1387:A 0.000303217
77 *112:117 *142:8 0.000371359
78 *112:117 *256:31 3.83778e-05
79 *112:117 *256:53 4.4382e-05
80 *112:117 *270:6 0.000185371
81 *112:117 *285:10 3.46181e-05
82 *1084:A2 *112:80 2.33679e-05
83 *1084:B1 *112:80 1.12268e-05
84 *1268:D *1133:S 3.5022e-07
85 *1268:D *112:16 1.23032e-05
86 *1302:D *112:86 0.000279088
87 *26:12 *1086:A 4.84129e-06
88 *39:8 *112:86 8.78864e-05
89 *44:10 *112:117 7.03766e-05
90 *67:10 *112:31 6.48356e-05
91 *91:51 *112:16 4.71722e-05
92 *91:68 *112:16 5.73835e-06
93 *104:24 *112:14 1.0092e-05
94 *108:44 *112:86 0.000223077
*RES
1 *1085:Y *112:4 23 
2 *112:4 *112:14 44.5414 
3 *112:14 *112:16 27.3014 
4 *112:16 *1133:S 26.5214 
5 *112:16 *112:31 31.3436 
6 *112:31 *112:33 6.48357 
7 *112:33 *1129:S 42.4329 
8 *112:33 *112:54 33.4357 
9 *112:54 *1137:S 23 
10 *112:31 *1131:S 40.0921 
11 *112:4 *112:80 22.9336 
12 *112:80 *112:86 31.4471 
13 *112:86 *1141:S 23.8493 
14 *112:86 *112:99 36.6257 
15 *112:99 *112:103 28.8786 
16 *112:103 *112:117 48.0214 
17 *112:117 *1127:S 23 
18 *112:103 *1135:S 23 
19 *112:99 *1139:S 41.9564 
20 *112:80 *1086:A 43.0543 
*END

*D_NET *113 0.00128227
*CONN
*I *1089:A1 I *D sky130_fd_sc_hd__o21ai_1
*I *1087:Y O *D sky130_fd_sc_hd__inv_2
*CAP
1 *1089:A1 0
2 *1087:Y 0.000532857
3 *113:10 0.000532857
4 *113:10 *1087:A 3.22879e-05
5 *113:10 *1095:C 1.69668e-05
6 *113:10 *359:19 0
7 *113:10 *361:8 8.62876e-05
8 *113:10 *361:12 4.9346e-05
9 *113:10 *361:23 3.16665e-05
*RES
1 *1087:Y *113:10 45.7679 
2 *113:10 *1089:A1 38 
*END

*D_NET *114 0.0152425
*CONN
*I *1089:B1 I *D sky130_fd_sc_hd__o21ai_1
*I *1250:S I *D sky130_fd_sc_hd__mux2_1
*I *1248:S I *D sky130_fd_sc_hd__mux2_1
*I *1246:S I *D sky130_fd_sc_hd__mux2_1
*I *1238:S I *D sky130_fd_sc_hd__mux2_1
*I *1244:S I *D sky130_fd_sc_hd__mux2_1
*I *1242:S I *D sky130_fd_sc_hd__mux2_1
*I *1240:S I *D sky130_fd_sc_hd__mux2_1
*I *1252:S I *D sky130_fd_sc_hd__mux2_1
*I *1225:A I *D sky130_fd_sc_hd__inv_2
*I *1088:Y O *D sky130_fd_sc_hd__nand2_4
*CAP
1 *1089:B1 0
2 *1250:S 0
3 *1248:S 2.30556e-05
4 *1246:S 0
5 *1238:S 0
6 *1244:S 0.000235343
7 *1242:S 2.70317e-05
8 *1240:S 0.000401978
9 *1252:S 0.000252544
10 *1225:A 0
11 *1088:Y 6.6028e-05
12 *114:127 0.000580648
13 *114:102 0.000298627
14 *114:71 0.000819487
15 *114:65 0.00080692
16 *114:63 0.000946492
17 *114:59 0.000932334
18 *114:44 0.00103582
19 *114:40 0.000444391
20 *114:25 0.00135142
21 *114:12 0.00131477
22 *114:6 0.00118434
23 *1240:S *263:56 0
24 *1242:S *1244:A0 3.22879e-05
25 *1244:S *1244:A0 0.000267837
26 *1244:S *1244:A1 2.30292e-05
27 *1244:S *224:10 5.41385e-05
28 *1252:S *1340:A 1.0092e-05
29 *1252:S *281:6 0.000186029
30 *1252:S *311:22 8.65972e-05
31 *114:12 *1088:A 9.84851e-05
32 *114:12 *212:10 5.3304e-05
33 *114:12 *274:14 1.24376e-05
34 *114:12 *312:8 0
35 *114:25 *1092:A2 0
36 *114:25 *1347:A 0
37 *114:25 *252:10 0
38 *114:25 *252:14 0.000119313
39 *114:25 *252:23 0.000538014
40 *114:25 *274:14 1.44745e-05
41 *114:40 *1250:A0 0.000387493
42 *114:44 *288:10 1.97402e-05
43 *114:59 *1248:A1 8.22284e-05
44 *114:63 *1248:A0 2.49531e-05
45 *114:63 *1248:A1 5.68958e-05
46 *114:63 *1249:A 7.9566e-05
47 *114:65 *1238:A1 0.000323913
48 *114:71 *1303:RESET_B 0.000600847
49 *114:71 *233:97 0
50 *114:71 *234:23 0
51 *114:71 *303:10 0.000100283
52 *114:102 *1246:A1 1.21972e-05
53 *114:102 *234:62 0.00038781
54 *114:127 *1088:A 5.68527e-05
55 *114:127 *1311:SET_B 0
56 *114:127 *312:18 0
57 *114:127 *359:19 0.0001783
58 *20:12 *114:25 0.000177909
59 *21:13 *114:6 5.47927e-05
60 *21:13 *114:12 7.43025e-06
61 *26:18 *1240:S 9.57951e-05
62 *26:18 *114:44 7.25241e-05
63 *42:12 *114:127 3.22879e-05
64 *80:8 *114:102 0
65 *83:8 *1240:S 0.000158149
66 *99:79 *114:127 2.95423e-05
67 *99:89 *114:127 8.57577e-05
*RES
1 *1088:Y *114:6 24.5743 
2 *114:6 *114:12 9.715 
3 *114:12 *1225:A 23 
4 *114:12 *114:25 32.8557 
5 *114:25 *1252:S 43.365 
6 *114:25 *114:40 22.7679 
7 *114:40 *114:44 18.3143 
8 *114:44 *1240:S 46.2443 
9 *114:44 *114:59 23.7414 
10 *114:59 *114:63 6.5975 
11 *114:63 *114:65 6.10036 
12 *114:65 *114:71 43.8786 
13 *114:71 *1242:S 23.6214 
14 *114:71 *1244:S 29.3386 
15 *114:65 *1238:S 23 
16 *114:63 *114:102 36.9289 
17 *114:102 *1246:S 23 
18 *114:59 *1248:S 23.4971 
19 *114:40 *1250:S 23 
20 *114:6 *114:127 41.6829 
21 *114:127 *1089:B1 23 
*END

*D_NET *115 0.00244387
*CONN
*I *1091:B I *D sky130_fd_sc_hd__or2_1
*I *1090:X O *D sky130_fd_sc_hd__mux4_1
*CAP
1 *1091:B 0.000212696
2 *1090:X 0.0006356
3 *115:12 0.000848296
4 *1091:B *1091:A 5.56356e-05
5 *1091:B *1296:RESET_B 9.64943e-05
6 *1091:B *262:50 5.53064e-05
7 *1091:B *350:8 8.06804e-06
8 *1091:B *350:12 2.27289e-05
9 *115:12 *1296:CLK 0
10 *115:12 *215:37 1.76557e-05
11 *115:12 *348:65 8.50366e-05
12 *115:12 *349:32 5.12254e-05
13 *1237:A *115:12 0.000214072
14 *75:10 *115:12 0.000141052
*RES
1 *1090:X *115:12 49.9004 
2 *115:12 *1091:B 41.9461 
*END

*D_NET *116 0.00107241
*CONN
*I *1094:A2 I *D sky130_fd_sc_hd__a311o_1
*I *1091:X O *D sky130_fd_sc_hd__or2_1
*CAP
1 *1094:A2 0
2 *1091:X 0.000219
3 *116:8 0.000219
4 *116:8 *1094:A3 0.000226306
5 *116:8 *1094:C1 0
6 *116:8 *1229:A_N 0.000117954
7 *116:8 *1229:B 0.000270682
8 *116:8 *262:50 1.94693e-05
*RES
1 *1091:X *116:8 29.3593 
2 *116:8 *1094:A2 23 
*END

*D_NET *117 0.0017545
*CONN
*I *1093:A I *D sky130_fd_sc_hd__or2b_1
*I *1092:X O *D sky130_fd_sc_hd__mux4_1
*CAP
1 *1093:A 0.000702912
2 *1092:X 8.11562e-05
3 *117:8 0.000784069
4 *1093:A *1310:RESET_B 4.39278e-05
5 *117:8 *1310:RESET_B 2.79004e-05
6 *117:8 *263:38 2.60152e-05
7 *117:8 *358:8 8.85189e-05
*RES
1 *1092:X *117:8 39.9057 
2 *117:8 *1093:A 47.4457 
*END

*D_NET *118 0.0013946
*CONN
*I *1094:A3 I *D sky130_fd_sc_hd__a311o_1
*I *1093:X O *D sky130_fd_sc_hd__or2b_1
*CAP
1 *1094:A3 4.41911e-05
2 *1093:X 0.000425954
3 *118:10 0.000470146
4 *1094:A3 *1229:A_N 0.000228001
5 *99:47 *118:10 0
6 *107:31 *118:10 0
7 *116:8 *1094:A3 0.000226306
*RES
1 *1093:X *118:10 43.7379 
2 *118:10 *1094:A3 40.5271 
*END

*D_NET *119 0.00679496
*CONN
*I *1121:B1 I *D sky130_fd_sc_hd__a211o_1
*I *1369:A I *D sky130_fd_sc_hd__dlygate4sd3_1
*I *1097:B I *D sky130_fd_sc_hd__nor2_1
*I *1119:A I *D sky130_fd_sc_hd__nor2_1
*I *1108:A I *D sky130_fd_sc_hd__or2_1
*I *1104:A_N I *D sky130_fd_sc_hd__and3b_1
*I *1095:Y O *D sky130_fd_sc_hd__nor3_2
*CAP
1 *1121:B1 0.000134499
2 *1369:A 0.000238143
3 *1097:B 0
4 *1119:A 0.000105333
5 *1108:A 0
6 *1104:A_N 0.000488191
7 *1095:Y 0.000419898
8 *119:35 0.000151258
9 *119:20 0.000804979
10 *119:18 0.000856408
11 *119:14 0.000652478
12 *119:12 0.00044485
13 *119:10 0.000694171
14 *1104:A_N *1107:A 5.50049e-05
15 *1104:A_N *1107:B 0.000128442
16 *1104:A_N *1107:C 5.50106e-05
17 *1104:A_N *341:38 1.5769e-05
18 *1119:A *136:16 0
19 *1121:B1 *1121:A1 5.47983e-06
20 *1121:B1 *1121:A2 7.86509e-06
21 *1369:A *260:103 0.000267874
22 *119:10 *1072:A1 0
23 *119:10 *238:49 0
24 *119:10 *238:60 0
25 *119:12 *1285:RESET_B 6.25829e-05
26 *119:12 *238:49 0
27 *119:14 *1285:RESET_B 0.000225265
28 *119:18 *1285:RESET_B 0.000159611
29 *119:18 *120:16 0
30 *119:35 *1064:C 5.50106e-05
31 *119:35 *128:8 0
32 *119:35 *128:14 0
33 *119:35 *128:34 5.67058e-05
34 *1121:C1 *1121:B1 0.000195997
35 *41:10 *1121:B1 0.000198037
36 *96:14 *119:18 0
37 *96:14 *119:35 8.30555e-05
38 *99:114 *1121:B1 1.4345e-05
39 *99:120 *119:12 0.000104051
40 *99:120 *119:14 0.000108569
41 *99:120 *119:18 6.07611e-06
*RES
1 *1095:Y *119:10 44.6493 
2 *119:10 *119:12 2.96214 
3 *119:12 *119:14 2.96214 
4 *119:14 *119:18 26.0614 
5 *119:18 *119:20 3.00357 
6 *119:20 *1104:A_N 32.1971 
7 *119:20 *119:35 33.2314 
8 *119:35 *1108:A 23 
9 *119:18 *1119:A 25.0714 
10 *119:14 *1097:B 38 
11 *119:12 *1369:A 43.3857 
12 *119:10 *1121:B1 42.9507 
*END

*D_NET *120 0.00532474
*CONN
*I *1125:A I *D sky130_fd_sc_hd__and3_1
*I *1100:A I *D sky130_fd_sc_hd__and3_1
*I *1116:B I *D sky130_fd_sc_hd__and3b_1
*I *1112:A I *D sky130_fd_sc_hd__and3_1
*I *1097:Y O *D sky130_fd_sc_hd__nor2_1
*CAP
1 *1125:A 3.15307e-05
2 *1100:A 0.000464823
3 *1116:B 0.000129466
4 *1112:A 0.000273334
5 *1097:Y 0.00011123
6 *120:16 0.000948305
7 *120:10 0.00121524
8 *120:6 0.000347674
9 *1100:A *1100:B 2.50118e-05
10 *1100:A *1100:C 4.87165e-05
11 *1100:A *1101:A 0.00014384
12 *1100:A *1102:A2 1.1258e-05
13 *1100:A *339:44 5.90839e-05
14 *1112:A *257:58 0.000185428
15 *1112:A *344:36 0
16 *1116:B *344:36 0.000188934
17 *1125:A *1292:CLK 6.17437e-06
18 *120:10 *1285:RESET_B 3.16259e-05
19 *120:10 *1290:CLK 0.000273509
20 *120:10 *238:38 9.8135e-05
21 *120:16 *1290:CLK 0.0004331
22 *120:16 *136:16 3.0556e-05
23 *120:16 *344:36 0
24 *97:14 *1125:A 4.08664e-05
25 *97:14 *120:6 0.000226899
26 *119:18 *120:16 0
*RES
1 *1097:Y *120:6 25.5271 
2 *120:6 *120:10 20.075 
3 *120:10 *120:16 11.4757 
4 *120:16 *1112:A 43.365 
5 *120:16 *1116:B 40.0507 
6 *120:10 *1100:A 47.57 
7 *120:6 *1125:A 23.6214 
*END

*D_NET *121 0.00131024
*CONN
*I *1100:B I *D sky130_fd_sc_hd__and3_1
*I *1098:Y O *D sky130_fd_sc_hd__nand2_1
*CAP
1 *1100:B 0.000389225
2 *1098:Y 6.16081e-05
3 *121:8 0.000450833
4 *1100:B *124:14 5.82853e-05
5 *1100:B *339:23 0.000108016
6 *1100:B *339:44 0.000178391
7 *121:8 *310:10 3.88725e-05
8 *1100:A *1100:B 2.50118e-05
*RES
1 *1098:Y *121:8 39.2014 
2 *121:8 *1100:B 43.3857 
*END

*D_NET *122 0.00110984
*CONN
*I *1100:C I *D sky130_fd_sc_hd__and3_1
*I *1099:X O *D sky130_fd_sc_hd__or2_1
*CAP
1 *1100:C 0.000138738
2 *1099:X 0.000171875
3 *122:10 0.000310612
4 *1100:C *339:44 9.97435e-06
5 *122:10 *229:10 0.000190047
6 *122:10 *238:10 0.000190047
7 *122:10 *340:8 4.98295e-05
8 *1100:A *1100:C 4.87165e-05
*RES
1 *1099:X *122:10 41.7079 
2 *122:10 *1100:C 40.1543 
*END

*D_NET *123 0.000349962
*CONN
*I *1101:A I *D sky130_fd_sc_hd__clkbuf_1
*I *1100:X O *D sky130_fd_sc_hd__and3_1
*CAP
1 *1101:A 0.000103061
2 *1100:X 0.000103061
3 *1100:A *1101:A 0.00014384
*RES
1 *1100:X *1101:A 48.4236 
*END

*D_NET *124 0.00126354
*CONN
*I *1104:B I *D sky130_fd_sc_hd__and3b_1
*I *1102:X O *D sky130_fd_sc_hd__a21o_1
*CAP
1 *1104:B 0
2 *1102:X 0.00039888
3 *124:14 0.00039888
4 *124:14 *339:10 0.000112527
5 *124:14 *339:23 0.000279227
6 *124:14 *339:59 1.57386e-05
7 *124:14 *341:21 0
8 *1100:B *124:14 5.82853e-05
*RES
1 *1102:X *124:14 47.1971 
2 *124:14 *1104:B 38 
*END

*D_NET *125 0.0015818
*CONN
*I *1104:C I *D sky130_fd_sc_hd__and3b_1
*I *1109:A2 I *D sky130_fd_sc_hd__a21oi_1
*I *1103:Y O *D sky130_fd_sc_hd__nand3_1
*CAP
1 *1104:C 6.61329e-05
2 *1109:A2 0.000392809
3 *1103:Y 0.000206389
4 *125:8 0.000665331
5 *1104:C *339:122 2.5415e-05
6 *1109:A2 *339:122 1.19692e-05
7 *1109:A2 *341:21 0
8 *125:8 *339:122 0.00014196
9 *125:8 *341:6 1.76557e-05
10 *30:12 *1109:A2 5.41385e-05
*RES
1 *1103:Y *125:8 41.0036 
2 *125:8 *1109:A2 45.6436 
3 *125:8 *1104:C 39.2014 
*END

*D_NET *126 0.00117512
*CONN
*I *1105:A I *D sky130_fd_sc_hd__clkbuf_1
*I *1104:X O *D sky130_fd_sc_hd__and3b_1
*CAP
1 *1105:A 0.000112639
2 *1104:X 0.000400005
3 *126:10 0.000512644
4 *126:10 *1286:RESET_B 4.697e-05
5 *126:10 *260:14 3.7122e-06
6 *126:10 *339:6 2.17466e-05
7 *27:10 *126:10 1.00084e-05
8 *29:10 *1105:A 4.84129e-06
9 *29:10 *126:10 6.25525e-05
*RES
1 *1104:X *126:10 44.5457 
2 *126:10 *1105:A 40.2993 
*END

*D_NET *127 0.000970701
*CONN
*I *1109:A1 I *D sky130_fd_sc_hd__a21oi_1
*I *1106:Y O *D sky130_fd_sc_hd__inv_2
*CAP
1 *1109:A1 0
2 *1106:Y 0.000378254
3 *127:8 0.000378254
4 *127:8 *1106:A 5.50049e-05
5 *127:8 *1109:B1 5.50049e-05
6 *30:12 *127:8 0.000104183
*RES
1 *1106:Y *127:8 29.8357 
2 *127:8 *1109:A1 23 
*END

*D_NET *128 0.00457038
*CONN
*I *1118:D I *D sky130_fd_sc_hd__and4_2
*I *1115:A2 I *D sky130_fd_sc_hd__a21o_1
*I *1114:C I *D sky130_fd_sc_hd__and3_1
*I *1108:B I *D sky130_fd_sc_hd__or2_1
*I *1111:B I *D sky130_fd_sc_hd__or2_1
*I *1110:B I *D sky130_fd_sc_hd__nand2_1
*I *1107:X O *D sky130_fd_sc_hd__and4_1
*CAP
1 *1118:D 0
2 *1115:A2 0
3 *1114:C 4.49652e-05
4 *1108:B 0
5 *1111:B 3.50585e-05
6 *1110:B 2.1727e-05
7 *1107:X 6.13404e-05
8 *128:64 0.000197459
9 *128:52 0.000336625
10 *128:41 0.000238702
11 *128:34 0.000182068
12 *128:14 0.000347472
13 *128:8 0.000479524
14 *1110:B *257:58 4.00259e-06
15 *1111:B *1111:A 5.50106e-05
16 *1111:B *130:8 1.76557e-05
17 *1111:B *257:58 0.000141052
18 *1114:C *1064:C 1.14154e-05
19 *128:8 *229:10 0.000104869
20 *128:14 *229:10 0.000431843
21 *128:14 *257:58 9.84851e-05
22 *128:14 *343:51 0
23 *128:34 *1064:C 0.000253858
24 *128:34 *1064:D 5.50049e-05
25 *128:34 *129:10 4.94192e-05
26 *128:34 *341:30 1.37232e-05
27 *128:34 *343:38 0.00014698
28 *128:41 *1064:C 7.88828e-05
29 *128:41 *343:38 9.45591e-05
30 *128:52 *133:8 0.000143791
31 *128:52 *136:29 0.000102389
32 *128:52 *343:27 2.9938e-05
33 *128:52 *343:38 2.4754e-05
34 *128:64 *1116:A_N 0.000165676
35 *128:64 *1116:C 5.73309e-05
36 *128:64 *1118:A 9.93434e-05
37 *128:64 *1118:B 5.3304e-05
38 *128:64 *1120:A2 3.47781e-05
39 *128:64 *133:8 9.91024e-05
40 *128:64 *135:10 5.50049e-05
41 *128:64 *136:29 4.03987e-05
42 *128:64 *343:27 2.02872e-05
43 *128:64 *344:24 8.58779e-05
44 *96:14 *128:8 0
45 *119:35 *128:8 0
46 *119:35 *128:14 0
47 *119:35 *128:34 5.67058e-05
*RES
1 *1107:X *128:8 39.5536 
2 *128:8 *128:14 21.8771 
3 *128:14 *1110:B 23.4971 
4 *128:14 *1111:B 24.5743 
5 *128:8 *128:34 20.4064 
6 *128:34 *1108:B 23 
7 *128:34 *128:41 2.05071 
8 *128:41 *1114:C 24.2014 
9 *128:41 *128:52 4.43286 
10 *128:52 *128:64 35.655 
11 *128:64 *1115:A2 23 
12 *128:52 *1118:D 23 
*END

*D_NET *129 0.00152166
*CONN
*I *1109:B1 I *D sky130_fd_sc_hd__a21oi_1
*I *1108:X O *D sky130_fd_sc_hd__or2_1
*CAP
1 *1109:B1 2.51778e-05
2 *1108:X 0.000502807
3 *129:10 0.000527984
4 *129:10 *1064:A_N 5.50106e-05
5 *129:10 *1064:D 2.32004e-05
6 *129:10 *341:30 2.02872e-05
7 *129:10 *342:10 1.01436e-05
8 *129:10 *342:19 0.000154138
9 *129:10 *343:38 9.84851e-05
10 *30:12 *129:10 0
11 *127:8 *1109:B1 5.50049e-05
12 *128:34 *129:10 4.94192e-05
*RES
1 *1108:X *129:10 45.6436 
2 *129:10 *1109:B1 38.6214 
*END

*D_NET *130 0.000625024
*CONN
*I *1112:B I *D sky130_fd_sc_hd__and3_1
*I *1110:Y O *D sky130_fd_sc_hd__nand2_1
*CAP
1 *1112:B 0
2 *1110:Y 0.000223103
3 *130:8 0.000223103
4 *130:8 *1111:A 8.1796e-05
5 *130:8 *1112:C 5.21996e-05
6 *130:8 *257:58 2.71659e-05
7 *1111:B *130:8 1.76557e-05
*RES
1 *1110:Y *130:8 27.93 
2 *130:8 *1112:B 23 
*END

*D_NET *131 0.000223945
*CONN
*I *1112:C I *D sky130_fd_sc_hd__and3_1
*I *1111:X O *D sky130_fd_sc_hd__or2_1
*CAP
1 *1112:C 2.1606e-05
2 *1111:X 2.1606e-05
3 *1112:C *257:58 0.000128533
4 *130:8 *1112:C 5.21996e-05
*RES
1 *1111:X *1112:C 47.4086 
*END

*D_NET *132 0.000603863
*CONN
*I *1113:A I *D sky130_fd_sc_hd__clkbuf_1
*I *1112:X O *D sky130_fd_sc_hd__and3_1
*CAP
1 *1113:A 6.9479e-05
2 *1112:X 0.000216488
3 *132:8 0.000285967
4 *31:8 *132:8 3.19287e-05
*RES
1 *1112:X *132:8 42.0186 
2 *132:8 *1113:A 39.4707 
*END

*D_NET *133 0.00274892
*CONN
*I *1120:A2 I *D sky130_fd_sc_hd__o21a_1
*I *1116:A_N I *D sky130_fd_sc_hd__and3b_1
*I *1114:X O *D sky130_fd_sc_hd__and3_1
*CAP
1 *1120:A2 0.000345169
2 *1116:A_N 0.00032083
3 *1114:X 8.18115e-05
4 *133:8 0.000747811
5 *1116:A_N *1116:C 0.000101762
6 *1116:A_N *1289:CLK 0
7 *1116:A_N *135:10 1.24376e-05
8 *1116:A_N *344:36 0.000137885
9 *1120:A2 *1118:C 0
10 *1120:A2 *1120:A1 6.17437e-06
11 *1120:A2 *1120:B1 1.21972e-05
12 *1120:A2 *137:10 8.4047e-05
13 *1120:A2 *345:21 0
14 *133:8 *343:27 0.000359206
15 *33:18 *1120:A2 9.62369e-05
16 *128:52 *133:8 0.000143791
17 *128:64 *1116:A_N 0.000165676
18 *128:64 *1120:A2 3.47781e-05
19 *128:64 *133:8 9.91024e-05
*RES
1 *1114:X *133:8 41.9564 
2 *133:8 *1116:A_N 44.38 
3 *133:8 *1120:A2 44.0486 
*END

*D_NET *134 0.000734411
*CONN
*I *1116:C I *D sky130_fd_sc_hd__and3b_1
*I *1115:X O *D sky130_fd_sc_hd__a21o_1
*CAP
1 *1116:C 0.000150213
2 *1115:X 0.000150213
3 *1116:C *135:10 3.43963e-05
4 *1116:C *343:25 9.72368e-05
5 *1116:C *344:18 8.76309e-05
6 *1116:C *344:24 5.56279e-05
7 *1116:A_N *1116:C 0.000101762
8 *128:64 *1116:C 5.73309e-05
*RES
1 *1115:X *1116:C 49.9564 
*END

*D_NET *135 0.000882753
*CONN
*I *1117:A I *D sky130_fd_sc_hd__clkbuf_1
*I *1116:X O *D sky130_fd_sc_hd__and3b_1
*CAP
1 *1117:A 0
2 *1116:X 0.000222698
3 *135:10 0.000222698
4 *135:10 *344:18 0.000199467
5 *135:10 *344:24 5.3304e-05
6 *135:10 *344:36 8.27475e-05
7 *1116:A_N *135:10 1.24376e-05
8 *1116:C *135:10 3.43963e-05
9 *128:64 *135:10 5.50049e-05
*RES
1 *1116:X *135:10 28.4271 
2 *135:10 *1117:A 23 
*END

*D_NET *136 0.00598877
*CONN
*I *1122:A2 I *D sky130_fd_sc_hd__o21ba_1
*I *1121:A2 I *D sky130_fd_sc_hd__a211o_1
*I *1124:A2 I *D sky130_fd_sc_hd__a21o_1
*I *1123:C I *D sky130_fd_sc_hd__nand3_1
*I *1119:B I *D sky130_fd_sc_hd__nor2_1
*I *1118:X O *D sky130_fd_sc_hd__and4_2
*CAP
1 *1122:A2 0.000100265
2 *1121:A2 0.000177328
3 *1124:A2 0
4 *1123:C 0
5 *1119:B 0
6 *1118:X 0
7 *136:53 0.000380469
8 *136:42 0.000373188
9 *136:29 0.000845496
10 *136:16 0.000220622
11 *136:4 0.000795807
12 *1121:A2 *1121:A1 1.87687e-05
13 *1121:A2 *138:10 8.15864e-05
14 *1121:A2 *346:35 0.000188817
15 *1122:A2 *1291:RESET_B 0.000248989
16 *1122:A2 *138:10 8.16757e-06
17 *1122:A2 *346:18 0.000207391
18 *136:16 *137:10 3.39928e-05
19 *136:29 *1065:B_N 0.000167123
20 *136:29 *1118:B 0.000144501
21 *136:29 *1118:C 0.000403294
22 *136:29 *1290:RESET_B 0.000366057
23 *136:29 *248:25 0
24 *136:29 *345:21 0.000301899
25 *136:42 *1290:RESET_B 0.000167633
26 *136:42 *260:121 6.28316e-05
27 *136:42 *346:54 0
28 *136:42 *347:24 0
29 *136:53 *1124:A1 0.000136609
30 *136:53 *1291:RESET_B 0.00015954
31 *136:53 *260:121 3.70094e-05
32 *136:53 *346:18 1.12863e-05
33 *136:53 *346:54 0
34 *1119:A *136:16 0
35 *1121:B1 *1121:A2 7.86509e-06
36 *35:8 *136:42 0.000136609
37 *41:10 *1121:A2 3.22879e-05
38 *120:16 *136:16 3.0556e-05
39 *128:52 *136:29 0.000102389
40 *128:64 *136:29 4.03987e-05
*RES
1 *1118:X *136:4 23 
2 *136:4 *136:16 34.1221 
3 *136:16 *1119:B 23 
4 *136:4 *136:29 31.5921 
5 *136:29 *1123:C 38 
6 *136:29 *136:42 6.54571 
7 *136:42 *1124:A2 38 
8 *136:42 *136:53 3.23143 
9 *136:53 *1121:A2 42.9507 
10 *136:53 *1122:A2 41.3143 
*END

*D_NET *137 0.0013087
*CONN
*I *1120:B1 I *D sky130_fd_sc_hd__o21a_1
*I *1119:Y O *D sky130_fd_sc_hd__nor2_1
*CAP
1 *1120:B1 0.000111423
2 *1119:Y 0.000430965
3 *137:10 0.000542388
4 *1120:B1 *1120:A1 5.50049e-05
5 *1120:A2 *1120:B1 1.21972e-05
6 *1120:A2 *137:10 8.4047e-05
7 *33:18 *1120:B1 1.75737e-05
8 *33:18 *137:10 2.11131e-05
9 *136:16 *137:10 3.39928e-05
*RES
1 *1119:Y *137:10 44.2143 
2 *137:10 *1120:B1 40.0507 
*END

*D_NET *138 0.000562257
*CONN
*I *1122:B1_N I *D sky130_fd_sc_hd__o21ba_1
*I *1121:X O *D sky130_fd_sc_hd__a211o_1
*CAP
1 *1122:B1_N 0
2 *1121:X 0.000203833
3 *138:10 0.000203833
4 *138:10 *346:18 6.48356e-05
5 *1121:A2 *138:10 8.15864e-05
6 *1122:A2 *138:10 8.16757e-06
7 *41:10 *138:10 0
*RES
1 *1121:X *138:10 41.8321 
2 *138:10 *1122:B1_N 38 
*END

*D_NET *139 0.00142762
*CONN
*I *1125:B I *D sky130_fd_sc_hd__and3_1
*I *1123:Y O *D sky130_fd_sc_hd__nand3_1
*CAP
1 *1125:B 5.76341e-05
2 *1123:Y 0.000427392
3 *139:10 0.000485026
4 *1125:B *1292:CLK 5.56279e-05
5 *139:10 *1065:B_N 9.00773e-05
6 *139:10 *1290:CLK 2.24366e-06
7 *139:10 *238:38 3.76157e-05
8 *139:10 *238:49 9.5956e-06
9 *139:10 *346:54 2.44742e-05
10 *139:10 *347:12 0.000146822
11 *139:10 *347:24 5.56356e-05
12 *97:10 *139:10 3.54728e-05
*RES
1 *1123:Y *139:10 44.5664 
2 *139:10 *1125:B 39.1186 
*END

*D_NET *140 0.000935665
*CONN
*I *1125:C I *D sky130_fd_sc_hd__and3_1
*I *1124:X O *D sky130_fd_sc_hd__a21o_1
*CAP
1 *1125:C 0.000145373
2 *1124:X 0.000113816
3 *140:8 0.000259189
4 *1125:C *1292:CLK 6.86048e-05
5 *1125:C *141:10 2.27142e-05
6 *140:8 *347:24 0.000194318
7 *1292:D *1125:C 6.17437e-06
8 *97:14 *1125:C 0.000125476
*RES
1 *1124:X *140:8 40.61 
2 *140:8 *1125:C 40.8379 
*END

*D_NET *141 0.00146865
*CONN
*I *1126:A I *D sky130_fd_sc_hd__clkbuf_1
*I *1125:X O *D sky130_fd_sc_hd__and3_1
*CAP
1 *1126:A 0
2 *1125:X 0.00054927
3 *141:10 0.00054927
4 *141:10 *1292:CLK 3.22051e-05
5 *141:10 *249:31 0
6 *141:10 *260:121 0.000169674
7 *1125:C *141:10 2.27142e-05
8 *1292:D *141:10 0.000145521
*RES
1 *1125:X *141:10 46.12 
2 *141:10 *1126:A 38 
*END

*D_NET *142 0.00149426
*CONN
*I *1373:A I *D sky130_fd_sc_hd__dlygate4sd3_1
*I *1127:X O *D sky130_fd_sc_hd__mux2_1
*CAP
1 *1373:A 0
2 *1127:X 0.000413717
3 *142:8 0.000413717
4 *142:8 *1128:A 5.70419e-05
5 *142:8 *1387:A 0.000181715
6 *44:10 *142:8 5.67058e-05
7 *112:117 *142:8 0.000371359
*RES
1 *1127:X *142:8 32.6943 
2 *142:8 *1373:A 23 
*END

*D_NET *143 0.000131565
*CONN
*I *1351:A I *D sky130_fd_sc_hd__dlygate4sd3_1
*I *1129:X O *D sky130_fd_sc_hd__mux2_1
*CAP
1 *1351:A 4.96387e-05
2 *1129:X 4.96387e-05
3 *1351:A *1388:A 3.22879e-05
*RES
1 *1129:X *1351:A 47.1186 
*END

*D_NET *144 0.00103125
*CONN
*I *1349:A I *D sky130_fd_sc_hd__dlygate4sd3_1
*I *1131:X O *D sky130_fd_sc_hd__mux2_1
*CAP
1 *1349:A 0.000175293
2 *1131:X 0.000182158
3 *144:8 0.000357451
4 *144:8 *1258:RESET_B 1.70419e-05
5 *144:8 *290:8 0.000299308
*RES
1 *1131:X *144:8 42.7229 
2 *144:8 *1349:A 40.5271 
*END

*D_NET *145 0.000718877
*CONN
*I *1358:A I *D sky130_fd_sc_hd__dlygate4sd3_1
*I *1133:X O *D sky130_fd_sc_hd__mux2_1
*CAP
1 *1358:A 0
2 *1133:X 0.000209948
3 *145:10 0.000209948
4 *145:10 *1390:A 0.000101708
5 *145:10 *231:31 0.000187129
6 *145:10 *245:14 1.01436e-05
7 *145:10 *299:10 0
8 *57:10 *145:10 0
*RES
1 *1133:X *145:10 41.9564 
2 *145:10 *1358:A 38 
*END

*D_NET *146 0.000464355
*CONN
*I *1344:A I *D sky130_fd_sc_hd__dlygate4sd3_1
*I *1135:X O *D sky130_fd_sc_hd__mux2_1
*CAP
1 *1344:A 0.000180781
2 *1135:X 0.000180781
3 *1344:A *246:12 7.97636e-05
4 *1344:A *285:10 2.30292e-05
*RES
1 *1135:X *1344:A 49.9771 
*END

*D_NET *147 0.00109234
*CONN
*I *1339:A I *D sky130_fd_sc_hd__dlygate4sd3_1
*I *1137:X O *D sky130_fd_sc_hd__mux2_1
*CAP
1 *1339:A 0
2 *1137:X 0.000383247
3 *147:10 0.000383247
4 *147:10 *232:27 0
5 *147:10 *232:35 0.000187129
6 *147:10 *247:10 0
7 *147:10 *255:40 0.000138718
8 *147:10 *255:83 0
*RES
1 *1137:X *147:10 44.7736 
2 *147:10 *1339:A 38 
*END

*D_NET *148 0.0016178
*CONN
*I *1140:A I *D sky130_fd_sc_hd__clkbuf_1
*I *1139:X O *D sky130_fd_sc_hd__mux2_1
*CAP
1 *1140:A 0.000437128
2 *1139:X 0.000199254
3 *148:8 0.000636382
4 *1140:A *1261:CLK 4.09548e-05
5 *1140:A *236:25 2.04774e-05
6 *1140:A *256:62 0
7 *148:8 *1282:RESET_B 2.93845e-05
8 *148:8 *256:102 4.56951e-05
9 *1139:S *148:8 5.41385e-05
10 *50:8 *1140:A 0.000154385
11 *112:99 *1140:A 0
12 *112:103 *1140:A 0
*RES
1 *1139:X *148:8 41.0036 
2 *148:8 *1140:A 47.3007 
*END

*D_NET *149 0.000735772
*CONN
*I *1142:A I *D sky130_fd_sc_hd__clkbuf_1
*I *1141:X O *D sky130_fd_sc_hd__mux2_1
*CAP
1 *1142:A 8.51245e-05
2 *1141:X 0.000123646
3 *149:8 0.000208771
4 *1142:A *257:44 0.000158914
5 *149:8 *257:44 4.90587e-05
6 *51:8 *149:8 0.000110258
*RES
1 *1141:X *149:8 40.61 
2 *149:8 *1142:A 40.4236 
*END

*D_NET *150 0.00054571
*CONN
*I *1144:A I *D sky130_fd_sc_hd__buf_2
*I *1143:X O *D sky130_fd_sc_hd__or3_1
*CAP
1 *1144:A 1.92001e-05
2 *1143:X 8.62149e-05
3 *150:8 0.000105415
4 *1144:A *307:14 5.58003e-05
5 *1144:A *336:12 5.3304e-05
6 *150:8 *250:30 0.000162263
7 *150:8 *336:38 6.35124e-05
*RES
1 *1143:X *150:8 40.2579 
2 *150:8 *1144:A 38.6214 
*END

*D_NET *151 0.015314
*CONN
*I *1161:A1 I *D sky130_fd_sc_hd__a21oi_1
*I *1155:A I *D sky130_fd_sc_hd__nand2_1
*I *1157:A2 I *D sky130_fd_sc_hd__o211a_1
*I *1156:A3 I *D sky130_fd_sc_hd__a31o_1
*I *1146:A2 I *D sky130_fd_sc_hd__a21oi_1
*I *1147:A0 I *D sky130_fd_sc_hd__mux2_1
*I *1173:A I *D sky130_fd_sc_hd__nand2_1
*I *1159:B1 I *D sky130_fd_sc_hd__o31a_1
*I *1145:A2 I *D sky130_fd_sc_hd__o21ba_1
*I *1144:X O *D sky130_fd_sc_hd__buf_2
*CAP
1 *1161:A1 0
2 *1155:A 0
3 *1157:A2 5.38097e-05
4 *1156:A3 8.42709e-05
5 *1146:A2 0
6 *1147:A0 4.8194e-05
7 *1173:A 1.41969e-05
8 *1159:B1 0.000142763
9 *1145:A2 0.000229602
10 *1144:X 0.000166216
11 *151:93 0.000361844
12 *151:89 0.000369107
13 *151:66 0.000946864
14 *151:60 0.00199001
15 *151:43 0.00115191
16 *151:41 0.000447713
17 *151:33 0.000713863
18 *151:29 0.000697467
19 *151:8 0.000972479
20 *1145:A2 *1074:B_N 0.000319079
21 *1145:A2 *333:54 3.73783e-05
22 *1145:A2 *338:38 0.000116661
23 *1147:A0 *1147:S 1.1258e-05
24 *1156:A3 *1156:A2 3.86731e-05
25 *1156:A3 *1156:B1 2.69729e-05
26 *1156:A3 *1157:B1 5.56279e-05
27 *1156:A3 *1157:C1 6.09702e-05
28 *1156:A3 *314:49 2.93431e-05
29 *1156:A3 *315:10 0.000273494
30 *1157:A2 *160:10 1.51481e-05
31 *1159:B1 *156:41 0.000183281
32 *1159:B1 *316:18 2.93845e-05
33 *1159:B1 *316:24 0
34 *1173:A *1170:A 5.82853e-05
35 *1173:A *1170:B 2.95526e-05
36 *151:8 *250:30 0.000161292
37 *151:29 *1161:A2 2.1819e-05
38 *151:29 *1161:B1 5.50049e-05
39 *151:29 *250:30 0.000488733
40 *151:29 *316:55 0.000141879
41 *151:33 *1161:A2 3.22051e-05
42 *151:41 *1146:B1 0.000173442
43 *151:41 *1162:A3 0.000367067
44 *151:41 *1163:D 0
45 *151:41 *153:8 0.000136743
46 *151:41 *316:8 0.000388314
47 *151:60 *1147:S 0.000415769
48 *151:60 *156:41 0.000416823
49 *151:60 *157:42 0
50 *151:60 *234:10 3.6608e-05
51 *151:60 *313:25 0.000302673
52 *151:66 *164:18 7.71407e-05
53 *151:66 *167:8 6.69151e-05
54 *151:66 *173:10 0.000110922
55 *151:66 *174:19 0.000142934
56 *151:66 *174:21 5.75756e-06
57 *151:66 *174:68 0.000137061
58 *151:66 *338:10 0.000379126
59 *151:89 *1163:A 0
60 *151:93 *160:10 4.95928e-05
61 *151:93 *314:16 0
62 *1153:A2 *1156:A3 7.53303e-06
63 *1159:A2 *1159:B1 1.32314e-05
64 *89:6 *1159:B1 5.67058e-05
65 *91:14 *151:41 2.63049e-05
66 *103:65 *151:29 0.000141879
67 *104:10 *1145:A2 0.000316594
68 *104:24 *151:8 7.63295e-05
69 *104:24 *151:29 3.59593e-05
70 *104:64 *151:29 0.000183898
71 *104:81 *151:29 0.000482634
72 *104:81 *151:89 0
73 *104:81 *151:93 0
74 *112:14 *151:8 0.00018974
*RES
1 *1144:X *151:8 42.7229 
2 *151:8 *1145:A2 45.3329 
3 *151:8 *151:29 32.6071 
4 *151:29 *151:33 17.0507 
5 *151:33 *151:41 28.0086 
6 *151:41 *151:43 15 
7 *151:43 *1159:B1 41.2314 
8 *151:43 *151:60 32.0893 
9 *151:60 *151:66 35.735 
10 *151:66 *1173:A 38.6214 
11 *151:60 *1147:A0 24.2014 
12 *151:41 *1146:A2 23 
13 *151:33 *151:89 2.25786 
14 *151:89 *151:93 3.70786 
15 *151:93 *1156:A3 41.5007 
16 *151:93 *1157:A2 38.8493 
17 *151:89 *1155:A 38 
18 *151:29 *1161:A1 23 
*END

*D_NET *152 0.00225532
*CONN
*I *1146:B1 I *D sky130_fd_sc_hd__a21oi_1
*I *1160:A I *D sky130_fd_sc_hd__or2_1
*I *1145:X O *D sky130_fd_sc_hd__o21ba_1
*CAP
1 *1146:B1 0.000256405
2 *1160:A 3.2572e-05
3 *1145:X 0.000293105
4 *152:8 0.000582082
5 *1146:B1 *1162:A3 1.28035e-05
6 *1146:B1 *164:8 0.000125378
7 *152:8 *1158:A2 0
8 *152:8 *164:8 3.70094e-05
9 *152:8 *335:89 4.21594e-06
10 *152:8 *335:106 0.000137737
11 *84:14 *1146:B1 0
12 *84:18 *152:8 0
13 *91:14 *1146:B1 0.000139346
14 *91:14 *152:8 0
15 *91:33 *152:8 0.000431852
16 *103:50 *1160:A 2.93747e-05
17 *151:41 *1146:B1 0.000173442
*RES
1 *1145:X *152:8 45.8921 
2 *152:8 *1160:A 38.6214 
3 *152:8 *1146:B1 43.7379 
*END

*D_NET *153 0.00678258
*CONN
*I *1147:A1 I *D sky130_fd_sc_hd__mux2_1
*I *1166:B1 I *D sky130_fd_sc_hd__a32o_1
*I *1181:B1 I *D sky130_fd_sc_hd__a32o_1
*I *1146:Y O *D sky130_fd_sc_hd__a21oi_1
*CAP
1 *1147:A1 0.000219339
2 *1166:B1 1.04715e-05
3 *1181:B1 1.18239e-05
4 *1146:Y 0.000592617
5 *153:29 0.000314728
6 *153:18 0.00107642
7 *153:8 0.00174213
8 *1147:A1 *277:10 2.14599e-05
9 *1147:A1 *317:30 0.000163397
10 *1147:A1 *338:10 0.000389274
11 *1166:B1 *1166:A1 2.39868e-05
12 *1166:B1 *1318:A 2.39868e-05
13 *1181:B1 *1181:A1 1.18556e-05
14 *1181:B1 *1181:A2 3.34115e-05
15 *153:8 *1175:A 2.18409e-05
16 *153:8 *1178:A1_N 0.000139357
17 *153:8 *316:8 5.50106e-05
18 *153:18 *1180:C 1.56446e-05
19 *153:18 *174:17 5.3304e-05
20 *153:18 *177:10 0.00023625
21 *153:18 *317:36 3.47776e-05
22 *153:18 *317:38 0.000107538
23 *153:18 *319:30 6.58373e-05
24 *153:18 *320:8 0.000142173
25 *153:18 *320:18 2.94881e-05
26 *153:18 *320:83 0.000165468
27 *153:18 *320:96 0.000131783
28 *153:18 *338:10 0.000532368
29 *153:29 *317:30 4.70953e-05
30 *153:29 *317:36 5.10616e-05
31 *153:29 *338:10 0.000181943
32 *151:41 *153:8 0.000136743
*RES
1 *1146:Y *153:8 48.15 
2 *153:8 *153:18 47.8143 
3 *153:18 *1181:B1 38.3832 
4 *153:8 *153:29 2.61 
5 *153:29 *1166:B1 38.2796 
6 *153:29 *1147:A1 43.4271 
*END

*D_NET *154 0.000138958
*CONN
*I *1148:A I *D sky130_fd_sc_hd__clkbuf_1
*I *1147:X O *D sky130_fd_sc_hd__mux2_1
*CAP
1 *1148:A 6.9479e-05
2 *1147:X 6.9479e-05
*RES
1 *1147:X *1148:A 47.4707 
*END

*D_NET *155 0.0074645
*CONN
*I *1158:A2 I *D sky130_fd_sc_hd__o21bai_1
*I *1151:A2 I *D sky130_fd_sc_hd__a21o_1
*I *1150:B I *D sky130_fd_sc_hd__nor2_1
*I *1168:A2 I *D sky130_fd_sc_hd__a21o_1
*I *1177:A2 I *D sky130_fd_sc_hd__o22a_1
*I *1149:X O *D sky130_fd_sc_hd__or2_2
*CAP
1 *1158:A2 0.000368272
2 *1151:A2 0
3 *1150:B 2.31893e-05
4 *1168:A2 0.000381993
5 *1177:A2 0
6 *1149:X 0.000458931
7 *155:39 0.000497798
8 *155:35 0.000113611
9 *155:28 0.000631661
10 *155:18 0.00121507
11 *155:10 0.00138962
12 *1150:B *156:8 1.84917e-05
13 *1150:B *338:27 2.95526e-05
14 *1158:A2 *162:10 5.40337e-05
15 *1168:A2 *1184:A3 0.000181652
16 *155:10 *1085:C 6.33351e-05
17 *155:10 *335:53 8.9728e-05
18 *155:28 *1055:B 0.000184527
19 *155:28 *316:24 0.000107
20 *155:39 *1184:A3 8.0799e-05
21 *155:39 *156:41 0.000166522
22 *1159:A3 *155:28 0.000155068
23 *1186:A3 *1168:A2 1.13812e-05
24 *84:33 *1168:A2 0.000135707
25 *84:33 *155:39 0.000123951
26 *86:27 *1168:A2 0.000147895
27 *89:6 *155:28 9.91798e-05
28 *90:10 *155:28 0.000166522
29 *103:31 *155:28 5.3304e-05
30 *103:50 *1158:A2 0.000144501
31 *104:24 *155:10 0.000191429
32 *104:52 *1168:A2 4.76974e-05
33 *108:35 *155:28 2.18409e-05
34 *108:35 *155:35 1.14154e-05
35 *108:44 *155:10 9.88259e-05
36 *152:8 *1158:A2 0
*RES
1 *1149:X *155:10 47.1661 
2 *155:10 *155:18 23.2339 
3 *155:18 *155:28 40.8543 
4 *155:28 *1177:A2 23 
5 *155:18 *155:35 0.497143 
6 *155:35 *155:39 18.3143 
7 *155:39 *1168:A2 46.1511 
8 *155:39 *1150:B 38.6214 
9 *155:35 *1151:A2 23 
10 *155:10 *1158:A2 45.1775 
*END

*D_NET *156 0.00523505
*CONN
*I *1153:A3 I *D sky130_fd_sc_hd__a32o_1
*I *1184:A3 I *D sky130_fd_sc_hd__a32o_1
*I *1150:Y O *D sky130_fd_sc_hd__nor2_1
*CAP
1 *1153:A3 0
2 *1184:A3 0.000168857
3 *1150:Y 9.42563e-05
4 *156:41 0.00093971
5 *156:8 0.00120282
6 *1184:A3 *1184:A1 1.52479e-06
7 *156:8 *338:27 2.92911e-06
8 *156:41 *1163:B 2.33476e-05
9 *156:41 *1163:C 0.000155068
10 *156:41 *313:29 0.000101854
11 *156:41 *313:31 7.91258e-05
12 *156:41 *314:55 5.5792e-05
13 *156:41 *316:18 0.000211616
14 *156:41 *316:24 0
15 *1150:B *156:8 1.84917e-05
16 *1153:A2 *156:41 5.5792e-05
17 *1159:A3 *156:41 1.47563e-05
18 *1159:B1 *156:41 0.000183281
19 *1168:A2 *1184:A3 0.000181652
20 *84:14 *156:41 4.32581e-05
21 *84:16 *156:41 2.61802e-05
22 *84:33 *156:41 3.53893e-05
23 *89:14 *156:41 0.000163361
24 *90:10 *156:41 6.21447e-05
25 *103:31 *156:41 0.000136486
26 *103:50 *156:41 0.00021039
27 *104:52 *1184:A3 4.70806e-05
28 *108:35 *1184:A3 0.000278671
29 *108:35 *156:41 7.70737e-05
30 *151:60 *156:41 0.000416823
31 *155:39 *1184:A3 8.0799e-05
32 *155:39 *156:41 0.000166522
*RES
1 *1150:Y *156:8 39.0979 
2 *156:8 *1184:A3 43.4479 
3 *156:8 *156:41 37.2679 
4 *156:41 *1153:A3 23 
*END

*D_NET *157 0.00714837
*CONN
*I *1153:B1 I *D sky130_fd_sc_hd__a32o_1
*I *1166:A1 I *D sky130_fd_sc_hd__a32o_1
*I *1181:A1 I *D sky130_fd_sc_hd__a32o_1
*I *1151:X O *D sky130_fd_sc_hd__a21o_1
*CAP
1 *1153:B1 0
2 *1166:A1 0.000147278
3 *1181:A1 0.000988054
4 *1151:X 0.000376542
5 *157:42 0.00056374
6 *157:23 0.00123965
7 *157:6 0.00189323
8 *1166:A1 *1165:B 5.50106e-05
9 *1166:A1 *1318:A 0.000118759
10 *1166:A1 *168:8 0.000242243
11 *1181:A1 *1171:A 3.18142e-05
12 *1181:A1 *1181:A2 2.78152e-05
13 *1181:A1 *1181:A3 5.90675e-06
14 *1181:A1 *1181:B2 3.07986e-05
15 *1181:A1 *1334:A 4.78593e-05
16 *1181:A1 *166:27 0.000154771
17 *1181:A1 *166:41 1.94693e-05
18 *1181:A1 *320:18 7.4183e-05
19 *157:23 *1169:A2 3.3123e-05
20 *157:23 *166:12 0.000393624
21 *157:23 *316:18 0
22 *157:23 *316:24 0
23 *157:42 *1152:A 0.000253069
24 *157:42 *1153:B2 0.000100477
25 *157:42 *1318:A 7.53384e-06
26 *157:42 *166:8 0.000102375
27 *157:42 *313:10 3.90213e-05
28 *157:42 *313:25 8.28362e-05
29 *1166:B1 *1166:A1 2.39868e-05
30 *1181:B1 *1181:A1 1.18556e-05
31 *103:18 *157:23 8.33365e-05
32 *151:60 *157:42 0
*RES
1 *1151:X *157:6 27.9093 
2 *157:6 *1181:A1 36.7336 
3 *157:6 *157:23 42.2629 
4 *157:23 *1166:A1 26.9771 
5 *157:23 *157:42 41.9004 
6 *157:42 *1153:B1 23 
*END

*D_NET *158 0.000242072
*CONN
*I *1153:B2 I *D sky130_fd_sc_hd__a32o_1
*I *1152:X O *D sky130_fd_sc_hd__xor2_1
*CAP
1 *1153:B2 2.05586e-05
2 *1152:X 2.05586e-05
3 *1153:B2 *313:25 0.000100477
4 *157:42 *1153:B2 0.000100477
*RES
1 *1152:X *1153:B2 47.0979 
*END

*D_NET *159 0.00293517
*CONN
*I *1155:B I *D sky130_fd_sc_hd__nand2_1
*I *1161:A2 I *D sky130_fd_sc_hd__a21oi_1
*I *1158:B1_N I *D sky130_fd_sc_hd__o21bai_1
*I *1154:X O *D sky130_fd_sc_hd__and3_1
*CAP
1 *1155:B 6.32971e-05
2 *1161:A2 9.21404e-05
3 *1158:B1_N 0.000499553
4 *1154:X 0.000250266
5 *159:10 0.000759415
6 *159:6 0.000481284
7 *1155:B *234:90 0.000146822
8 *1158:B1_N *165:12 0.000159473
9 *1158:B1_N *268:19 1.35751e-05
10 *159:6 *234:90 5.87421e-05
11 *159:10 *268:19 2.94915e-05
12 *103:50 *1158:B1_N 0.000231039
13 *104:81 *1158:B1_N 6.53525e-05
14 *104:81 *159:10 3.06987e-05
15 *151:29 *1161:A2 2.1819e-05
16 *151:33 *1161:A2 3.22051e-05
*RES
1 *1154:X *159:6 26.48 
2 *159:6 *159:10 17.61 
3 *159:10 *1158:B1_N 47.8393 
4 *159:10 *1161:A2 40.0921 
5 *159:6 *1155:B 25.4236 
*END

*D_NET *160 0.000720726
*CONN
*I *1157:B1 I *D sky130_fd_sc_hd__o211a_1
*I *1155:Y O *D sky130_fd_sc_hd__nand2_1
*CAP
1 *1157:B1 7.15929e-05
2 *1155:Y 0.000154353
3 *160:10 0.000225946
4 *1157:B1 *1157:C1 1.8788e-05
5 *1157:B1 *315:10 4.53082e-05
6 *160:10 *234:90 3.22051e-05
7 *1153:A2 *1157:B1 3.31122e-05
8 *1156:A3 *1157:B1 5.56279e-05
9 *1157:A1 *1157:B1 5.47983e-06
10 *1157:A2 *160:10 1.51481e-05
11 *104:81 *1157:B1 1.35714e-05
12 *151:93 *160:10 4.95928e-05
*RES
1 *1155:Y *160:10 40.5271 
2 *160:10 *1157:B1 40.0714 
*END

*D_NET *161 0.000163765
*CONN
*I *1157:C1 I *D sky130_fd_sc_hd__o211a_1
*I *1156:X O *D sky130_fd_sc_hd__a31o_1
*CAP
1 *1157:C1 2.59008e-05
2 *1156:X 2.59008e-05
3 *1157:C1 *1156:B1 3.22051e-05
4 *1156:A3 *1157:C1 6.09702e-05
5 *1157:B1 *1157:C1 1.8788e-05
*RES
1 *1156:X *1157:C1 47.1186 
*END

*D_NET *162 0.00058857
*CONN
*I *1162:A2 I *D sky130_fd_sc_hd__a31oi_1
*I *1158:Y O *D sky130_fd_sc_hd__o21bai_1
*CAP
1 *1162:A2 8.35897e-05
2 *1158:Y 0.000167598
3 *162:10 0.000251187
4 *1162:A2 *1162:A3 2.86398e-05
5 *1162:A2 *316:8 3.52233e-06
6 *162:10 *164:8 0
7 *1158:A2 *162:10 5.40337e-05
*RES
1 *1158:Y *162:10 40.2993 
2 *162:10 *1162:A2 39.0979 
*END

*D_NET *163 9.44624e-05
*CONN
*I *1160:B I *D sky130_fd_sc_hd__or2_1
*I *1159:X O *D sky130_fd_sc_hd__o31a_1
*CAP
1 *1160:B 3.2539e-05
2 *1159:X 3.2539e-05
3 *103:50 *1160:B 2.93845e-05
*RES
1 *1159:X *1160:B 46.6214 
*END

*D_NET *164 0.00401221
*CONN
*I *1162:A3 I *D sky130_fd_sc_hd__a31oi_1
*I *1178:A2_N I *D sky130_fd_sc_hd__a2bb2o_1
*I *1160:X O *D sky130_fd_sc_hd__or2_1
*CAP
1 *1162:A3 0.000219189
2 *1178:A2_N 0
3 *1160:X 9.08388e-05
4 *164:18 0.00134662
5 *164:8 0.00165665
6 *1162:A3 *316:8 1.59071e-05
7 *164:18 *230:96 0
8 *164:18 *338:10 3.49583e-05
9 *1146:B1 *1162:A3 1.28035e-05
10 *1146:B1 *164:8 0.000125378
11 *1162:A2 *1162:A3 2.86398e-05
12 *151:41 *1162:A3 0.000367067
13 *151:66 *164:18 7.71407e-05
14 *152:8 *164:8 3.70094e-05
15 *162:10 *164:8 0
*RES
1 *1160:X *164:8 40.0818 
2 *164:8 *164:18 34.8291 
3 *164:18 *1178:A2_N 23 
4 *164:8 *1162:A3 43.6032 
*END

*D_NET *165 0.00052575
*CONN
*I *1162:B1 I *D sky130_fd_sc_hd__a31oi_1
*I *1161:Y O *D sky130_fd_sc_hd__a21oi_1
*CAP
1 *1162:B1 0
2 *1161:Y 0.000115248
3 *165:12 0.000115248
4 *165:12 *268:19 0.000128438
5 *1158:B1_N *165:12 0.000159473
6 *104:81 *165:12 7.34394e-06
*RES
1 *1161:Y *165:12 41.0243 
2 *165:12 *1162:B1 38 
*END

*D_NET *166 0.00722079
*CONN
*I *1164:B I *D sky130_fd_sc_hd__or2_1
*I *1165:B I *D sky130_fd_sc_hd__nand2_1
*I *1171:B I *D sky130_fd_sc_hd__and2_1
*I *1179:A3 I *D sky130_fd_sc_hd__a31o_1
*I *1169:A2 I *D sky130_fd_sc_hd__a21o_1
*I *1163:X O *D sky130_fd_sc_hd__and4_1
*CAP
1 *1164:B 0.000155933
2 *1165:B 1.49804e-05
3 *1171:B 0
4 *1179:A3 0
5 *1169:A2 0.000389504
6 *1163:X 0.000413217
7 *166:41 0.000464525
8 *166:27 0.00072956
9 *166:12 0.00108579
10 *166:10 0.00048314
11 *166:8 0.000606056
12 *1164:B *1318:A 3.88725e-05
13 *1164:B *277:10 4.15442e-05
14 *1164:B *317:17 3.28357e-06
15 *1164:B *317:30 0
16 *1165:B *1318:A 5.50106e-05
17 *1169:A2 *1051:A 4.41821e-06
18 *1169:A2 *174:48 7.41204e-05
19 *1169:A2 *183:10 8.57485e-05
20 *1169:A2 *316:24 0
21 *1169:A2 *317:38 0.000116641
22 *1169:A2 *317:40 0.000139503
23 *1169:A2 *318:30 3.50862e-06
24 *1169:A2 *318:47 5.89997e-05
25 *1169:A2 *320:59 6.59904e-05
26 *1169:A2 *321:80 0
27 *166:8 *1318:A 9.67842e-05
28 *166:10 *1318:A 1.55246e-05
29 *166:10 *277:10 2.54692e-05
30 *166:12 *1165:A 4.93359e-05
31 *166:12 *178:8 8.27131e-05
32 *166:12 *317:36 0.000229352
33 *166:12 *317:38 0.000201361
34 *166:27 *173:10 2.93747e-05
35 *166:41 *1177:B1 0
36 *166:41 *1179:A2 2.93335e-05
37 *166:41 *174:19 0.000164282
38 *166:41 *174:68 0.000236614
39 *166:41 *319:106 2.89362e-05
40 *166:41 *320:96 0.000242992
41 *1166:A1 *1165:B 5.50106e-05
42 *1181:A1 *166:27 0.000154771
43 *1181:A1 *166:41 1.94693e-05
44 *157:23 *1169:A2 3.3123e-05
45 *157:23 *166:12 0.000393624
46 *157:42 *166:8 0.000102375
*RES
1 *1163:X *166:8 43.8621 
2 *166:8 *166:10 0.849286 
3 *166:10 *166:12 11.7657 
4 *166:12 *1169:A2 46.5964 
5 *166:12 *166:27 20.4064 
6 *166:27 *166:41 39.0936 
7 *166:41 *1179:A3 23 
8 *166:27 *1171:B 23 
9 *166:10 *1165:B 38.6214 
10 *166:8 *1164:B 40.9414 
*END

*D_NET *167 0.000324844
*CONN
*I *1166:A2 I *D sky130_fd_sc_hd__a32o_1
*I *1164:X O *D sky130_fd_sc_hd__or2_1
*CAP
1 *1166:A2 0
2 *1164:X 5.88243e-05
3 *167:8 5.88243e-05
4 *167:8 *338:10 0.00014028
5 *151:66 *167:8 6.69151e-05
*RES
1 *1164:X *167:8 39.9057 
2 *167:8 *1166:A2 38 
*END

*D_NET *168 0.00071903
*CONN
*I *1166:A3 I *D sky130_fd_sc_hd__a32o_1
*I *1165:Y O *D sky130_fd_sc_hd__nand2_1
*CAP
1 *1166:A3 0
2 *1165:Y 0.000221687
3 *168:8 0.000221687
4 *168:8 *1318:A 3.34129e-05
5 *1166:A1 *168:8 0.000242243
*RES
1 *1165:Y *168:8 27.3293 
2 *168:8 *1166:A3 23 
*END

*D_NET *169 0.00264717
*CONN
*I *1174:A1 I *D sky130_fd_sc_hd__o211a_1
*I *1167:X O *D sky130_fd_sc_hd__and4b_1
*CAP
1 *1174:A1 0
2 *1167:X 0.000867726
3 *169:12 0.000119254
4 *169:6 0.00098698
5 *169:6 *1051:A 0.000123415
6 *169:6 *1167:C 3.46659e-05
7 *169:6 *258:77 2.34132e-05
8 *169:6 *318:14 0.000323913
9 *169:12 *170:16 1.13812e-05
10 *86:16 *169:6 5.58003e-05
11 *93:8 *169:6 3.95707e-06
12 *104:52 *169:6 9.66668e-05
*RES
1 *1167:X *169:6 35.5321 
2 *169:6 *169:12 31.9057 
3 *169:12 *1174:A1 23 
*END

*D_NET *170 0.00189644
*CONN
*I *1174:A2 I *D sky130_fd_sc_hd__o211a_1
*I *1185:A1 I *D sky130_fd_sc_hd__a31o_1
*I *1168:X O *D sky130_fd_sc_hd__a21o_1
*CAP
1 *1174:A2 0
2 *1185:A1 0
3 *1168:X 0.00049813
4 *170:16 0.000222652
5 *170:8 0.000720782
6 *170:8 *1169:A1 5.58003e-05
7 *170:8 *1169:B1 0.000120333
8 *170:8 *1174:B1 5.82215e-05
9 *170:8 *1174:C1 5.82853e-05
10 *170:8 *319:38 1.09834e-05
11 *170:8 *319:57 3.85853e-05
12 *170:16 *175:8 0.000101282
13 *169:12 *170:16 1.13812e-05
*RES
1 *1168:X *170:8 32.6943 
2 *170:8 *170:16 33.5836 
3 *170:16 *1185:A1 23 
4 *170:8 *1174:A2 23 
*END

*D_NET *171 0.000324521
*CONN
*I *1174:B1 I *D sky130_fd_sc_hd__o211a_1
*I *1169:X O *D sky130_fd_sc_hd__a21o_1
*CAP
1 *1174:B1 6.78244e-05
2 *1169:X 6.78244e-05
3 *1174:B1 *1174:C1 5.58003e-05
4 *1174:B1 *319:38 5.29205e-05
5 *1174:B1 *319:57 2.193e-05
6 *170:8 *1174:B1 5.82215e-05
*RES
1 *1169:X *1174:B1 48.0714 
*END

*D_NET *172 0.00242977
*CONN
*I *1179:A2 I *D sky130_fd_sc_hd__a31o_1
*I *1171:A I *D sky130_fd_sc_hd__and2_1
*I *1170:X O *D sky130_fd_sc_hd__and2_1
*CAP
1 *1179:A2 0.000368562
2 *1171:A 0.000103366
3 *1170:X 0.000295863
4 *172:10 0.000767792
5 *1171:A *1181:A2 5.56356e-05
6 *1171:A *1181:A3 2.46906e-05
7 *1171:A *1334:A 0.000100069
8 *1171:A *320:18 9.77405e-05
9 *1179:A2 *1270:RESET_B 0
10 *1179:A2 *179:8 0.000312959
11 *1179:A2 *319:12 1.68817e-05
12 *1179:A2 *320:18 0.000146668
13 *172:10 *319:30 0
14 *172:10 *320:18 1.12863e-05
15 *172:10 *320:22 5.93746e-05
16 *172:10 *320:41 7.73462e-06
17 *1181:A1 *1171:A 3.18142e-05
18 *166:41 *1179:A2 2.93335e-05
*RES
1 *1170:X *172:10 42.3086 
2 *172:10 *1171:A 41.0036 
3 *172:10 *1179:A2 45.83 
*END

*D_NET *173 0.000469357
*CONN
*I *1172:A I *D sky130_fd_sc_hd__clkbuf_2
*I *1171:X O *D sky130_fd_sc_hd__and2_1
*CAP
1 *1172:A 0
2 *1171:X 0.000104002
3 *173:10 0.000104002
4 *173:10 *174:19 0.000110913
5 *173:10 *174:68 1.01436e-05
6 *151:66 *173:10 0.000110922
7 *166:27 *173:10 2.93747e-05
*RES
1 *1171:X *173:10 40.175 
2 *173:10 *1172:A 38 
*END

*D_NET *174 0.00510219
*CONN
*I *1176:B I *D sky130_fd_sc_hd__nand2_1
*I *1177:B1 I *D sky130_fd_sc_hd__o22a_1
*I *1173:B I *D sky130_fd_sc_hd__nand2_1
*I *1182:D I *D sky130_fd_sc_hd__nand4_1
*I *1183:A3 I *D sky130_fd_sc_hd__a31o_1
*I *1180:C I *D sky130_fd_sc_hd__nand3_1
*I *1172:X O *D sky130_fd_sc_hd__clkbuf_2
*CAP
1 *1176:B 9.09785e-06
2 *1177:B1 0.000227834
3 *1173:B 3.4428e-05
4 *1182:D 0
5 *1183:A3 0.000220568
6 *1180:C 7.8043e-05
7 *1172:X 0
8 *174:68 0.000407462
9 *174:48 0.000490458
10 *174:21 0.000824891
11 *174:19 0.000369023
12 *174:17 0.00042311
13 *174:4 0.000109892
14 *1176:B *1176:A 8.0163e-06
15 *1176:B *319:106 3.59396e-05
16 *1177:B1 *1055:B 7.33095e-05
17 *1177:B1 *1176:A 1.14154e-05
18 *1177:B1 *1177:B2 0.000208286
19 *1177:B1 *177:10 9.41704e-05
20 *1177:B1 *319:106 1.54983e-05
21 *1180:C *320:96 5.56279e-05
22 *1183:A3 *1185:A3 5.56356e-05
23 *1183:A3 *175:8 0
24 *1183:A3 *320:41 5.36496e-06
25 *1183:A3 *321:37 0.000135468
26 *174:21 *320:41 6.90048e-05
27 *174:48 *317:40 7.41204e-05
28 *174:68 *319:106 6.69016e-05
29 *1169:A2 *174:48 7.41204e-05
30 *60:10 *1183:A3 4.78497e-05
31 *151:66 *174:19 0.000142934
32 *151:66 *174:21 5.75756e-06
33 *151:66 *174:68 0.000137061
34 *153:18 *1180:C 1.56446e-05
35 *153:18 *174:17 5.3304e-05
36 *166:41 *1177:B1 0
37 *166:41 *174:19 0.000164282
38 *166:41 *174:68 0.000236614
39 *173:10 *174:19 0.000110913
40 *173:10 *174:68 1.01436e-05
*RES
1 *1172:X *174:4 23 
2 *174:4 *1180:C 24.595 
3 *174:4 *174:17 15.6214 
4 *174:17 *174:19 5.42714 
5 *174:19 *174:21 1.72964 
6 *174:21 *1183:A3 41.9875 
7 *174:21 *174:48 32.8542 
8 *174:48 *1182:D 23 
9 *174:19 *1173:B 38.6214 
10 *174:17 *174:68 20.2407 
11 *174:68 *1177:B1 29.2971 
12 *174:68 *1176:B 24.015 
*END

*D_NET *175 0.00102933
*CONN
*I *1174:C1 I *D sky130_fd_sc_hd__o211a_1
*I *1173:Y O *D sky130_fd_sc_hd__nand2_1
*CAP
1 *1174:C1 1.10877e-05
2 *1173:Y 0.000263203
3 *175:8 0.000274291
4 *175:8 *1059:A 9.81117e-05
5 *175:8 *319:46 0.000134776
6 *175:8 *320:41 3.24914e-05
7 *1174:B1 *1174:C1 5.58003e-05
8 *1183:A3 *175:8 0
9 *170:8 *1174:C1 5.82853e-05
10 *170:16 *175:8 0.000101282
*RES
1 *1173:Y *175:8 43.075 
2 *175:8 *1174:C1 38.6214 
*END

*D_NET *176 0.000686081
*CONN
*I *1178:A1_N I *D sky130_fd_sc_hd__a2bb2o_1
*I *1175:Y O *D sky130_fd_sc_hd__inv_2
*CAP
1 *1178:A1_N 0.000140898
2 *1175:Y 0.000140898
3 *1178:A1_N *1175:A 0.000264929
4 *153:8 *1178:A1_N 0.000139357
*RES
1 *1175:Y *1178:A1_N 49.48 
*END

*D_NET *177 0.00101044
*CONN
*I *1178:B1 I *D sky130_fd_sc_hd__a2bb2o_1
*I *1176:Y O *D sky130_fd_sc_hd__nand2_1
*CAP
1 *1178:B1 0
2 *1176:Y 0.00022188
3 *177:10 0.00022188
4 *177:10 *317:36 0.000201482
5 *177:10 *317:38 3.47781e-05
6 *1177:B1 *177:10 9.41704e-05
7 *153:18 *177:10 0.00023625
*RES
1 *1176:Y *177:10 42.4121 
2 *177:10 *1178:B1 38 
*END

*D_NET *178 0.000654372
*CONN
*I *1178:B2 I *D sky130_fd_sc_hd__a2bb2o_1
*I *1177:X O *D sky130_fd_sc_hd__o22a_1
*CAP
1 *1178:B2 0.000160068
2 *1177:X 4.79336e-05
3 *178:8 0.000208001
4 *1178:B2 *1175:A 7.29428e-05
5 *178:8 *317:36 8.27131e-05
6 *166:12 *178:8 8.27131e-05
*RES
1 *1177:X *178:8 39.2014 
2 *178:8 *1178:B2 40.0714 
*END

*D_NET *179 0.00160818
*CONN
*I *1181:A2 I *D sky130_fd_sc_hd__a32o_1
*I *1179:X O *D sky130_fd_sc_hd__a31o_1
*CAP
1 *1181:A2 0.000120339
2 *1179:X 0.000158987
3 *179:8 0.000279326
4 *1181:A2 *1181:A3 0.000351776
5 *1181:A2 *1181:B2 3.22051e-05
6 *1181:A2 *320:18 2.31591e-05
7 *179:8 *180:8 0.000185373
8 *179:8 *319:18 2.71929e-05
9 *1171:A *1181:A2 5.56356e-05
10 *1179:A2 *179:8 0.000312959
11 *1181:A1 *1181:A2 2.78152e-05
12 *1181:B1 *1181:A2 3.34115e-05
*RES
1 *1179:X *179:8 42.3707 
2 *179:8 *1181:A2 41.9564 
*END

*D_NET *180 0.00161898
*CONN
*I *1181:A3 I *D sky130_fd_sc_hd__a32o_1
*I *1180:Y O *D sky130_fd_sc_hd__nand3_1
*CAP
1 *1181:A3 0.000387964
2 *1180:Y 0.000122421
3 *180:8 0.000510385
4 *180:8 *319:18 3.04661e-05
5 *1171:A *1181:A3 2.46906e-05
6 *1181:A1 *1181:A3 5.90675e-06
7 *1181:A2 *1181:A3 0.000351776
8 *179:8 *180:8 0.000185373
*RES
1 *1180:Y *180:8 40.61 
2 *180:8 *1181:A3 43.7586 
*END

*D_NET *181 0.000570738
*CONN
*I *1185:A2 I *D sky130_fd_sc_hd__a31o_1
*I *1182:Y O *D sky130_fd_sc_hd__nand4_1
*CAP
1 *1185:A2 0.000113444
2 *1182:Y 0.000113444
3 *1185:A2 *1185:A3 5.55743e-06
4 *1185:A2 *1185:B1 5.28068e-05
5 *1185:A2 *319:46 5.3304e-05
6 *1185:A2 *320:43 9.09342e-06
7 *1185:A2 *321:37 0.000223088
*RES
1 *1182:Y *1185:A2 49.0243 
*END

*D_NET *182 0.000332582
*CONN
*I *1185:A3 I *D sky130_fd_sc_hd__a31o_1
*I *1183:X O *D sky130_fd_sc_hd__a31o_1
*CAP
1 *1185:A3 5.19896e-05
2 *1183:X 5.19896e-05
3 *1185:A3 *1185:B1 5.55743e-06
4 *1185:A3 *321:37 0.000106217
5 *1183:A3 *1185:A3 5.56356e-05
6 *1185:A2 *1185:A3 5.55743e-06
7 *60:10 *1185:A3 5.56356e-05
*RES
1 *1183:X *1185:A3 48.3614 
*END

*D_NET *183 0.00220347
*CONN
*I *1185:B1 I *D sky130_fd_sc_hd__a31o_1
*I *1184:X O *D sky130_fd_sc_hd__a32o_1
*CAP
1 *1185:B1 0.000226728
2 *1184:X 0.000243755
3 *183:10 0.000470483
4 *1185:B1 *319:46 2.64616e-05
5 *1185:B1 *320:43 0.000229395
6 *1185:B1 *321:37 2.31724e-05
7 *1185:B1 *321:50 9.86122e-05
8 *183:10 *1052:B 0.000100486
9 *183:10 *1184:A1 0.000364774
10 *183:10 *318:47 1.16551e-05
11 *183:10 *320:59 0.000117031
12 *183:10 *321:50 3.77062e-05
13 *1169:A2 *183:10 8.57485e-05
14 *1185:A2 *1185:B1 5.28068e-05
15 *1185:A3 *1185:B1 5.55743e-06
16 *86:6 *183:10 5.5792e-05
17 *86:27 *183:10 5.3304e-05
*RES
1 *1184:X *183:10 44.5871 
2 *183:10 *1185:B1 43.5514 
*END

*D_NET *184 0.00931911
*CONN
*I *1222:D I *D sky130_fd_sc_hd__or4_1
*I *1188:A I *D sky130_fd_sc_hd__nor2_1
*I *1196:A2 I *D sky130_fd_sc_hd__o31a_1
*I *1210:D I *D sky130_fd_sc_hd__or4_1
*I *1219:C I *D sky130_fd_sc_hd__or4_1
*I *1213:C I *D sky130_fd_sc_hd__or4_1
*I *1199:C I *D sky130_fd_sc_hd__or4_1
*I *1207:C I *D sky130_fd_sc_hd__or4_1
*I *1216:C I *D sky130_fd_sc_hd__or4_1
*I *1203:C I *D sky130_fd_sc_hd__or4_1
*I *1186:X O *D sky130_fd_sc_hd__o31a_2
*CAP
1 *1222:D 6.89225e-05
2 *1188:A 0
3 *1196:A2 0
4 *1210:D 2.44744e-05
5 *1219:C 8.00826e-05
6 *1213:C 0
7 *1199:C 0
8 *1207:C 0
9 *1216:C 0
10 *1203:C 0.000102407
11 *1186:X 0.000642319
12 *184:102 0.00015837
13 *184:96 0.000669584
14 *184:57 0.000130247
15 *184:51 0.000350064
16 *184:44 0.000219818
17 *184:26 0.000332663
18 *184:16 0.000381918
19 *184:14 0.000511117
20 *184:12 0.00044841
21 *184:10 0.000370869
22 *184:6 0.00131092
23 *1203:C *1203:B 0.000145236
24 *1203:C *1203:D 8.02945e-05
25 *1203:C *193:52 2.02517e-05
26 *1210:D *1210:C 5.41288e-05
27 *1210:D *322:82 9.84794e-05
28 *1219:C *199:10 1.59094e-05
29 *1219:C *322:32 9.41704e-05
30 *184:6 *1367:A 3.71369e-05
31 *184:6 *258:60 0.000133125
32 *184:10 *250:24 0.000182158
33 *184:12 *250:24 7.81176e-05
34 *184:14 *1207:D 1.13812e-05
35 *184:14 *199:10 5.29888e-05
36 *184:14 *250:24 0.000192665
37 *184:16 *1207:D 0.00021739
38 *184:26 *1203:B 9.24795e-06
39 *184:26 *1207:D 3.673e-05
40 *184:26 *250:24 6.00097e-05
41 *184:51 *1207:B 9.41704e-05
42 *184:51 *1207:D 5.3304e-05
43 *184:51 *1213:D 0.000100486
44 *184:51 *324:42 0.000233414
45 *184:57 *1199:B 0.000119948
46 *184:57 *1199:D 4.49603e-05
47 *184:57 *188:8 8.0612e-06
48 *184:96 *308:10 4.37586e-06
49 *184:102 *1320:A 3.70094e-05
50 *184:102 *185:8 7.461e-05
51 *184:102 *230:24 0.000339224
52 *184:102 *333:14 0.000139647
53 *1213:A *184:51 0.000186032
54 *1216:A *184:26 0.000102971
55 *91:68 *184:6 2.93431e-05
56 *109:8 *184:51 0.000115813
57 *109:51 *1222:D 2.64616e-05
58 *109:51 *184:96 0.000166062
59 *110:55 *184:102 2.87373e-05
60 *112:14 *184:10 9.28739e-05
*RES
1 *1186:X *184:6 31.2443 
2 *184:6 *184:10 20.075 
3 *184:10 *184:12 2.25786 
4 *184:12 *184:14 6.13143 
5 *184:14 *184:16 2.96214 
6 *184:16 *184:26 19.8264 
7 *184:26 *1203:C 26.3971 
8 *184:26 *1216:C 23 
9 *184:16 *184:44 15 
10 *184:44 *1207:C 23 
11 *184:44 *184:51 6.33857 
12 *184:51 *184:57 33.3143 
13 *184:57 *1199:C 23 
14 *184:51 *1213:C 23 
15 *184:14 *1219:C 39.595 
16 *184:12 *1210:D 39.0979 
17 *184:10 *1196:A2 38 
18 *184:6 *184:96 5.86214 
19 *184:96 *184:102 35.075 
20 *184:102 *1188:A 23 
21 *184:96 *1222:D 24.1186 
*END

*D_NET *185 0.00142794
*CONN
*I *1188:B I *D sky130_fd_sc_hd__nor2_1
*I *1196:A3 I *D sky130_fd_sc_hd__o31a_1
*I *1187:Y O *D sky130_fd_sc_hd__nor2_1
*CAP
1 *1188:B 0
2 *1196:A3 0.000160925
3 *1187:Y 8.65597e-05
4 *185:10 0.000160925
5 *185:8 8.65597e-05
6 *1196:A3 *1189:A1 4.41403e-05
7 *1196:A3 *1189:A2 6.18285e-05
8 *1196:A3 *1189:B1 0.000141052
9 *1196:A3 *230:41 0.000235975
10 *1196:B1 *1196:A3 5.3304e-05
11 *110:33 *1196:A3 0.000158696
12 *110:55 *185:8 0.000163361
13 *184:102 *185:8 7.461e-05
*RES
1 *1187:Y *185:8 40.2579 
2 *185:8 *185:10 15 
3 *185:10 *1196:A3 28.5721 
4 *185:10 *1188:B 23 
*END

*D_NET *186 0.00233275
*CONN
*I *1190:A2 I *D sky130_fd_sc_hd__a21oi_1
*I *1193:S I *D sky130_fd_sc_hd__mux2_1
*I *1188:Y O *D sky130_fd_sc_hd__nor2_1
*CAP
1 *1190:A2 4.76555e-05
2 *1193:S 0.00026579
3 *1188:Y 0.000266273
4 *186:8 0.000579718
5 *1190:A2 *266:21 0.000169674
6 *1190:A2 *311:12 0.000159531
7 *1193:S *1193:A0 8.07592e-05
8 *1193:S *240:23 0.000112823
9 *1193:S *266:21 8.94487e-05
10 *1193:S *311:12 0.000318439
11 *186:8 *187:14 0.000242639
*RES
1 *1188:Y *186:8 41.48 
2 *186:8 *1193:S 44.4421 
3 *186:8 *1190:A2 40.2579 
*END

*D_NET *187 0.0018707
*CONN
*I *1190:B1 I *D sky130_fd_sc_hd__a21oi_1
*I *1189:Y O *D sky130_fd_sc_hd__a21oi_1
*CAP
1 *1190:B1 4.70984e-05
2 *1189:Y 0.000413483
3 *187:14 0.000460581
4 *187:14 *230:41 0.000264559
5 *187:14 *240:23 7.13157e-05
6 *187:14 *258:38 7.06124e-05
7 *187:14 *266:21 0.000103555
8 *187:14 *322:8 5.67058e-05
9 *187:14 *322:16 2.44913e-05
10 *1272:D *187:14 2.93747e-05
11 *61:8 *187:14 8.62876e-05
12 *186:8 *187:14 0.000242639
*RES
1 *1189:Y *187:14 48.4193 
2 *187:14 *1190:B1 38.6214 
*END

*D_NET *188 0.00219272
*CONN
*I *1192:C I *D sky130_fd_sc_hd__and3_1
*I *1213:D I *D sky130_fd_sc_hd__or4_1
*I *1199:D I *D sky130_fd_sc_hd__or4_1
*I *1191:X O *D sky130_fd_sc_hd__or2_1
*CAP
1 *1192:C 0.000239865
2 *1213:D 4.51931e-05
3 *1199:D 0.000110137
4 *1191:X 0
5 *188:8 0.000405703
6 *188:6 0.000490239
7 *1192:C *1193:A0 0.000154138
8 *1192:C *1210:C 0
9 *1192:C *1320:A 3.74442e-05
10 *1192:C *322:82 1.95448e-05
11 *1192:C *323:16 0.000141572
12 *1199:D *324:50 0.000139023
13 *188:8 *322:32 1.04213e-05
14 *188:8 *323:16 3.90213e-05
15 *1192:B *1192:C 2.45549e-06
16 *110:10 *1192:C 8.4047e-05
17 *110:55 *1192:C 0.000120405
18 *184:51 *1213:D 0.000100486
19 *184:57 *1199:D 4.49603e-05
20 *184:57 *188:8 8.0612e-06
*RES
1 *1191:X *188:6 38 
2 *188:6 *188:8 4.01857 
3 *188:8 *1199:D 40.8793 
4 *188:8 *1213:D 39.0979 
5 *188:6 *1192:C 43.655 
*END

*D_NET *189 0.00046476
*CONN
*I *1193:A1 I *D sky130_fd_sc_hd__mux2_1
*I *1192:X O *D sky130_fd_sc_hd__and3_1
*CAP
1 *1193:A1 0.000164157
2 *1192:X 0.000164157
3 *1193:A1 *1193:A0 4.05745e-05
4 *1193:A1 *322:82 9.58714e-05
*RES
1 *1192:X *1193:A1 48.0507 
*END

*D_NET *190 0.00106568
*CONN
*I *1194:A I *D sky130_fd_sc_hd__clkbuf_1
*I *1193:X O *D sky130_fd_sc_hd__mux2_1
*CAP
1 *1194:A 5.57245e-05
2 *1193:X 0.000153849
3 *190:8 0.000209574
4 *1194:A *311:6 0.000124874
5 *1194:A *323:10 0.000233211
6 *190:8 *240:23 0.000175676
7 *190:8 *258:38 0.000112776
*RES
1 *1193:X *190:8 42.7229 
2 *190:8 *1194:A 40.5271 
*END

*D_NET *191 0.000343307
*CONN
*I *1197:A2 I *D sky130_fd_sc_hd__a21oi_1
*I *1195:X O *D sky130_fd_sc_hd__or2_1
*CAP
1 *1197:A2 3.16101e-05
2 *1195:X 4.00707e-05
3 *191:8 7.16809e-05
4 *1197:A2 *1062:A1 0
5 *1197:A2 *1197:B1 1.37232e-05
6 *191:8 *192:14 8.62876e-05
7 *191:8 *334:8 8.85189e-05
8 *1197:A1 *1197:A2 1.14154e-05
*RES
1 *1195:X *191:8 39.2014 
2 *191:8 *1197:A2 38.8493 
*END

*D_NET *192 0.00217047
*CONN
*I *1197:B1 I *D sky130_fd_sc_hd__a21oi_1
*I *1196:X O *D sky130_fd_sc_hd__o31a_1
*CAP
1 *1197:B1 8.91121e-05
2 *1196:X 0.000468711
3 *192:14 0.000557824
4 *192:14 *1061:A 5.73288e-05
5 *192:14 *1189:A2 0.000248317
6 *192:14 *232:14 0
7 *192:14 *232:85 0.000327251
8 *192:14 *334:8 1.79046e-05
9 *192:14 *334:10 5.62433e-06
10 *1063:B1 *1197:B1 4.06849e-05
11 *1197:A2 *1197:B1 1.37232e-05
12 *94:6 *192:14 0.000104475
13 *94:20 *192:14 0.000147848
14 *95:6 *1197:B1 5.37348e-06
15 *191:8 *192:14 8.62876e-05
*RES
1 *1196:X *192:14 49.2686 
2 *192:14 *1197:B1 39.595 
*END

*D_NET *193 0.0094761
*CONN
*I *1222:C I *D sky130_fd_sc_hd__or4_1
*I *1219:B I *D sky130_fd_sc_hd__or4_1
*I *1210:C I *D sky130_fd_sc_hd__or4_1
*I *1207:B I *D sky130_fd_sc_hd__or4_1
*I *1216:B I *D sky130_fd_sc_hd__or4_1
*I *1203:B I *D sky130_fd_sc_hd__or4_1
*I *1213:B I *D sky130_fd_sc_hd__or4_1
*I *1199:B I *D sky130_fd_sc_hd__or4_1
*I *1198:X O *D sky130_fd_sc_hd__or3_2
*CAP
1 *1222:C 0
2 *1219:B 0
3 *1210:C 0.000401271
4 *1207:B 7.65495e-05
5 *1216:B 0
6 *1203:B 0.00012077
7 *1213:B 0
8 *1199:B 0.000301336
9 *1198:X 0.000217873
10 *193:52 0.000430936
11 *193:40 0.000468504
12 *193:38 0.000483058
13 *193:36 0.000339507
14 *193:14 0.000376337
15 *193:12 0.000930055
16 *193:10 0.000733421
17 *1199:B *194:8 1.01436e-05
18 *1199:B *240:23 0
19 *1199:B *324:50 5.37348e-06
20 *1199:B *330:25 0
21 *1210:C *322:82 7.1915e-05
22 *193:10 *230:24 5.79413e-06
23 *193:10 *258:46 0.000135037
24 *193:10 *311:12 0.000134777
25 *193:10 *333:14 0
26 *193:12 *1320:A 3.82956e-05
27 *193:12 *230:24 0.000209434
28 *193:12 *311:12 0.00100901
29 *193:12 *322:16 0.000108681
30 *193:12 *322:18 0.000244526
31 *193:12 *322:20 0.000221364
32 *193:12 *322:32 5.49796e-05
33 *193:36 *208:16 0.000111704
34 *193:36 *322:32 0.000364782
35 *193:52 *206:10 0.000182826
36 *193:52 *330:25 0
37 *1192:C *1210:C 0
38 *1203:C *1203:B 0.000145236
39 *1203:C *193:52 2.02517e-05
40 *1210:B *1210:C 0.000139754
41 *1210:D *1210:C 5.41288e-05
42 *1216:A *1203:B 5.37348e-06
43 *1216:A *193:40 2.45092e-05
44 *1216:A *193:52 0.000391923
45 *109:8 *1207:B 5.3304e-05
46 *109:21 *1210:C 7.73447e-05
47 *109:21 *193:40 8.57577e-05
48 *109:32 *1210:C 0.000404309
49 *110:10 *1210:C 0
50 *110:33 *1210:C 6.25829e-05
51 *184:26 *1203:B 9.24795e-06
52 *184:51 *1207:B 9.41704e-05
53 *184:57 *1199:B 0.000119948
*RES
1 *1198:X *193:10 41.48 
2 *193:10 *193:12 15.2871 
3 *193:12 *193:14 1.20143 
4 *193:14 *1199:B 43.3443 
5 *193:14 *1213:B 38 
6 *193:12 *193:36 20.3857 
7 *193:36 *193:38 15 
8 *193:38 *193:40 1.55357 
9 *193:40 *193:52 22.8093 
10 *193:52 *1203:B 25.0507 
11 *193:52 *1216:B 23 
12 *193:40 *1207:B 39.595 
13 *193:38 *1210:C 47.9636 
14 *193:36 *1219:B 23 
15 *193:10 *1222:C 38 
*END

*D_NET *194 0.000887312
*CONN
*I *1200:S I *D sky130_fd_sc_hd__mux2_1
*I *1199:X O *D sky130_fd_sc_hd__or4_1
*CAP
1 *1200:S 0.000136785
2 *1199:X 0.000176931
3 *194:8 0.000313716
4 *1200:S *1201:A 0
5 *1200:S *1324:A 2.65879e-05
6 *1200:S *270:23 3.08847e-05
7 *194:8 *240:10 2.96909e-05
8 *194:8 *240:23 4.41619e-05
9 *194:8 *330:25 0
10 *1199:B *194:8 1.01436e-05
11 *64:10 *194:8 3.21327e-05
12 *93:46 *194:8 8.62783e-05
*RES
1 *1199:X *194:8 42.0186 
2 *194:8 *1200:S 40.9207 
*END

*D_NET *195 0.000274523
*CONN
*I *1201:A I *D sky130_fd_sc_hd__clkbuf_1
*I *1200:X O *D sky130_fd_sc_hd__mux2_1
*CAP
1 *1201:A 8.11566e-05
2 *1200:X 8.11566e-05
3 *1201:A *1324:A 7.99217e-05
4 *1201:A *270:23 0
5 *1200:S *1201:A 0
6 *64:10 *1201:A 3.22879e-05
*RES
1 *1200:X *1201:A 48.4236 
*END

*D_NET *196 0.000475018
*CONN
*I *1216:D I *D sky130_fd_sc_hd__or4_1
*I *1203:D I *D sky130_fd_sc_hd__or4_1
*I *1202:X O *D sky130_fd_sc_hd__or2b_1
*CAP
1 *1216:D 0
2 *1203:D 0.000108034
3 *1202:X 8.77084e-05
4 *196:8 0.000195743
5 *1203:D *1203:A 3.23857e-06
6 *1203:C *1203:D 8.02945e-05
*RES
1 *1202:X *196:8 39.5536 
2 *196:8 *1203:D 39.9679 
3 *196:8 *1216:D 38 
*END

*D_NET *197 0.00299348
*CONN
*I *1204:S I *D sky130_fd_sc_hd__mux2_1
*I *1203:X O *D sky130_fd_sc_hd__or4_1
*CAP
1 *1204:S 0
2 *1203:X 8.05071e-05
3 *197:16 0.00106736
4 *197:8 0.00114787
5 *197:16 *1260:CLK 0.000198186
6 *197:16 *1260:RESET_B 6.33202e-05
7 *197:16 *1338:A 0.000317714
8 *197:16 *232:52 1.94812e-05
9 *197:16 *291:23 0
10 *1204:A0 *197:16 5.47808e-05
11 *93:33 *197:16 4.4259e-05
*RES
1 *1203:X *197:8 39.2014 
2 *197:8 *197:16 31.385 
3 *197:16 *1204:S 23 
*END

*D_NET *198 0.000254776
*CONN
*I *1205:A I *D sky130_fd_sc_hd__clkbuf_1
*I *1204:X O *D sky130_fd_sc_hd__mux2_1
*CAP
1 *1205:A 7.7298e-05
2 *1204:X 7.7298e-05
3 *1205:A *291:23 0.00010018
*RES
1 *1204:X *1205:A 47.9471 
*END

*D_NET *199 0.00141955
*CONN
*I *1219:D I *D sky130_fd_sc_hd__or4_1
*I *1207:D I *D sky130_fd_sc_hd__or4_1
*I *1206:X O *D sky130_fd_sc_hd__or2b_1
*CAP
1 *1219:D 0
2 *1207:D 0.000112206
3 *1206:X 0.000201223
4 *199:10 0.000313429
5 *1207:D *250:24 0.000241899
6 *1207:D *324:42 5.5792e-05
7 *199:10 *250:24 6.437e-05
8 *199:10 *322:32 4.29244e-05
9 *1219:C *199:10 1.59094e-05
10 *184:14 *1207:D 1.13812e-05
11 *184:14 *199:10 5.29888e-05
12 *184:16 *1207:D 0.00021739
13 *184:26 *1207:D 3.673e-05
14 *184:51 *1207:D 5.3304e-05
*RES
1 *1206:X *199:10 41.3764 
2 *199:10 *1207:D 41.9357 
3 *199:10 *1219:D 38 
*END

*D_NET *200 0.00286713
*CONN
*I *1208:S I *D sky130_fd_sc_hd__mux2_1
*I *1207:X O *D sky130_fd_sc_hd__or4_1
*CAP
1 *1208:S 0.000642094
2 *1207:X 0.000554027
3 *200:10 0.00119612
4 *1208:S *1209:A 0
5 *1208:S *280:10 5.3304e-05
6 *200:10 *1202:A 5.79559e-05
7 *200:10 *1274:RESET_B 1.23353e-05
8 *200:10 *255:83 0.000167266
9 *200:10 *322:42 0.000106277
10 *200:10 *324:29 7.77487e-05
*RES
1 *1207:X *200:10 48.4814 
2 *200:10 *1208:S 48.6679 
*END

*D_NET *201 0.000249799
*CONN
*I *1209:A I *D sky130_fd_sc_hd__clkbuf_1
*I *1208:X O *D sky130_fd_sc_hd__mux2_1
*CAP
1 *1209:A 7.34142e-05
2 *1208:X 7.34142e-05
3 *1209:A *1208:A1 0.000102971
4 *1208:S *1209:A 0
*RES
1 *1208:X *1209:A 47.9471 
*END

*D_NET *202 0.00258142
*CONN
*I *1211:S I *D sky130_fd_sc_hd__mux2_1
*I *1210:X O *D sky130_fd_sc_hd__or4_1
*CAP
1 *1211:S 0
2 *1210:X 0.000609871
3 *202:10 0.000609871
4 *202:10 *1062:A1 4.77213e-05
5 *202:10 *1279:RESET_B 0.000292055
6 *202:10 *322:82 0.000272038
7 *1063:A1 *202:10 0.000271476
8 *1063:B1 *202:10 0.000331345
9 *37:10 *202:10 6.17903e-05
10 *95:6 *202:10 8.52481e-05
*RES
1 *1210:X *202:10 38.08 
2 *202:10 *1211:S 23 
*END

*D_NET *203 0.000921513
*CONN
*I *1212:A I *D sky130_fd_sc_hd__clkbuf_1
*I *1211:X O *D sky130_fd_sc_hd__mux2_1
*CAP
1 *1212:A 0.000378966
2 *1211:X 8.17907e-05
3 *203:8 0.000460757
4 *93:14 *203:8 0
*RES
1 *1211:X *203:8 39.2014 
2 *203:8 *1212:A 45.0636 
*END

*D_NET *204 0.0030667
*CONN
*I *1214:S I *D sky130_fd_sc_hd__mux2_1
*I *1213:X O *D sky130_fd_sc_hd__or4_1
*CAP
1 *1214:S 0.000308158
2 *1213:X 0.000794871
3 *204:8 0.00110303
4 *1214:S *1214:A1 5.79559e-05
5 *1214:S *205:10 0.000165003
6 *1214:S *325:8 0.000185368
7 *1214:A0 *1214:S 5.56356e-05
8 *93:57 *1214:S 5.56279e-05
9 *93:65 *1214:S 0.000341048
*RES
1 *1213:X *204:8 48.15 
2 *204:8 *1214:S 44.7736 
*END

*D_NET *205 0.000666008
*CONN
*I *1215:A I *D sky130_fd_sc_hd__clkbuf_1
*I *1214:X O *D sky130_fd_sc_hd__mux2_1
*CAP
1 *1215:A 7.64769e-05
2 *1214:X 0.000138829
3 *205:10 0.000215306
4 *205:10 *325:8 5.79559e-05
5 *1214:S *205:10 0.000165003
6 *1280:D *1215:A 1.24376e-05
*RES
1 *1214:X *205:10 40.8793 
2 *205:10 *1215:A 39.0979 
*END

*D_NET *206 0.000756708
*CONN
*I *1217:S I *D sky130_fd_sc_hd__mux2_1
*I *1216:X O *D sky130_fd_sc_hd__or4_1
*CAP
1 *1217:S 2.65781e-05
2 *1216:X 0.000183221
3 *206:10 0.000209799
4 *1217:S *1217:A1 5.34835e-05
5 *206:10 *250:24 1.22803e-05
6 *206:10 *297:8 8.85189e-05
7 *206:10 *330:25 0
8 *193:52 *206:10 0.000182826
*RES
1 *1216:X *206:10 41.6043 
2 *206:10 *1217:S 38.8493 
*END

*D_NET *207 0.00102324
*CONN
*I *1218:A I *D sky130_fd_sc_hd__clkbuf_1
*I *1217:X O *D sky130_fd_sc_hd__mux2_1
*CAP
1 *1218:A 0.000218001
2 *1217:X 0.000293618
3 *207:8 0.000511619
4 *207:8 *232:52 0
5 *207:8 *250:20 0
6 *207:8 *250:24 0
7 *69:12 *207:8 0
*RES
1 *1217:X *207:8 43.075 
2 *207:8 *1218:A 41.48 
*END

*D_NET *208 0.00413641
*CONN
*I *1220:S I *D sky130_fd_sc_hd__mux2_1
*I *1219:X O *D sky130_fd_sc_hd__or4_1
*CAP
1 *1220:S 0
2 *1219:X 0.000913644
3 *208:24 0.00031174
4 *208:16 0.00122538
5 *208:16 *322:32 0.000149886
6 *208:16 *323:10 0.00020745
7 *208:16 *323:16 5.82853e-05
8 *208:24 *1273:RESET_B 0
9 *208:24 *235:6 2.02872e-05
10 *208:24 *235:66 1.71761e-05
11 *208:24 *282:16 5.79559e-05
12 *1220:A0 *208:24 0.000140935
13 *62:10 *208:16 0.000629677
14 *93:65 *208:24 0.000267146
15 *93:84 *208:24 2.51382e-05
16 *193:36 *208:16 0.000111704
*RES
1 *1219:X *208:16 40.4 
2 *208:16 *208:24 37.0221 
3 *208:24 *1220:S 23 
*END

*D_NET *209 0.000455028
*CONN
*I *1221:A I *D sky130_fd_sc_hd__clkbuf_1
*I *1220:X O *D sky130_fd_sc_hd__mux2_1
*CAP
1 *1221:A 3.30345e-05
2 *1220:X 9.78836e-05
3 *209:8 0.000130918
4 *1221:A *256:68 2.93335e-05
5 *209:8 *1273:RESET_B 0
6 *93:84 *209:8 0.000163858
*RES
1 *1220:X *209:8 40.2579 
2 *209:8 *1221:A 38.6214 
*END

*D_NET *210 0.00134883
*CONN
*I *1223:S I *D sky130_fd_sc_hd__mux2_1
*I *1222:X O *D sky130_fd_sc_hd__or4_1
*CAP
1 *1223:S 0
2 *1222:X 0.000498207
3 *210:10 0.000498207
4 *210:10 *1223:A1 5.79559e-05
5 *210:10 *211:10 0.000272377
6 *93:84 *210:10 1.59071e-05
7 *109:66 *210:10 6.17437e-06
*RES
1 *1222:X *210:10 32.8393 
2 *210:10 *1223:S 23 
*END

*D_NET *211 0.00101121
*CONN
*I *1224:A I *D sky130_fd_sc_hd__clkbuf_1
*I *1223:X O *D sky130_fd_sc_hd__mux2_1
*CAP
1 *1224:A 0
2 *1223:X 0.000280444
3 *211:10 0.000280444
4 *211:10 *1326:A 6.43792e-05
5 *211:10 *235:27 0
6 *211:10 *258:38 0.000113561
7 *210:10 *211:10 0.000272377
*RES
1 *1223:X *211:10 43.2614 
2 *211:10 *1224:A 38 
*END

*D_NET *212 0.00051248
*CONN
*I *1227:A2 I *D sky130_fd_sc_hd__o22a_1
*I *1225:Y O *D sky130_fd_sc_hd__inv_2
*CAP
1 *1227:A2 0
2 *1225:Y 0.000153159
3 *212:10 0.000153159
4 *212:10 *238:116 0
5 *212:10 *274:14 0.000132025
6 *1227:B2 *212:10 2.08324e-05
7 *114:12 *212:10 5.3304e-05
*RES
1 *1225:Y *212:10 40.8793 
2 *212:10 *1227:A2 38 
*END

*D_NET *213 0.000935734
*CONN
*I *1227:B1 I *D sky130_fd_sc_hd__o22a_1
*I *1226:Y O *D sky130_fd_sc_hd__a21boi_1
*CAP
1 *1227:B1 0
2 *1226:Y 0.000195837
3 *213:10 0.000195837
4 *213:10 *238:116 5.66248e-05
5 *213:10 *305:18 0.000233211
6 *1079:A1 *213:10 3.46013e-05
7 *1227:B2 *213:10 0.000166318
8 *106:8 *213:10 5.3304e-05
*RES
1 *1226:Y *213:10 43.1371 
2 *213:10 *1227:B1 38 
*END

*D_NET *214 0.00147197
*CONN
*I *1234:A3 I *D sky130_fd_sc_hd__a31o_1
*I *1232:A2 I *D sky130_fd_sc_hd__o21a_1
*I *1228:X O *D sky130_fd_sc_hd__and4_1
*CAP
1 *1234:A3 0
2 *1232:A2 3.67063e-05
3 *1228:X 0.00034854
4 *214:19 0.000121712
5 *214:6 0.000506958
6 *1232:A2 *1232:A1 1.32314e-05
7 *214:6 *1232:A1 0.000263936
8 *214:6 *216:10 0.000145236
9 *214:19 *217:14 3.56537e-05
10 *214:19 *218:10 0
11 *214:19 *237:57 0
12 *214:19 *348:25 0
*RES
1 *1228:X *214:6 29.815 
2 *214:6 *1232:A2 23.6214 
3 *214:6 *214:19 32.2579 
4 *214:19 *1234:A3 23 
*END

*D_NET *215 0.00508892
*CONN
*I *1234:B1 I *D sky130_fd_sc_hd__a31o_1
*I *1237:B I *D sky130_fd_sc_hd__nor3b_1
*I *1230:B1 I *D sky130_fd_sc_hd__a41o_1
*I *1229:X O *D sky130_fd_sc_hd__and2b_1
*CAP
1 *1234:B1 0
2 *1237:B 0
3 *1230:B1 0.000191211
4 *1229:X 0.000375033
5 *215:48 6.65135e-05
6 *215:37 0.000401218
7 *215:23 0.00127558
8 *215:10 0.00137409
9 *1230:B1 *260:101 0
10 *1230:B1 *310:10 0.000138718
11 *1230:B1 *360:14 0.000170909
12 *215:10 *1078:A 2.24608e-05
13 *215:10 *1229:A_N 0.00018282
14 *215:10 *360:10 3.81927e-05
15 *215:10 *360:14 3.3123e-05
16 *215:10 *360:37 1.32728e-05
17 *215:10 *360:56 3.61397e-05
18 *215:23 *349:55 1.81373e-05
19 *215:37 *1237:C_N 5.67058e-05
20 *215:37 *1296:CLK 0
21 *215:37 *237:68 0
22 *215:37 *348:51 0
23 *215:37 *348:65 4.00259e-06
24 *215:37 *349:38 7.74491e-06
25 *215:37 *349:44 7.49159e-05
26 *215:37 *349:55 2.92911e-06
27 *215:48 *348:25 1.96983e-05
28 *215:48 *348:51 1.71223e-05
29 *215:48 *349:44 0.000139856
30 *1078:B *215:10 0.000213551
31 *1237:A *215:37 2.4754e-05
32 *99:30 *215:10 8.4047e-05
33 *102:8 *215:10 8.85189e-05
34 *115:12 *215:37 1.76557e-05
*RES
1 *1229:X *215:10 45.83 
2 *215:10 *1230:B1 42.7229 
3 *215:10 *215:23 25.15 
4 *215:23 *215:37 37.105 
5 *215:37 *1237:B 23 
6 *215:23 *215:48 31.9057 
7 *215:48 *1234:B1 23 
*END

*D_NET *216 0.00287024
*CONN
*I *1231:B I *D sky130_fd_sc_hd__nand2_1
*I *1236:A3 I *D sky130_fd_sc_hd__a31o_1
*I *1230:X O *D sky130_fd_sc_hd__a41o_1
*CAP
1 *1231:B 0
2 *1236:A3 0
3 *1230:X 0.000454035
4 *216:26 0.00039443
5 *216:16 0.000529878
6 *216:10 0.000589484
7 *216:16 *1234:A2 1.33082e-05
8 *216:16 *348:31 1.12349e-05
9 *216:26 *1236:A1 3.72912e-05
10 *216:26 *348:25 6.38433e-05
11 *216:26 *348:51 0.000293866
12 *216:26 *348:65 1.12863e-05
13 *216:26 *349:55 8.50457e-05
14 *1228:C *216:10 0.000228001
15 *1228:D *216:10 1.32939e-05
16 *214:6 *216:10 0.000145236
*RES
1 *1230:X *216:10 45.2914 
2 *216:10 *216:16 17.5479 
3 *216:16 *216:26 37.1464 
4 *216:26 *1236:A3 23 
5 *216:16 *1231:B 23 
*END

*D_NET *217 0.00119736
*CONN
*I *1235:A2 I *D sky130_fd_sc_hd__a21oi_1
*I *1232:B1 I *D sky130_fd_sc_hd__o21a_1
*I *1231:Y O *D sky130_fd_sc_hd__nand2_1
*CAP
1 *1235:A2 3.40974e-05
2 *1232:B1 0
3 *1231:Y 0.000244817
4 *217:14 0.000117664
5 *217:6 0.000396578
6 *217:6 *1234:A2 0.000191255
7 *217:6 *1235:B1 1.39431e-05
8 *217:6 *348:31 2.1819e-05
9 *217:14 *1232:A1 1.37232e-05
10 *217:14 *218:10 0.000114083
11 *1295:D *1235:A2 1.37232e-05
12 *214:19 *217:14 3.56537e-05
*RES
1 *1231:Y *217:6 27.4329 
2 *217:6 *217:14 32.755 
3 *217:14 *1232:B1 23 
4 *217:6 *1235:A2 23.8493 
*END

*D_NET *218 0.000792475
*CONN
*I *1235:A1 I *D sky130_fd_sc_hd__a21oi_1
*I *1233:Y O *D sky130_fd_sc_hd__inv_2
*CAP
1 *1235:A1 0
2 *1233:Y 0.000312751
3 *218:10 0.000312751
4 *218:10 *237:57 5.01247e-05
5 *218:10 *237:68 2.76611e-06
6 *218:10 *348:25 0
7 *218:10 *349:44 0
8 *214:19 *218:10 0
9 *217:14 *218:10 0.000114083
*RES
1 *1233:Y *218:10 42.785 
2 *218:10 *1235:A1 38 
*END

*D_NET *219 0.000386285
*CONN
*I *1235:B1 I *D sky130_fd_sc_hd__a21oi_1
*I *1234:X O *D sky130_fd_sc_hd__a31o_1
*CAP
1 *1235:B1 0.000183484
2 *1234:X 0.000183484
3 *1295:D *1235:B1 5.37348e-06
4 *217:6 *1235:B1 1.39431e-05
*RES
1 *1234:X *1235:B1 48.5479 
*END

*D_NET *220 0.000287923
*CONN
*I *1237:C_N I *D sky130_fd_sc_hd__nor3b_1
*I *1236:X O *D sky130_fd_sc_hd__a31o_1
*CAP
1 *1237:C_N 4.29893e-05
2 *1236:X 4.29893e-05
3 *1237:A *1237:C_N 0.000145238
4 *215:37 *1237:C_N 5.67058e-05
*RES
1 *1236:X *1237:C_N 47.5743 
*END

*D_NET *221 0.000252922
*CONN
*I *1239:A I *D sky130_fd_sc_hd__clkbuf_1
*I *1238:X O *D sky130_fd_sc_hd__mux2_1
*CAP
1 *1239:A 0.000126461
2 *1238:X 0.000126461
*RES
1 *1238:X *1239:A 48.4236 
*END

*D_NET *222 0.00101938
*CONN
*I *1241:A I *D sky130_fd_sc_hd__clkbuf_1
*I *1240:X O *D sky130_fd_sc_hd__mux2_1
*CAP
1 *1241:A 0.000107133
2 *1240:X 0.000294533
3 *222:8 0.000401666
4 *1241:A *352:12 3.18142e-05
5 *222:8 *250:30 0
6 *222:8 *348:77 4.16601e-05
7 *77:8 *1241:A 0.000142577
*RES
1 *1240:X *222:8 43.075 
2 *222:8 *1241:A 40.5271 
*END

*D_NET *223 0.000536225
*CONN
*I *1243:A I *D sky130_fd_sc_hd__clkbuf_1
*I *1242:X O *D sky130_fd_sc_hd__mux2_1
*CAP
1 *1243:A 0
2 *1242:X 0.000211981
3 *223:8 0.000211981
4 *223:8 *233:86 0
5 *223:8 *233:97 7.66188e-05
6 *223:8 *303:10 0
7 *78:10 *223:8 3.56433e-05
*RES
1 *1242:X *223:8 42.7229 
2 *223:8 *1243:A 38 
*END

*D_NET *224 0.00095586
*CONN
*I *1245:A I *D sky130_fd_sc_hd__clkbuf_1
*I *1244:X O *D sky130_fd_sc_hd__mux2_1
*CAP
1 *1245:A 0
2 *1244:X 0.000256317
3 *224:10 0.000256317
4 *224:10 *1303:RESET_B 0
5 *224:10 *1306:RESET_B 0
6 *224:10 *234:23 8.16253e-05
7 *224:10 *234:36 0
8 *224:10 *353:12 0.000141879
9 *1244:S *224:10 5.41385e-05
10 *79:10 *224:10 0.000165583
*RES
1 *1244:X *224:10 43.8207 
2 *224:10 *1245:A 38 
*END

*D_NET *225 0.000410868
*CONN
*I *1247:A I *D sky130_fd_sc_hd__clkbuf_1
*I *1246:X O *D sky130_fd_sc_hd__mux2_1
*CAP
1 *1247:A 0.000205434
2 *1246:X 0.000205434
*RES
1 *1246:X *1247:A 49.8529 
*END

*D_NET *226 0.000288183
*CONN
*I *1249:A I *D sky130_fd_sc_hd__clkbuf_1
*I *1248:X O *D sky130_fd_sc_hd__mux2_1
*CAP
1 *1249:A 0.000104308
2 *1248:X 0.000104308
3 *114:63 *1249:A 7.9566e-05
*RES
1 *1248:X *1249:A 48.4236 
*END

*D_NET *227 0.000487738
*CONN
*I *1251:A I *D sky130_fd_sc_hd__clkbuf_1
*I *1250:X O *D sky130_fd_sc_hd__mux2_1
*CAP
1 *1251:A 0.000125818
2 *1250:X 0.000125818
3 *1251:A *1307:RESET_B 0.000236103
*RES
1 *1250:X *1251:A 49.3764 
*END

*D_NET *228 0.000158251
*CONN
*I *1253:A I *D sky130_fd_sc_hd__clkbuf_1
*I *1252:X O *D sky130_fd_sc_hd__mux2_1
*CAP
1 *1253:A 7.91257e-05
2 *1252:X 7.91257e-05
*RES
1 *1252:X *1253:A 47.4707 
*END

*D_NET *229 0.00863476
*CONN
*I *1275:D I *D sky130_fd_sc_hd__dfstp_1
*I *1094:X O *D sky130_fd_sc_hd__a311o_1
*CAP
1 *1275:D 0
2 *1094:X 0.000272717
3 *229:22 0.000555493
4 *229:10 0.00252836
5 *229:8 0.00224559
6 *229:8 *1094:C1 5.50106e-05
7 *229:8 *1095:A 9.88574e-06
8 *229:8 *1229:B 0.000267167
9 *229:10 *1072:A1 0
10 *229:10 *1095:C 0
11 *229:10 *1103:A 0
12 *229:10 *1107:C 4.16868e-05
13 *229:10 *236:51 0.000109515
14 *229:10 *238:10 8.47318e-05
15 *229:10 *257:44 0
16 *229:10 *262:54 0
17 *229:10 *262:61 0
18 *229:10 *273:24 1.69668e-05
19 *229:10 *339:44 0.000367902
20 *229:10 *340:32 0
21 *229:10 *341:38 5.561e-05
22 *229:10 *342:10 4.58924e-05
23 *229:10 *342:19 5.93278e-05
24 *229:10 *343:51 0
25 *229:10 *359:19 1.58805e-05
26 *229:10 *360:10 0
27 *229:10 *360:14 0
28 *229:10 *360:37 0
29 *229:10 *360:56 0
30 *229:22 *1262:RESET_B 1.44773e-05
31 *229:22 *1275:CLK 0.000102551
32 *229:22 *1275:SET_B 0.000423784
33 *229:22 *236:51 7.9566e-05
34 *229:22 *249:14 7.49835e-05
35 *229:22 *249:27 0.000314391
36 *30:12 *229:10 0
37 *96:14 *229:10 0
38 *98:8 *229:10 0
39 *99:8 *229:10 0
40 *99:22 *229:10 0.000166513
41 *99:30 *229:10 0
42 *99:47 *229:10 0
43 *122:10 *229:10 0.000190047
44 *128:8 *229:10 0.000104869
45 *128:14 *229:10 0.000431843
*RES
1 *1094:X *229:8 41.9564 
2 *229:8 *229:10 39.585 
3 *229:10 *229:22 29.645 
4 *229:22 *1275:D 23 
*END

*D_NET *230 0.023902
*CONN
*I *1322:A I *D sky130_fd_sc_hd__clkbuf_16
*I *1323:A I *D sky130_fd_sc_hd__clkbuf_16
*I *1319:A I *D sky130_fd_sc_hd__clkbuf_16
*I *1318:A I *D sky130_fd_sc_hd__clkbuf_16
*I *1321:A I *D sky130_fd_sc_hd__clkbuf_16
*I *1316:A I *D sky130_fd_sc_hd__clkbuf_16
*I *1317:A I *D sky130_fd_sc_hd__clkbuf_16
*I *1320:A I *D sky130_fd_sc_hd__clkbuf_16
*I *1315:X O *D sky130_fd_sc_hd__clkbuf_16
*CAP
1 *1322:A 0
2 *1323:A 0
3 *1319:A 7.58254e-05
4 *1318:A 0.000430851
5 *1321:A 0
6 *1316:A 0
7 *1317:A 0.000514823
8 *1320:A 0.000242247
9 *1315:X 0
10 *230:134 0.000370549
11 *230:126 0.00115416
12 *230:96 0.00262834
13 *230:90 0.00321223
14 *230:77 0.00132295
15 *230:62 0.000255262
16 *230:41 0.0015158
17 *230:24 0.00120178
18 *230:20 0.00321804
19 *230:6 0.00198823
20 *1317:A *232:85 5.50106e-05
21 *1317:A *298:29 0.000182826
22 *1320:A *1193:A0 8.16356e-05
23 *1320:A *322:16 0.000100778
24 *1320:A *322:18 0.000237534
25 *1320:A *322:20 3.70094e-05
26 *1320:A *323:16 4.6318e-06
27 *230:20 *234:90 0
28 *230:20 *259:12 0
29 *230:20 *311:16 0.000105289
30 *230:24 *333:14 4.33081e-05
31 *230:41 *1189:A2 0.000602801
32 *230:41 *1189:B1 7.1349e-05
33 *230:41 *232:85 0.000642181
34 *230:41 *266:21 6.17437e-06
35 *230:41 *334:16 0.000316338
36 *230:62 *258:60 2.93845e-05
37 *230:77 *1223:A1 0
38 *230:77 *235:27 0
39 *230:90 *234:90 0.000649924
40 *230:126 *237:8 4.349e-05
41 *230:126 *263:38 2.33476e-05
42 *230:134 *1329:A 0.000146822
43 *230:134 *237:10 0
44 *230:134 *260:8 5.3304e-05
45 *1164:B *1318:A 3.88725e-05
46 *1165:B *1318:A 5.50106e-05
47 *1166:A1 *1318:A 0.000118759
48 *1166:B1 *1318:A 2.39868e-05
49 *1192:C *1320:A 3.74442e-05
50 *1196:A3 *230:41 0.000235975
51 *26:12 *230:20 0.000183171
52 *26:12 *230:90 6.07971e-05
53 *26:18 *230:90 0.000195092
54 *56:10 *1318:A 5.67058e-05
55 *91:51 *230:62 0
56 *93:84 *230:77 0.000112446
57 *94:20 *230:62 0.000171941
58 *110:55 *1320:A 0
59 *157:42 *1318:A 7.53384e-06
60 *164:18 *230:96 0
61 *166:8 *1318:A 9.67842e-05
62 *166:10 *1318:A 1.55246e-05
63 *168:8 *1318:A 3.34129e-05
64 *184:102 *1320:A 3.70094e-05
65 *184:102 *230:24 0.000339224
66 *187:14 *230:41 0.000264559
67 *193:10 *230:24 5.79413e-06
68 *193:12 *1320:A 3.82956e-05
69 *193:12 *230:24 0.000209434
*RES
1 *1315:X *230:6 38 
2 *230:6 *230:20 29.8649 
3 *230:20 *230:24 13.9554 
4 *230:24 *1320:A 44.1314 
5 *230:24 *230:41 33.8914 
6 *230:41 *1317:A 32.86 
7 *230:41 *230:62 35.3443 
8 *230:62 *1316:A 23 
9 *230:20 *230:77 29.563 
10 *230:77 *1321:A 23 
11 *230:6 *230:90 18.8439 
12 *230:90 *230:96 12.4128 
13 *230:96 *1318:A 45.7679 
14 *230:96 *1319:A 39.0979 
15 *230:90 *230:126 30.4413 
16 *230:126 *230:134 36.3386 
17 *230:134 *1323:A 23 
18 *230:126 *1322:A 23 
*END

*D_NET *231 0.0113724
*CONN
*I *1268:CLK I *D sky130_fd_sc_hd__dfrtp_1
*I *1271:CLK I *D sky130_fd_sc_hd__dfrtp_1
*I *1258:CLK I *D sky130_fd_sc_hd__dfrtp_1
*I *1278:CLK I *D sky130_fd_sc_hd__dfrtp_1
*I *1277:CLK I *D sky130_fd_sc_hd__dfrtp_1
*I *1257:CLK I *D sky130_fd_sc_hd__dfrtp_1
*I *1256:CLK I *D sky130_fd_sc_hd__dfrtp_1
*I *1279:CLK I *D sky130_fd_sc_hd__dfrtp_1
*I *1316:X O *D sky130_fd_sc_hd__clkbuf_16
*CAP
1 *1268:CLK 6.81185e-05
2 *1271:CLK 0.000538545
3 *1258:CLK 4.24211e-05
4 *1278:CLK 0.000208285
5 *1277:CLK 0
6 *1257:CLK 0
7 *1256:CLK 0.000438566
8 *1279:CLK 0.000503625
9 *1316:X 0.000607202
10 *231:65 0.000410343
11 *231:57 0.00115505
12 *231:50 0.000666794
13 *231:35 0.0010346
14 *231:33 0.000682592
15 *231:31 0.00132973
16 *231:27 0.000684795
17 *231:12 0.00111083
18 *1256:CLK *261:12 0.000117899
19 *1256:CLK *292:10 0
20 *1271:CLK *261:14 0
21 *1278:CLK *244:10 1.21972e-05
22 *1279:CLK *1258:RESET_B 0
23 *1279:CLK *245:14 0
24 *231:12 *258:60 0.000202663
25 *231:31 *298:16 5.50106e-05
26 *231:33 *261:12 1.16784e-05
27 *231:33 *261:14 0
28 *231:35 *261:12 0.0002812
29 *231:57 *244:10 3.7122e-06
30 *231:65 *1256:RESET_B 5.56279e-05
31 *231:65 *1389:A 0.000404194
32 *231:65 *244:10 0.00014962
33 *231:65 *255:52 0
34 *1133:S *1268:CLK 2.34585e-05
35 *1133:S *231:31 7.87147e-05
36 *1268:D *1268:CLK 3.52615e-05
37 *15:12 *1271:CLK 0
38 *45:10 *1256:CLK 0
39 *57:10 *231:12 8.71559e-05
40 *112:31 *1279:CLK 0.000147903
41 *112:31 *231:65 3.74769e-05
42 *145:10 *231:31 0.000187129
*RES
1 *1316:X *231:12 48.7714 
2 *231:12 *1279:CLK 45.8507 
3 *231:12 *231:27 15 
4 *231:27 *231:31 26.1029 
5 *231:31 *231:33 3.31429 
6 *231:33 *231:35 11.4136 
7 *231:35 *1256:CLK 47.2179 
8 *231:35 *231:50 17.0507 
9 *231:50 *1257:CLK 23 
10 *231:50 *231:57 9.19714 
11 *231:57 *231:65 39.2179 
12 *231:65 *1277:CLK 23 
13 *231:57 *1278:CLK 26.48 
14 *231:33 *1258:CLK 38.6214 
15 *231:31 *1271:CLK 48.7093 
16 *231:27 *1268:CLK 24.683 
*END

*D_NET *232 0.0110683
*CONN
*I *1299:CLK I *D sky130_fd_sc_hd__dfstp_1
*I *1274:CLK I *D sky130_fd_sc_hd__dfrtp_2
*I *1260:CLK I *D sky130_fd_sc_hd__dfrtp_1
*I *1276:CLK I *D sky130_fd_sc_hd__dfrtp_1
*I *1281:CLK I *D sky130_fd_sc_hd__dfrtp_1
*I *1300:CLK I *D sky130_fd_sc_hd__dfrtp_4
*I *1317:X O *D sky130_fd_sc_hd__clkbuf_16
*CAP
1 *1299:CLK 0
2 *1274:CLK 0
3 *1260:CLK 0.000110037
4 *1276:CLK 0
5 *1281:CLK 2.07933e-05
6 *1300:CLK 0.000238193
7 *1317:X 0
8 *232:85 0.000664017
9 *232:52 0.000585149
10 *232:35 0.000964708
11 *232:27 0.000764486
12 *232:25 0.000589434
13 *232:14 0.000997379
14 *232:4 0.00112945
15 *1281:CLK *1137:A0 1.12349e-05
16 *232:14 *1279:RESET_B 0.000114074
17 *232:14 *334:8 0
18 *232:25 *1279:RESET_B 0
19 *232:25 *255:89 0
20 *232:27 *280:10 0.000126343
21 *232:35 *1137:A0 0.000369815
22 *232:35 *1137:A1 0.000226306
23 *232:35 *1138:A 3.91386e-05
24 *232:35 *255:20 0.000102389
25 *232:35 *255:40 0.000131304
26 *232:35 *280:10 0.000166513
27 *232:52 *1137:A0 3.87288e-05
28 *232:52 *1217:A1 2.93845e-05
29 *232:52 *255:20 0.000188927
30 *232:85 *1060:A2 1.56762e-05
31 *232:85 *1061:A 5.56279e-05
32 *232:85 *1085:C 1.0092e-05
33 *232:85 *1189:A2 5.56356e-05
34 *232:85 *254:10 0.000580085
35 *232:85 *258:56 1.35764e-05
36 *1060:B1 *232:85 1.21972e-05
37 *1299:D *232:85 2.93335e-05
38 *1300:D *1300:CLK 0.000110048
39 *1317:A *232:85 5.50106e-05
40 *37:10 *232:14 0
41 *63:8 *232:14 3.81391e-05
42 *91:51 *232:14 0
43 *92:10 *232:85 0.000110184
44 *93:14 *232:25 0
45 *93:18 *232:27 0
46 *93:33 *1260:CLK 0.000132154
47 *93:33 *232:52 0.000582453
48 *93:40 *232:52 0.000213872
49 *94:20 *232:14 1.19692e-05
50 *94:20 *232:85 4.79544e-05
51 *112:54 *232:35 1.22822e-05
52 *147:10 *232:27 0
53 *147:10 *232:35 0.000187129
54 *192:14 *232:14 0
55 *192:14 *232:85 0.000327251
56 *197:16 *1260:CLK 0.000198186
57 *197:16 *232:52 1.94812e-05
58 *207:8 *232:52 0
59 *230:41 *232:85 0.000642181
*RES
1 *1317:X *232:4 23 
2 *232:4 *232:14 38.4514 
3 *232:14 *1300:CLK 27.9093 
4 *232:14 *232:25 20.7793 
5 *232:25 *232:27 5.77929 
6 *232:27 *232:35 25.7507 
7 *232:35 *1281:CLK 23.4971 
8 *232:35 *232:52 44.935 
9 *232:52 *1276:CLK 23 
10 *232:27 *1260:CLK 41.9564 
11 *232:25 *1274:CLK 38 
12 *232:4 *232:85 47.7314 
13 *232:85 *1299:CLK 23 
*END

*D_NET *233 0.00967423
*CONN
*I *1307:CLK I *D sky130_fd_sc_hd__dfrtp_1
*I *1303:CLK I *D sky130_fd_sc_hd__dfrtp_1
*I *1305:CLK I *D sky130_fd_sc_hd__dfrtp_1
*I *1263:CLK I *D sky130_fd_sc_hd__dfrtp_2
*I *1298:CLK I *D sky130_fd_sc_hd__dfxtp_1
*I *1297:CLK I *D sky130_fd_sc_hd__dfxtp_1
*I *1267:CLK I *D sky130_fd_sc_hd__dfrtp_2
*I *1269:CLK I *D sky130_fd_sc_hd__dfrtp_4
*I *1270:CLK I *D sky130_fd_sc_hd__dfrtp_2
*I *1318:X O *D sky130_fd_sc_hd__clkbuf_16
*CAP
1 *1307:CLK 0.000410379
2 *1303:CLK 0.000119783
3 *1305:CLK 0
4 *1263:CLK 0.000345358
5 *1298:CLK 0
6 *1297:CLK 4.22019e-05
7 *1267:CLK 9.0958e-05
8 *1269:CLK 0
9 *1270:CLK 0.000345226
10 *1318:X 0.00039475
11 *233:97 0.00119296
12 *233:86 0.000959948
13 *233:71 0.00122698
14 *233:60 0.00106489
15 *233:45 0.000796345
16 *233:34 0.000486273
17 *233:12 0.000566261
18 *233:10 0.000737373
19 *1263:CLK *1267:RESET_B 0.000174742
20 *1263:CLK *338:10 0
21 *1270:CLK *261:14 0
22 *1307:CLK *239:12 3.84404e-05
23 *233:12 *261:14 0
24 *233:45 *241:8 3.70094e-05
25 *233:45 *261:14 0
26 *233:60 *241:8 0.000250839
27 *233:71 *1298:D 1.64354e-05
28 *233:71 *338:8 6.05747e-05
29 *233:97 *303:10 8.51432e-05
30 *1263:D *1263:CLK 3.2723e-05
31 *1303:D *1303:CLK 2.93845e-05
32 *76:8 *1307:CLK 6.23469e-05
33 *76:8 *233:97 3.02809e-05
34 *114:71 *233:97 0
35 *223:8 *233:86 0
36 *223:8 *233:97 7.66188e-05
*RES
1 *1318:X *233:10 44.3593 
2 *233:10 *233:12 3.66643 
3 *233:12 *1270:CLK 44.5457 
4 *233:12 *1269:CLK 38 
5 *233:10 *233:34 2.25786 
6 *233:34 *1267:CLK 39.5743 
7 *233:34 *233:45 5.42714 
8 *233:45 *1297:CLK 38.6214 
9 *233:45 *233:60 24.1764 
10 *233:60 *1298:CLK 23 
11 *233:60 *233:71 25.1707 
12 *233:71 *1263:CLK 44.7943 
13 *233:71 *233:86 20.075 
14 *233:86 *1305:CLK 23 
15 *233:86 *233:97 28.3814 
16 *233:97 *1303:CLK 40.0507 
17 *233:97 *1307:CLK 45.9543 
*END

*D_NET *234 0.0139189
*CONN
*I *1301:CLK I *D sky130_fd_sc_hd__dfrtp_4
*I *1254:CLK I *D sky130_fd_sc_hd__dfrtp_1
*I *1309:CLK I *D sky130_fd_sc_hd__dfrtp_1
*I *1308:CLK I *D sky130_fd_sc_hd__dfrtp_1
*I *1310:CLK I *D sky130_fd_sc_hd__dfrtp_1
*I *1306:CLK I *D sky130_fd_sc_hd__dfrtp_1
*I *1264:CLK I *D sky130_fd_sc_hd__dfrtp_2
*I *1319:X O *D sky130_fd_sc_hd__clkbuf_16
*CAP
1 *1301:CLK 0
2 *1254:CLK 0.000824737
3 *1309:CLK 2.30556e-05
4 *1308:CLK 4.49133e-05
5 *1310:CLK 0
6 *1306:CLK 0
7 *1264:CLK 9.91448e-05
8 *1319:X 0
9 *234:90 0.0011359
10 *234:62 0.00152478
11 *234:47 0.000866416
12 *234:40 0.000757792
13 *234:36 0.00130057
14 *234:23 0.000851003
15 *234:10 0.000944796
16 *234:4 0.00152882
17 *1254:CLK *1293:RESET_B 0
18 *1254:CLK *357:8 6.71408e-06
19 *1264:CLK *1263:RESET_B 6.55795e-05
20 *1308:CLK *351:6 2.64616e-05
21 *1308:CLK *351:29 6.17437e-06
22 *234:10 *259:80 0
23 *234:23 *1303:RESET_B 0
24 *234:23 *259:80 0
25 *234:36 *1305:RESET_B 7.51982e-05
26 *234:36 *1306:RESET_B 4.6318e-06
27 *234:36 *351:29 0
28 *234:36 *353:6 5.67058e-05
29 *234:36 *353:35 0.000210461
30 *234:47 *351:12 6.25829e-05
31 *234:47 *351:29 0
32 *234:62 *1246:A1 0.00014196
33 *234:62 *1359:A 0
34 *234:62 *351:12 0.00022069
35 *234:90 *1050:A 5.3304e-05
36 *234:90 *1050:C_N 5.58003e-05
37 *234:90 *1154:A 4.78593e-05
38 *234:90 *1154:B 0.000475117
39 *234:90 *1154:C 3.45807e-05
40 *234:90 *259:12 0.000415752
41 *234:90 *259:19 0.000460778
42 *1155:B *234:90 0.000146822
43 *1309:D *1254:CLK 1.83327e-05
44 *26:18 *234:90 0
45 *53:10 *234:10 0.000110458
46 *79:10 *234:36 2.96369e-05
47 *84:14 *234:90 4.44742e-05
48 *114:71 *234:23 0
49 *114:102 *234:62 0.00038781
50 *151:60 *234:10 3.6608e-05
51 *159:6 *234:90 5.87421e-05
52 *160:10 *234:90 3.22051e-05
53 *224:10 *234:23 8.16253e-05
54 *224:10 *234:36 0
55 *230:20 *234:90 0
56 *230:90 *234:90 0.000649924
*RES
1 *1319:X *234:4 23 
2 *234:4 *234:10 21.1729 
3 *234:10 *1264:CLK 40.0507 
4 *234:10 *234:23 23.5964 
5 *234:23 *1306:CLK 23 
6 *234:23 *234:36 23.9279 
7 *234:36 *234:40 28.0086 
8 *234:40 *1310:CLK 23 
9 *234:36 *234:47 2.61 
10 *234:47 *1308:CLK 38.6214 
11 *234:47 *234:62 28.7336 
12 *234:62 *1309:CLK 23.4971 
13 *234:62 *1254:CLK 34.02 
14 *234:4 *234:90 43.7514 
15 *234:90 *1301:CLK 38 
*END

*D_NET *235 0.00914258
*CONN
*I *1273:CLK I *D sky130_fd_sc_hd__dfrtp_1
*I *1280:CLK I *D sky130_fd_sc_hd__dfrtp_1
*I *1259:CLK I *D sky130_fd_sc_hd__dfrtp_1
*I *1255:CLK I *D sky130_fd_sc_hd__dfrtp_1
*I *1272:CLK I *D sky130_fd_sc_hd__dfrtp_2
*I *1287:CLK I *D sky130_fd_sc_hd__dfrtp_1
*I *1283:CLK I *D sky130_fd_sc_hd__dfrtp_1
*I *1282:CLK I *D sky130_fd_sc_hd__dfrtp_1
*I *1320:X O *D sky130_fd_sc_hd__clkbuf_16
*CAP
1 *1273:CLK 3.43108e-05
2 *1280:CLK 0.000317632
3 *1259:CLK 8.47011e-05
4 *1255:CLK 0
5 *1272:CLK 0.000113208
6 *1287:CLK 0
7 *1283:CLK 9.92992e-05
8 *1282:CLK 0
9 *1320:X 0.000217247
10 *235:76 0.000514925
11 *235:68 0.00102135
12 *235:66 0.00058956
13 *235:44 0.000763658
14 *235:27 0.00171989
15 *235:21 0.00108148
16 *235:10 0.00028201
17 *235:6 0.000669673
18 *1259:CLK *1136:A 5.67058e-05
19 *1273:CLK *311:6 1.84831e-05
20 *235:27 *1272:RESET_B 1.83667e-05
21 *235:27 *257:28 6.2088e-05
22 *235:27 *258:38 0
23 *235:44 *257:28 0.000111106
24 *235:44 *335:10 0
25 *235:66 *256:62 5.41726e-05
26 *235:66 *282:16 0.000143535
27 *235:68 *256:53 3.97654e-05
28 *235:68 *256:62 0.000105957
29 *235:76 *1136:A 2.02517e-05
30 *235:76 *1372:A 0.000105165
31 *235:76 *256:31 0.000139357
32 *235:76 *256:53 3.04021e-05
33 *1220:A0 *235:6 5.3304e-05
34 *1220:A0 *235:66 0.000100069
35 *1259:D *1259:CLK 3.22879e-05
36 *1272:D *235:27 2.6521e-05
37 *1280:D *1280:CLK 3.12321e-05
38 *1283:D *1283:CLK 7.9566e-05
39 *93:65 *235:10 3.43144e-05
40 *93:84 *235:10 0.000215582
41 *93:84 *235:21 0.000117951
42 *93:84 *235:27 0
43 *208:24 *235:6 2.02872e-05
44 *208:24 *235:66 1.71761e-05
45 *211:10 *235:27 0
46 *230:77 *235:27 0
*RES
1 *1320:X *235:6 26.48 
2 *235:6 *235:10 18.3143 
3 *235:10 *1282:CLK 38 
4 *235:10 *235:21 17.2579 
5 *235:21 *235:27 28.9614 
6 *235:27 *1283:CLK 40.0714 
7 *235:27 *235:44 28.7129 
8 *235:44 *1287:CLK 23 
9 *235:21 *1272:CLK 25.0921 
10 *235:6 *235:66 20.6136 
11 *235:66 *235:68 6.48357 
12 *235:68 *235:76 23.2236 
13 *235:76 *1255:CLK 23 
14 *235:76 *1259:CLK 25.0507 
15 *235:68 *1280:CLK 42.3293 
16 *235:66 *1273:CLK 38.6214 
*END

*D_NET *236 0.00761722
*CONN
*I *1289:CLK I *D sky130_fd_sc_hd__dfrtp_1
*I *1275:CLK I *D sky130_fd_sc_hd__dfstp_1
*I *1288:CLK I *D sky130_fd_sc_hd__dfrtp_1
*I *1262:CLK I *D sky130_fd_sc_hd__dfrtp_1
*I *1302:CLK I *D sky130_fd_sc_hd__dfrtp_4
*I *1261:CLK I *D sky130_fd_sc_hd__dfrtp_1
*I *1321:X O *D sky130_fd_sc_hd__clkbuf_16
*CAP
1 *1289:CLK 0.000208813
2 *1275:CLK 0.000331132
3 *1288:CLK 0
4 *1262:CLK 0
5 *1302:CLK 0.000330695
6 *1261:CLK 0.000176156
7 *1321:X 6.27375e-05
8 *236:62 0.00104948
9 *236:51 0.000971642
10 *236:27 0.000384007
11 *236:25 0.000769919
12 *236:8 0.000493393
13 *1275:CLK *249:27 5.40241e-05
14 *1289:CLK *343:10 6.70822e-05
15 *1302:CLK *1141:A0 0.000142678
16 *1302:CLK *249:14 6.41457e-05
17 *236:25 *257:44 8.82154e-05
18 *236:51 *249:14 0.000123808
19 *236:62 *1288:RESET_B 0.000110906
20 *236:62 *343:10 2.93335e-05
21 *1116:A_N *1289:CLK 0
22 *1140:A *1261:CLK 4.09548e-05
23 *1140:A *236:25 2.04774e-05
24 *1261:D *1261:CLK 1.39317e-05
25 *1262:D *1302:CLK 0.000141352
26 *1262:D *236:27 6.72382e-05
27 *50:8 *1261:CLK 0.000223034
28 *50:8 *236:25 7.6144e-05
29 *112:86 *1302:CLK 0.000129682
30 *112:99 *1261:CLK 0.000331064
31 *112:99 *1302:CLK 0.000131124
32 *112:99 *236:25 0.000591105
33 *112:99 *236:27 7.48505e-05
34 *112:99 *236:51 2.64616e-05
35 *229:10 *236:51 0.000109515
36 *229:22 *1275:CLK 0.000102551
37 *229:22 *236:51 7.9566e-05
*RES
1 *1321:X *236:8 38.6214 
2 *236:8 *1261:CLK 43.9657 
3 *236:8 *236:25 22.8921 
4 *236:25 *236:27 1.57429 
5 *236:27 *1302:CLK 31.7414 
6 *236:27 *1262:CLK 23 
7 *236:25 *236:51 40.8336 
8 *236:51 *1288:CLK 23 
9 *236:51 *236:62 25.1707 
10 *236:62 *1275:CLK 44.525 
11 *236:62 *1289:CLK 41.7286 
*END

*D_NET *237 0.00626899
*CONN
*I *1296:CLK I *D sky130_fd_sc_hd__dfrtp_1
*I *1304:CLK I *D sky130_fd_sc_hd__dfrtp_1
*I *1295:CLK I *D sky130_fd_sc_hd__dfrtp_2
*I *1294:CLK I *D sky130_fd_sc_hd__dfrtp_4
*I *1265:CLK I *D sky130_fd_sc_hd__dfrtp_1
*I *1284:CLK I *D sky130_fd_sc_hd__dfrtp_4
*I *1266:CLK I *D sky130_fd_sc_hd__dfrtp_1
*I *1286:CLK I *D sky130_fd_sc_hd__dfrtp_1
*I *1322:X O *D sky130_fd_sc_hd__clkbuf_16
*CAP
1 *1296:CLK 0.000439317
2 *1304:CLK 0.000194299
3 *1295:CLK 2.95294e-05
4 *1294:CLK 2.66111e-05
5 *1265:CLK 0.000304259
6 *1284:CLK 0
7 *1266:CLK 6.80678e-05
8 *1286:CLK 0.000281403
9 *1322:X 0.000240027
10 *237:68 0.000792385
11 *237:57 0.000492677
12 *237:41 0.00033087
13 *237:39 0.000438719
14 *237:25 0.000170377
15 *237:10 0.000743815
16 *237:8 0.000734471
17 *1265:CLK *260:50 0.00022823
18 *1286:CLK *240:23 0
19 *1294:CLK *260:50 4.33627e-05
20 *1296:CLK *263:38 0
21 *1296:CLK *348:65 6.343e-05
22 *1304:CLK *349:38 0.000132166
23 *237:10 *240:23 0
24 *237:10 *263:38 0
25 *237:10 *311:16 0
26 *237:57 *263:38 0
27 *237:68 *263:38 0
28 *237:68 *349:44 0
29 *1284:D *237:25 3.7122e-06
30 *1295:D *1295:CLK 5.50049e-05
31 *3:17 *1286:CLK 0.000195991
32 *3:17 *237:10 1.18349e-05
33 *73:8 *237:57 4.11274e-05
34 *75:10 *1296:CLK 0.000110922
35 *115:12 *1296:CLK 0
36 *214:19 *237:57 0
37 *215:37 *1296:CLK 0
38 *215:37 *237:68 0
39 *218:10 *237:57 5.01247e-05
40 *218:10 *237:68 2.76611e-06
41 *230:126 *237:8 4.349e-05
42 *230:134 *237:10 0
*RES
1 *1322:X *237:8 41.0036 
2 *237:8 *237:10 6.48357 
3 *237:10 *1286:CLK 43.4893 
4 *237:10 *237:25 16.5743 
5 *237:25 *1266:CLK 24.0979 
6 *237:25 *1284:CLK 23 
7 *237:8 *237:39 2.25786 
8 *237:39 *237:41 15 
9 *237:41 *1265:CLK 28.8621 
10 *237:41 *1294:CLK 23.6214 
11 *237:39 *237:57 5.77929 
12 *237:57 *1295:CLK 38.6214 
13 *237:57 *237:68 2.61 
14 *237:68 *1304:CLK 41.9564 
15 *237:68 *1296:CLK 46.1821 
*END

*D_NET *238 0.0127462
*CONN
*I *1314:CLK I *D sky130_fd_sc_hd__dfrtp_1
*I *1293:CLK I *D sky130_fd_sc_hd__dfrtp_1
*I *1311:CLK I *D sky130_fd_sc_hd__dfstp_1
*I *1313:CLK I *D sky130_fd_sc_hd__dfrtp_1
*I *1291:CLK I *D sky130_fd_sc_hd__dfrtp_1
*I *1312:CLK I *D sky130_fd_sc_hd__dfrtp_2
*I *1292:CLK I *D sky130_fd_sc_hd__dfrtp_1
*I *1290:CLK I *D sky130_fd_sc_hd__dfrtp_1
*I *1285:CLK I *D sky130_fd_sc_hd__dfrtp_2
*I *1323:X O *D sky130_fd_sc_hd__clkbuf_16
*CAP
1 *1314:CLK 0
2 *1293:CLK 0.000237386
3 *1311:CLK 0
4 *1313:CLK 0.000111414
5 *1291:CLK 0.000118858
6 *1312:CLK 2.95294e-05
7 *1292:CLK 9.62593e-05
8 *1290:CLK 0.000383269
9 *1285:CLK 0
10 *1323:X 0.000293683
11 *238:116 0.000271019
12 *238:97 0.00150489
13 *238:86 0.0014705
14 *238:71 0.000904574
15 *238:60 0.000603178
16 *238:49 0.000697187
17 *238:38 0.000704377
18 *238:23 0.00125696
19 *238:12 0.00076806
20 *238:10 0.000293683
21 *1312:CLK *1312:D 5.50049e-05
22 *238:10 *340:30 0.000140821
23 *238:10 *340:32 3.88725e-05
24 *238:23 *1065:A_N 3.06803e-05
25 *238:23 *1098:A 6.37041e-06
26 *238:23 *1285:RESET_B 4.70852e-05
27 *238:23 *340:8 0.000281731
28 *238:38 *1285:RESET_B 0
29 *238:49 *1285:RESET_B 0
30 *238:60 *1072:A1 0
31 *238:60 *361:23 0
32 *238:71 *361:23 0
33 *238:86 *362:16 6.5117e-06
34 *238:97 *1068:B_N 2.93747e-05
35 *238:97 *312:18 9.10818e-05
36 *238:97 *359:6 1.70074e-05
37 *238:116 *1088:A 0
38 *238:116 *309:33 3.59145e-05
39 *238:116 *359:19 0
40 *1069:B1_N *238:116 1.24376e-05
41 *1125:A *1292:CLK 6.17437e-06
42 *1125:B *1292:CLK 5.56279e-05
43 *1125:C *1292:CLK 6.86048e-05
44 *1226:A1 *238:116 5.5792e-05
45 *1226:A2 *238:116 1.7403e-05
46 *1311:D *238:86 5.50049e-05
47 *1311:D *238:97 0.000105494
48 *33:18 *1290:CLK 1.75614e-05
49 *42:12 *1313:CLK 1.83408e-05
50 *72:10 *1293:CLK 0.000127317
51 *97:14 *1292:CLK 3.12273e-05
52 *99:95 *238:86 0.00024503
53 *100:8 *238:116 0.000187098
54 *119:10 *238:49 0
55 *119:10 *238:60 0
56 *119:12 *238:49 0
57 *120:10 *1290:CLK 0.000273509
58 *120:10 *238:38 9.8135e-05
59 *120:16 *1290:CLK 0.0004331
60 *122:10 *238:10 0.000190047
61 *139:10 *1290:CLK 2.24366e-06
62 *139:10 *238:38 3.76157e-05
63 *139:10 *238:49 9.5956e-06
64 *141:10 *1292:CLK 3.22051e-05
65 *212:10 *238:116 0
66 *213:10 *238:116 5.66248e-05
67 *229:10 *238:10 8.47318e-05
*RES
1 *1323:X *238:10 44.1729 
2 *238:10 *238:12 15 
3 *238:12 *1285:CLK 23 
4 *238:12 *238:23 25.9993 
5 *238:23 *1290:CLK 48.0671 
6 *238:23 *238:38 2.25786 
7 *238:38 *1292:CLK 40.5271 
8 *238:38 *238:49 8.59643 
9 *238:49 *1312:CLK 38.6214 
10 *238:49 *238:60 2.96214 
11 *238:60 *1291:CLK 40.0507 
12 *238:60 *238:71 5.77929 
13 *238:71 *1313:CLK 40.0507 
14 *238:71 *238:86 24.2179 
15 *238:86 *1311:CLK 23 
16 *238:86 *238:97 14.355 
17 *238:97 *1293:CLK 27.4536 
18 *238:97 *238:116 35.1371 
19 *238:116 *1314:CLK 23 
*END

*D_NET *239 0.00376135
*CONN
*I *1238:A0 I *D sky130_fd_sc_hd__mux2_1
*I *1375:X O *D sky130_fd_sc_hd__clkbuf_1
*CAP
1 *1238:A0 0
2 *1375:X 0.00157384
3 *239:12 0.000287615
4 *239:6 0.00186146
5 *1307:CLK *239:12 3.84404e-05
6 *80:8 *239:12 0
*RES
1 *1375:X *239:6 43.6314 
2 *239:6 *239:12 35.7793 
3 *239:12 *1238:A0 23 
*END

*D_NET *240 0.00897194
*CONN
*I *1331:A I *D sky130_fd_sc_hd__clkbuf_2
*I *1327:A I *D sky130_fd_sc_hd__buf_2
*I *1376:X O *D sky130_fd_sc_hd__buf_1
*CAP
1 *1331:A 8.84982e-05
2 *1327:A 0.000204249
3 *1376:X 0.000484103
4 *240:23 0.00195438
5 *240:10 0.00255423
6 *1327:A *258:8 0.000120867
7 *1327:A *325:8 5.67058e-05
8 *1331:A *1329:A 1.83444e-05
9 *1331:A *263:21 2.79543e-05
10 *240:10 *1324:A 0
11 *240:10 *258:10 0
12 *240:10 *330:25 0
13 *240:23 *1301:RESET_B 0.000198132
14 *240:23 *1302:RESET_B 8.52094e-06
15 *240:23 *258:10 0
16 *240:23 *258:38 0
17 *240:23 *266:21 0.00025214
18 *240:23 *311:12 0.000206323
19 *240:23 *311:16 0.00151334
20 *1083:B *240:23 2.2385e-05
21 *1193:S *240:23 0.000112823
22 *1199:B *240:23 0
23 *1286:CLK *240:23 0
24 *3:17 *240:23 0
25 *61:8 *240:23 8.85189e-05
26 *93:46 *240:10 4.08537e-05
27 *93:57 *1327:A 0.000185133
28 *109:66 *240:23 0.000208752
29 *110:70 *240:23 1.16455e-05
30 *111:8 *240:23 0.000293199
31 *187:14 *240:23 7.13157e-05
32 *190:8 *240:23 0.000175676
33 *194:8 *240:10 2.96909e-05
34 *194:8 *240:23 4.41619e-05
35 *237:10 *240:23 0
*RES
1 *1376:X *240:10 45.1257 
2 *240:10 *1327:A 43.8829 
3 *240:10 *240:23 47.6843 
4 *240:23 *1331:A 39.595 
*END

*D_NET *241 0.000911947
*CONN
*I *1297:D I *D sky130_fd_sc_hd__dfxtp_1
*I *1377:X O *D sky130_fd_sc_hd__clkbuf_1
*CAP
1 *1297:D 6.61482e-05
2 *1377:X 0.000229726
3 *241:8 0.000295874
4 *241:8 *261:14 0
5 *1377:A *241:8 3.23515e-05
6 *233:45 *241:8 3.70094e-05
7 *233:60 *241:8 0.000250839
*RES
1 *1377:X *241:8 43.4271 
2 *241:8 *1297:D 39.3102 
*END

*D_NET *242 0.00341951
*CONN
*I *1387:A I *D sky130_fd_sc_hd__clkbuf_4
*I *1127:A1 I *D sky130_fd_sc_hd__mux2_1
*I *1255:Q O *D sky130_fd_sc_hd__dfrtp_1
*CAP
1 *1387:A 0.00045899
2 *1127:A1 0.000114793
3 *1255:Q 0.000453093
4 *242:12 0.000573782
5 *242:10 0.000453093
6 *1127:A1 *1127:A0 5.79559e-05
7 *1127:A1 *270:6 0.000130971
8 *1387:A *1128:A 0.00010018
9 *1387:A *270:6 5.56356e-05
10 *242:10 *256:31 1.07703e-05
11 *242:10 *270:23 0.000271715
12 *12:8 *1387:A 0.000228909
13 *112:117 *1127:A1 2.46906e-05
14 *112:117 *1387:A 0.000303217
15 *142:8 *1387:A 0.000181715
*RES
1 *1255:Q *242:10 44.5664 
2 *242:10 *242:12 15 
3 *242:12 *1127:A1 25.5271 
4 *242:12 *1387:A 35.615 
*END

*D_NET *243 0.00144457
*CONN
*I *1129:A1 I *D sky130_fd_sc_hd__mux2_1
*I *1388:A I *D sky130_fd_sc_hd__clkbuf_4
*I *1256:Q O *D sky130_fd_sc_hd__dfrtp_1
*CAP
1 *1129:A1 2.63132e-05
2 *1388:A 0.00033422
3 *1256:Q 0.000241572
4 *243:12 0.000360533
5 *243:10 0.000241572
6 *1129:A1 *1129:A0 2.47127e-05
7 *1388:A *1129:A0 1.32314e-05
8 *1388:A *292:10 9.36522e-05
9 *243:10 *1256:RESET_B 7.6474e-05
10 *243:10 *1389:A 0
11 *243:10 *292:10 0
12 *1351:A *1388:A 3.22879e-05
*RES
1 *1256:Q *243:10 41.48 
2 *243:10 *243:12 15 
3 *243:12 *1388:A 30.3121 
4 *243:12 *1129:A1 23.6214 
*END

*D_NET *244 0.00267901
*CONN
*I *1131:A1 I *D sky130_fd_sc_hd__mux2_1
*I *1389:A I *D sky130_fd_sc_hd__clkbuf_4
*I *1257:Q O *D sky130_fd_sc_hd__dfrtp_1
*CAP
1 *1131:A1 7.71647e-05
2 *1389:A 0.000310383
3 *1257:Q 0.000152977
4 *244:10 0.000540525
5 *1131:A1 *1131:A0 4.96207e-05
6 *1389:A *1129:A0 0.000102389
7 *1129:S *1389:A 0.000195349
8 *1131:S *1131:A1 4.89314e-05
9 *1278:CLK *244:10 1.21972e-05
10 *112:31 *244:10 0.00014962
11 *112:33 *1389:A 0.00047104
12 *112:33 *244:10 1.12863e-05
13 *231:57 *244:10 3.7122e-06
14 *231:65 *1389:A 0.000404194
15 *231:65 *244:10 0.00014962
16 *243:10 *1389:A 0
*RES
1 *1257:Q *244:10 40.8793 
2 *244:10 *1389:A 47.6943 
3 *244:10 *1131:A1 39.595 
*END

*D_NET *245 0.00200733
*CONN
*I *1390:A I *D sky130_fd_sc_hd__clkbuf_4
*I *1133:A1 I *D sky130_fd_sc_hd__mux2_1
*I *1258:Q O *D sky130_fd_sc_hd__dfrtp_1
*CAP
1 *1390:A 0.000536453
2 *1133:A1 0
3 *1258:Q 0.000263255
4 *245:14 0.000799707
5 *245:14 *298:16 0.000296067
6 *245:14 *299:10 0
7 *1279:CLK *245:14 0
8 *145:10 *1390:A 0.000101708
9 *145:10 *245:14 1.01436e-05
*RES
1 *1258:Q *245:14 43.3029 
2 *245:14 *1133:A1 38 
3 *245:14 *1390:A 46.845 
*END

*D_NET *246 0.00391992
*CONN
*I *1391:A I *D sky130_fd_sc_hd__clkbuf_4
*I *1135:A1 I *D sky130_fd_sc_hd__mux2_1
*I *1259:Q O *D sky130_fd_sc_hd__dfrtp_1
*CAP
1 *1391:A 0
2 *1135:A1 0
3 *1259:Q 0
4 *246:27 0.00111435
5 *246:12 0.000662965
6 *246:4 0.00177732
7 *246:12 *285:10 0.000274078
8 *1344:A *246:12 7.97636e-05
9 *1378:A *246:27 1.14452e-05
*RES
1 *1259:Q *246:4 23 
2 *246:4 *246:12 40.73 
3 *246:12 *1135:A1 23 
4 *246:4 *246:27 44.935 
5 *246:27 *1391:A 23 
*END

*D_NET *247 0.00153786
*CONN
*I *1338:A I *D sky130_fd_sc_hd__dlygate4sd3_1
*I *1392:A I *D sky130_fd_sc_hd__clkbuf_4
*I *1260:Q O *D sky130_fd_sc_hd__dfrtp_1
*CAP
1 *1338:A 0.000121806
2 *1392:A 0
3 *1260:Q 0
4 *247:10 0.000348916
5 *247:4 0.000470722
6 *1338:A *1260:RESET_B 5.12254e-05
7 *247:10 *255:20 1.22803e-05
8 *247:10 *255:40 0
9 *247:10 *255:83 2.60152e-05
10 *247:10 *279:8 0.000110922
11 *69:12 *247:10 0
12 *93:33 *1338:A 7.8257e-05
13 *147:10 *247:10 0
14 *197:16 *1338:A 0.000317714
*RES
1 *1260:Q *247:4 23 
2 *247:4 *247:10 36.4836 
3 *247:10 *1392:A 23 
4 *247:4 *1338:A 27.3293 
*END

*D_NET *248 0.00698313
*CONN
*I *1393:A I *D sky130_fd_sc_hd__clkbuf_4
*I *1139:A1 I *D sky130_fd_sc_hd__mux2_1
*I *1261:Q O *D sky130_fd_sc_hd__dfrtp_1
*CAP
1 *1393:A 0
2 *1139:A1 0
3 *1261:Q 0
4 *248:25 0.00137677
5 *248:21 0.00211835
6 *248:12 0.000416971
7 *248:4 0.00115855
8 *248:12 *1139:A0 5.50049e-05
9 *248:12 *256:102 0.000175872
10 *248:12 *256:116 2.76611e-06
11 *248:25 *1290:RESET_B 0
12 *248:25 *249:31 0.00161675
13 *248:25 *343:25 0
14 tx_out *248:25 6.21013e-05
15 *136:29 *248:25 0
*RES
1 *1261:Q *248:4 23 
2 *248:4 *248:12 36.6907 
3 *248:12 *1139:A1 23 
4 *248:4 *248:21 28.0086 
5 *248:21 *248:25 48.2464 
6 *248:25 *1393:A 23 
*END

*D_NET *249 0.00937282
*CONN
*I *1394:A I *D sky130_fd_sc_hd__buf_2
*I *1141:A1 I *D sky130_fd_sc_hd__mux2_1
*I *1262:Q O *D sky130_fd_sc_hd__dfrtp_1
*CAP
1 *1394:A 0
2 *1141:A1 0
3 *1262:Q 0
4 *249:31 0.00129059
5 *249:27 0.00225335
6 *249:14 0.000990084
7 *249:4 0.00195284
8 *249:14 *1141:A0 5.5792e-05
9 *249:14 *1262:RESET_B 4.89921e-05
10 *249:14 *1275:SET_B 4.08664e-05
11 *249:14 *256:116 3.46013e-05
12 *249:27 *1275:SET_B 2.19716e-05
13 *249:31 *1290:RESET_B 0
14 *249:31 *1291:RESET_B 0
15 *249:31 *260:121 0
16 *249:31 *344:8 4.48671e-05
17 *1262:D *249:14 0.000269099
18 *1275:CLK *249:27 5.40241e-05
19 *1302:CLK *249:14 6.41457e-05
20 *18:8 *249:31 0.000121659
21 *141:10 *249:31 0
22 *229:22 *249:14 7.49835e-05
23 *229:22 *249:27 0.000314391
24 *236:51 *249:14 0.000123808
25 *248:25 *249:31 0.00161675
*RES
1 *1262:Q *249:4 23 
2 *249:4 *249:14 44.2307 
3 *249:14 *1141:A1 23 
4 *249:4 *249:27 29.6036 
5 *249:27 *249:31 47.8943 
6 *249:31 *1394:A 23 
*END

*D_NET *250 0.0179957
*CONN
*I *1240:A0 I *D sky130_fd_sc_hd__mux2_1
*I *1378:X O *D sky130_fd_sc_hd__buf_1
*CAP
1 *1240:A0 0
2 *1378:X 0.00111645
3 *250:30 0.0017389
4 *250:24 0.00316016
5 *250:20 0.00400544
6 *250:12 0.0026713
7 *250:6 0.00120357
8 *250:24 *297:8 8.85189e-05
9 *250:24 *308:10 0
10 *250:24 *330:25 0
11 *250:30 *1304:RESET_B 0.000203827
12 *250:30 *259:12 0.000170233
13 *250:30 *259:19 0.0003206
14 *250:30 *259:26 6.14075e-05
15 *250:30 *316:55 7.53809e-05
16 *250:30 *336:38 1.79317e-05
17 *250:30 *348:77 0.000115013
18 *250:30 *349:23 0
19 *250:30 *354:25 8.9458e-05
20 *1207:D *250:24 0.000241899
21 *1216:A *250:24 0.000266408
22 *1376:A *250:20 0
23 *26:12 *250:30 0
24 *26:18 *250:30 0
25 *104:81 *250:30 0
26 *105:8 *250:30 8.85189e-05
27 *109:21 *250:24 0.00015301
28 *109:32 *250:24 0.000598617
29 *109:51 *250:24 0.000158011
30 *110:55 *250:24 0
31 *112:14 *250:24 0
32 *112:14 *250:30 4.91732e-05
33 *150:8 *250:30 0.000162263
34 *151:8 *250:30 0.000161292
35 *151:29 *250:30 0.000488733
36 *184:10 *250:24 0.000182158
37 *184:12 *250:24 7.81176e-05
38 *184:14 *250:24 0.000192665
39 *184:26 *250:24 6.00097e-05
40 *199:10 *250:24 6.437e-05
41 *206:10 *250:24 1.22803e-05
42 *207:8 *250:20 0
43 *207:8 *250:24 0
44 *222:8 *250:30 0
*RES
1 *1378:X *250:6 37.4379 
2 *250:6 *250:12 31.2014 
3 *250:12 *250:20 49.4789 
4 *250:20 *250:24 31.1957 
5 *250:24 *250:30 41.2318 
6 *250:30 *1240:A0 38 
*END

*D_NET *251 0.000604946
*CONN
*I *1395:A I *D sky130_fd_sc_hd__clkbuf_4
*I *1254:Q O *D sky130_fd_sc_hd__dfrtp_1
*CAP
1 *1395:A 0
2 *1254:Q 0.000176021
3 *251:10 0.000176021
4 *251:10 *1293:RESET_B 0.000141052
5 *251:10 *252:10 0.000111852
*RES
1 *1254:Q *251:10 41.1279 
2 *251:10 *1395:A 38 
*END

*D_NET *252 0.00924063
*CONN
*I *1333:A I *D sky130_fd_sc_hd__dlygate4sd3_1
*I *1226:B1_N I *D sky130_fd_sc_hd__a21boi_1
*I *1396:A I *D sky130_fd_sc_hd__clkbuf_4
*I *1293:Q O *D sky130_fd_sc_hd__dfrtp_1
*CAP
1 *1333:A 0
2 *1226:B1_N 0
3 *1396:A 0
4 *1293:Q 0.000172983
5 *252:31 0.00040115
6 *252:23 0.000640295
7 *252:14 0.00244699
8 *252:12 0.00268614
9 *252:10 0.000172983
10 *252:14 *1347:A 0.000103637
11 *252:14 *1359:A 0.000187976
12 *252:14 *283:6 0.00122928
13 *252:14 *288:10 5.50106e-05
14 *252:14 *294:10 0.000188934
15 *252:31 *1250:A0 0.000128106
16 *1381:A *252:14 5.79559e-05
17 *114:25 *252:10 0
18 *114:25 *252:14 0.000119313
19 *114:25 *252:23 0.000538014
20 *251:10 *252:10 0.000111852
*RES
1 *1293:Q *252:10 41.1071 
2 *252:10 *252:12 15 
3 *252:12 *252:14 50.6464 
4 *252:14 *1396:A 23 
5 *252:12 *252:23 6.35929 
6 *252:23 *252:31 37.9543 
7 *252:31 *1226:B1_N 23 
8 *252:23 *1333:A 23 
*END

*D_NET *253 0.000686049
*CONN
*I *1397:A I *D sky130_fd_sc_hd__buf_2
*I *1275:Q O *D sky130_fd_sc_hd__dfstp_1
*CAP
1 *1397:A 0
2 *1275:Q 0.000343024
3 *253:10 0.000343024
*RES
1 *1275:Q *253:10 29.2454 
2 *253:10 *1397:A 23 
*END

*D_NET *254 0.00503142
*CONN
*I *1060:A2 I *D sky130_fd_sc_hd__a22o_1
*I *1085:C I *D sky130_fd_sc_hd__nand3_4
*I *1189:A2 I *D sky130_fd_sc_hd__a21oi_1
*I *1062:A4 I *D sky130_fd_sc_hd__a41o_1
*I *1386:X O *D sky130_fd_sc_hd__clkbuf_2
*CAP
1 *1060:A2 7.21096e-05
2 *1085:C 0.000329438
3 *1189:A2 0.000211125
4 *1062:A4 0.000165102
5 *1386:X 0.000124897
6 *254:10 0.000721079
7 *254:8 0.000674291
8 *254:6 0.000197007
9 *1062:A4 *1061:A 1.01436e-05
10 *1062:A4 *1062:A2 5.94125e-05
11 *1062:A4 *1210:A 5.50049e-05
12 *1062:A4 *322:82 5.50106e-05
13 *1062:A4 *324:68 1.68817e-05
14 *1085:C *307:14 0.000136905
15 *1085:C *333:54 0
16 *1085:C *335:53 3.90213e-05
17 *254:10 *1061:A 7.39034e-05
18 *254:10 *333:54 0
19 *254:10 *334:33 0.000161121
20 *1060:B1 *1060:A2 2.93431e-05
21 *1060:B1 *254:6 1.47709e-05
22 *1196:A3 *1189:A2 6.18285e-05
23 *1196:B1 *1189:A2 5.3304e-05
24 *1299:D *1060:A2 5.47983e-06
25 *92:10 *1085:C 1.46378e-05
26 *93:137 *1060:A2 2.64681e-06
27 *93:137 *1085:C 2.05503e-05
28 *93:137 *254:6 5.79559e-05
29 *104:24 *1085:C 3.33905e-05
30 *104:30 *254:6 2.92496e-05
31 *110:33 *1189:A2 2.98648e-05
32 *155:10 *1085:C 6.33351e-05
33 *192:14 *1189:A2 0.000248317
34 *230:41 *1189:A2 0.000602801
35 *232:85 *1060:A2 1.56762e-05
36 *232:85 *1085:C 1.0092e-05
37 *232:85 *1189:A2 5.56356e-05
38 *232:85 *254:10 0.000580085
*RES
1 *1386:X *254:6 25.5271 
2 *254:6 *254:8 15 
3 *254:8 *254:10 8.24429 
4 *254:10 *1062:A4 41.2314 
5 *254:10 *1189:A2 46.4307 
6 *254:8 *1085:C 45.25 
7 *254:6 *1060:A2 24.6157 
*END

*D_NET *255 0.0143002
*CONN
*I *1274:RESET_B I *D sky130_fd_sc_hd__dfrtp_2
*I *1278:RESET_B I *D sky130_fd_sc_hd__dfrtp_1
*I *1300:RESET_B I *D sky130_fd_sc_hd__dfrtp_4
*I *1279:RESET_B I *D sky130_fd_sc_hd__dfrtp_1
*I *1277:RESET_B I *D sky130_fd_sc_hd__dfrtp_1
*I *1258:RESET_B I *D sky130_fd_sc_hd__dfrtp_1
*I *1257:RESET_B I *D sky130_fd_sc_hd__dfrtp_1
*I *1256:RESET_B I *D sky130_fd_sc_hd__dfrtp_1
*I *1260:RESET_B I *D sky130_fd_sc_hd__dfrtp_1
*I *1281:RESET_B I *D sky130_fd_sc_hd__dfrtp_1
*I *1324:X O *D sky130_fd_sc_hd__clkbuf_4
*CAP
1 *1274:RESET_B 0.00012493
2 *1278:RESET_B 0.000353572
3 *1300:RESET_B 0
4 *1279:RESET_B 0.000868203
5 *1277:RESET_B 2.00578e-05
6 *1258:RESET_B 0.000666511
7 *1257:RESET_B 0
8 *1256:RESET_B 0.000939093
9 *1260:RESET_B 0.000583987
10 *1281:RESET_B 9.25851e-06
11 *1324:X 8.34061e-05
12 *255:89 0.00117624
13 *255:85 0.000949969
14 *255:83 0.000681957
15 *255:52 0.00112148
16 *255:40 0.000992807
17 *255:20 0.00115913
18 *255:6 0.000887774
19 *1258:RESET_B *290:8 0.000106185
20 *1258:RESET_B *298:16 4.04598e-06
21 *1258:RESET_B *299:10 4.83778e-05
22 *1281:RESET_B *1137:A0 1.53169e-05
23 *255:6 *1137:A0 2.13733e-05
24 *255:6 *330:25 1.73399e-05
25 *255:20 *1137:A0 5.06248e-05
26 *255:20 *279:8 0.000110922
27 *255:40 *1138:A 5.67058e-05
28 *255:52 *290:8 0.000115526
29 *255:52 *292:10 0
30 *1063:A1 *1279:RESET_B 4.94192e-05
31 *1274:D *1278:RESET_B 5.45541e-05
32 *1274:D *255:85 4.70565e-05
33 *1277:D *1256:RESET_B 5.37068e-05
34 *1279:CLK *1258:RESET_B 0
35 *1338:A *1260:RESET_B 5.12254e-05
36 *49:10 *255:40 2.30292e-05
37 *63:8 *1279:RESET_B 0
38 *63:8 *255:89 0.000123691
39 *67:10 *1258:RESET_B 0
40 *93:33 *1260:RESET_B 0.000144484
41 *93:107 *1279:RESET_B 6.43701e-05
42 *112:54 *1256:RESET_B 0.000346476
43 *112:54 *255:40 0.000779554
44 *144:8 *1258:RESET_B 1.70419e-05
45 *147:10 *255:40 0.000138718
46 *147:10 *255:83 0
47 *197:16 *1260:RESET_B 6.33202e-05
48 *200:10 *1274:RESET_B 1.23353e-05
49 *200:10 *255:83 0.000167266
50 *202:10 *1279:RESET_B 0.000292055
51 *231:65 *1256:RESET_B 5.56279e-05
52 *231:65 *255:52 0
53 *232:14 *1279:RESET_B 0.000114074
54 *232:25 *1279:RESET_B 0
55 *232:25 *255:89 0
56 *232:35 *255:20 0.000102389
57 *232:35 *255:40 0.000131304
58 *232:52 *255:20 0.000188927
59 *243:10 *1256:RESET_B 7.6474e-05
60 *247:10 *255:20 1.22803e-05
61 *247:10 *255:40 0
62 *247:10 *255:83 2.60152e-05
*RES
1 *1324:X *255:6 24.5743 
2 *255:6 *1281:RESET_B 0.548929 
3 *255:6 *255:20 26.6 
4 *255:20 *1260:RESET_B 17.9311 
5 *1260:RESET_B *255:40 43.5471 
6 *255:40 *1256:RESET_B 11.5275 
7 *1256:RESET_B *255:52 23.4411 
8 *255:52 *1257:RESET_B 15 
9 *255:52 *1258:RESET_B 28.7025 
10 *255:40 *1277:RESET_B 0.424643 
11 *255:20 *255:83 20.075 
12 *255:83 *255:85 3.95643 
13 *255:85 *255:89 21.4836 
14 *255:89 *1279:RESET_B 29.7796 
15 *255:89 *1300:RESET_B 15 
16 *255:85 *1278:RESET_B 6.28679 
17 *255:83 *1274:RESET_B 1.87464 
*END

*D_NET *256 0.0132059
*CONN
*I *1275:SET_B I *D sky130_fd_sc_hd__dfstp_1
*I *1262:RESET_B I *D sky130_fd_sc_hd__dfrtp_1
*I *1261:RESET_B I *D sky130_fd_sc_hd__dfrtp_1
*I *1282:RESET_B I *D sky130_fd_sc_hd__dfrtp_1
*I *1272:RESET_B I *D sky130_fd_sc_hd__dfrtp_2
*I *1273:RESET_B I *D sky130_fd_sc_hd__dfrtp_1
*I *1280:RESET_B I *D sky130_fd_sc_hd__dfrtp_1
*I *1259:RESET_B I *D sky130_fd_sc_hd__dfrtp_1
*I *1255:RESET_B I *D sky130_fd_sc_hd__dfrtp_1
*I *1276:RESET_B I *D sky130_fd_sc_hd__dfrtp_1
*I *1325:X O *D sky130_fd_sc_hd__clkbuf_4
*CAP
1 *1275:SET_B 0.000713902
2 *1262:RESET_B 1.91777e-05
3 *1261:RESET_B 6.25089e-05
4 *1282:RESET_B 0.000599791
5 *1272:RESET_B 0.000155574
6 *1273:RESET_B 0.000371317
7 *1280:RESET_B 0
8 *1259:RESET_B 0.000258636
9 *1255:RESET_B 0.000760344
10 *1276:RESET_B 9.47759e-05
11 *1325:X 0
12 *256:116 0.00128726
13 *256:102 0.0010334
14 *256:68 0.000992849
15 *256:62 0.00116844
16 *256:53 0.00068603
17 *256:41 0.000574976
18 *256:31 0.00101021
19 *256:4 0.000327872
20 *1255:RESET_B *1325:A 0.000187129
21 *1255:RESET_B *270:23 0.000164288
22 *1272:RESET_B *258:38 0
23 *1273:RESET_B *258:38 0
24 *1276:RESET_B *258:10 0.000168744
25 *256:31 *1372:A 8.62876e-05
26 *256:31 *270:23 1.06815e-05
27 *256:41 *1214:A1 0.000114856
28 *256:41 *285:10 0.000137638
29 *256:53 *1372:A 0.000105799
30 *256:102 *1139:A0 9.84794e-05
31 *256:102 *282:10 0
32 *256:102 *331:10 8.1796e-05
33 *256:116 *282:10 0
34 *256:116 *331:10 0
35 *1139:S *256:102 0.000357631
36 *1140:A *256:62 0
37 *1221:A *256:68 2.93335e-05
38 *1259:D *1259:RESET_B 0.000143655
39 *1282:D *256:68 8.25925e-05
40 *93:84 *1273:RESET_B 0
41 *112:103 *256:53 0
42 *112:103 *256:62 0
43 *112:117 *256:31 3.83778e-05
44 *112:117 *256:53 4.4382e-05
45 *148:8 *1282:RESET_B 2.93845e-05
46 *148:8 *256:102 4.56951e-05
47 *208:24 *1273:RESET_B 0
48 *209:8 *1273:RESET_B 0
49 *229:22 *1262:RESET_B 1.44773e-05
50 *229:22 *1275:SET_B 0.000423784
51 *235:27 *1272:RESET_B 1.83667e-05
52 *235:66 *256:62 5.41726e-05
53 *235:68 *256:53 3.97654e-05
54 *235:68 *256:62 0.000105957
55 *235:76 *256:31 0.000139357
56 *235:76 *256:53 3.04021e-05
57 *242:10 *256:31 1.07703e-05
58 *248:12 *256:102 0.000175872
59 *248:12 *256:116 2.76611e-06
60 *249:14 *1262:RESET_B 4.89921e-05
61 *249:14 *1275:SET_B 4.08664e-05
62 *249:14 *256:116 3.46013e-05
63 *249:27 *1275:SET_B 2.19716e-05
*RES
1 *1325:X *256:4 23 
2 *256:4 *1276:RESET_B 32.2579 
3 *256:4 *1255:RESET_B 5.95536 
4 *1255:RESET_B *256:31 22.9854 
5 *256:31 *256:41 49.6814 
6 *256:41 *1259:RESET_B 4.52607 
7 *256:31 *256:53 4.37071 
8 *256:53 *1280:RESET_B 15 
9 *256:53 *256:62 25.7093 
10 *256:62 *256:68 7.93357 
11 *256:68 *1273:RESET_B 36.2971 
12 *256:68 *1272:RESET_B 32.9621 
13 *256:62 *1282:RESET_B 3.42821 
14 *1282:RESET_B *256:102 25.8025 
15 *256:102 *1261:RESET_B 16.0461 
16 *256:102 *256:116 25.7093 
17 *256:116 *1262:RESET_B 0.548929 
18 *256:116 *1275:SET_B 11.8382 
*END

*D_NET *257 0.0112472
*CONN
*I *1301:RESET_B I *D sky130_fd_sc_hd__dfrtp_4
*I *1289:RESET_B I *D sky130_fd_sc_hd__dfrtp_1
*I *1288:RESET_B I *D sky130_fd_sc_hd__dfrtp_1
*I *1287:RESET_B I *D sky130_fd_sc_hd__dfrtp_1
*I *1283:RESET_B I *D sky130_fd_sc_hd__dfrtp_1
*I *1302:RESET_B I *D sky130_fd_sc_hd__dfrtp_4
*I *1326:X O *D sky130_fd_sc_hd__buf_2
*CAP
1 *1301:RESET_B 0.00029036
2 *1289:RESET_B 9.87566e-05
3 *1288:RESET_B 0.000377418
4 *1287:RESET_B 4.08008e-05
5 *1283:RESET_B 1.96933e-05
6 *1302:RESET_B 0.000931557
7 *1326:X 0.000208387
8 *257:58 0.00166385
9 *257:44 0.0021074
10 *257:28 0.001725
11 *257:8 0.000603915
12 *1288:RESET_B *343:10 0.000212297
13 *1301:RESET_B *1198:C 8.9728e-05
14 *1301:RESET_B *335:10 0.000560152
15 *1302:RESET_B *1198:C 0.000187612
16 *257:8 *1326:A 7.95762e-05
17 *257:8 *335:37 1.59094e-05
18 *257:58 *1111:A 4.95081e-05
19 *257:58 *342:10 0.00010018
20 *1083:B *1302:RESET_B 6.12392e-05
21 *1084:A2 *1302:RESET_B 0.000110267
22 *1110:B *257:58 4.00259e-06
23 *1111:B *257:58 0.000141052
24 *1112:A *257:58 0.000185428
25 *1112:C *257:58 0.000128533
26 *1142:A *257:44 0.000158914
27 *1289:D *1289:RESET_B 9.74561e-05
28 *1289:D *257:58 1.21972e-05
29 *1302:D *1302:RESET_B 4.70852e-05
30 *1302:D *257:28 0.000148865
31 *30:12 *257:44 2.22183e-05
32 *112:99 *257:44 1.41891e-05
33 *128:14 *257:58 9.84851e-05
34 *130:8 *257:58 2.71659e-05
35 *149:8 *257:44 4.90587e-05
36 *229:10 *257:44 0
37 *235:27 *257:28 6.2088e-05
38 *235:44 *257:28 0.000111106
39 *236:25 *257:44 8.82154e-05
40 *236:62 *1288:RESET_B 0.000110906
41 *240:23 *1301:RESET_B 0.000198132
42 *240:23 *1302:RESET_B 8.52094e-06
*RES
1 *1326:X *257:8 41.48 
2 *257:8 *1302:RESET_B 18.1589 
3 *1302:RESET_B *257:28 43.8061 
4 *257:28 *1283:RESET_B 0.424643 
5 *257:28 *257:44 47.6486 
6 *257:44 *1287:RESET_B 0.548929 
7 *257:44 *257:58 17.9593 
8 *257:58 *1288:RESET_B 37.5711 
9 *257:58 *1289:RESET_B 1.97821 
10 *257:8 *1301:RESET_B 24.1454 
*END

*D_NET *258 0.0169553
*CONN
*I *1326:A I *D sky130_fd_sc_hd__buf_2
*I *1299:SET_B I *D sky130_fd_sc_hd__dfstp_1
*I *1270:RESET_B I *D sky130_fd_sc_hd__dfrtp_2
*I *1271:RESET_B I *D sky130_fd_sc_hd__dfrtp_1
*I *1268:RESET_B I *D sky130_fd_sc_hd__dfrtp_1
*I *1325:A I *D sky130_fd_sc_hd__clkbuf_4
*I *1324:A I *D sky130_fd_sc_hd__clkbuf_4
*I *1327:X O *D sky130_fd_sc_hd__buf_2
*CAP
1 *1326:A 0.000348422
2 *1299:SET_B 3.17472e-05
3 *1270:RESET_B 0.000312008
4 *1271:RESET_B 0
5 *1268:RESET_B 0.000161618
6 *1325:A 5.4898e-05
7 *1324:A 0.000613832
8 *1327:X 0.000239512
9 *258:77 0.00131589
10 *258:60 0.00217326
11 *258:56 0.00143724
12 *258:46 0.00124776
13 *258:38 0.00237346
14 *258:10 0.000845976
15 *258:8 0.00165526
16 *1270:RESET_B *261:14 0
17 *1270:RESET_B *272:14 8.16253e-05
18 *1270:RESET_B *319:30 0.000184552
19 *1324:A *270:23 0.000269775
20 *1324:A *330:25 2.93747e-05
21 *1325:A *270:23 0.000128401
22 *1326:A *1198:C 0.000372682
23 *258:8 *325:8 0.00014428
24 *258:46 *1198:B 6.02638e-05
25 *258:46 *1198:C 0.000147636
26 *258:46 *333:14 6.47435e-06
27 *258:46 *336:76 4.66122e-05
28 *258:56 *334:37 4.2812e-06
29 *258:56 *334:48 0.000108287
30 *258:60 *1058:A 0.000103415
31 *258:60 *1186:B1 4.79641e-05
32 *258:77 *319:30 3.47396e-05
33 *1083:B *1326:A 1.41891e-05
34 *1179:A2 *1270:RESET_B 0
35 *1186:A3 *258:60 0.000182826
36 *1200:S *1324:A 2.65879e-05
37 *1201:A *1324:A 7.99217e-05
38 *1255:RESET_B *1325:A 0.000187129
39 *1272:RESET_B *258:38 0
40 *1273:RESET_B *258:38 0
41 *1276:RESET_B *258:10 0.000168744
42 *1299:D *258:56 0.000137654
43 *1327:A *258:8 0.000120867
44 *85:38 *258:60 5.3304e-05
45 *91:68 *258:60 5.79559e-05
46 *92:10 *258:56 8.64543e-05
47 *92:10 *258:60 2.93431e-05
48 *93:12 *1268:RESET_B 0
49 *93:12 *258:77 0
50 *109:66 *258:46 0.000230723
51 *110:70 *258:46 2.02872e-05
52 *169:6 *258:77 2.34132e-05
53 *184:6 *258:60 0.000133125
54 *187:14 *258:38 7.06124e-05
55 *190:8 *258:38 0.000112776
56 *193:10 *258:46 0.000135037
57 *211:10 *1326:A 6.43792e-05
58 *211:10 *258:38 0.000113561
59 *230:62 *258:60 2.93845e-05
60 *231:12 *258:60 0.000202663
61 *232:85 *258:56 1.35764e-05
62 *235:27 *258:38 0
63 *240:10 *1324:A 0
64 *240:10 *258:10 0
65 *240:23 *258:10 0
66 *240:23 *258:38 0
67 *257:8 *1326:A 7.95762e-05
*RES
1 *1327:X *258:8 41.9564 
2 *258:8 *258:10 3.66643 
3 *258:10 *1324:A 48.4607 
4 *258:10 *1325:A 40.5271 
5 *258:8 *258:38 24.0907 
6 *258:38 *258:46 28.2779 
7 *258:46 *258:56 37.2914 
8 *258:56 *258:60 36.1079 
9 *258:60 *1268:RESET_B 17.61 
10 *258:60 *258:77 48.2907 
11 *258:77 *1271:RESET_B 15 
12 *258:77 *1270:RESET_B 22.8921 
13 *258:46 *1299:SET_B 1.04607 
14 *258:38 *1326:A 46.0579 
*END

*D_NET *259 0.0147649
*CONN
*I *1304:RESET_B I *D sky130_fd_sc_hd__dfrtp_1
*I *1306:RESET_B I *D sky130_fd_sc_hd__dfrtp_1
*I *1303:RESET_B I *D sky130_fd_sc_hd__dfrtp_1
*I *1305:RESET_B I *D sky130_fd_sc_hd__dfrtp_1
*I *1269:RESET_B I *D sky130_fd_sc_hd__dfrtp_4
*I *1267:RESET_B I *D sky130_fd_sc_hd__dfrtp_2
*I *1263:RESET_B I *D sky130_fd_sc_hd__dfrtp_2
*I *1264:RESET_B I *D sky130_fd_sc_hd__dfrtp_2
*I *1265:RESET_B I *D sky130_fd_sc_hd__dfrtp_1
*I *1266:RESET_B I *D sky130_fd_sc_hd__dfrtp_1
*I *1328:X O *D sky130_fd_sc_hd__clkbuf_4
*CAP
1 *1304:RESET_B 0.000316725
2 *1306:RESET_B 9.89323e-05
3 *1303:RESET_B 0.000288999
4 *1305:RESET_B 0.00080985
5 *1269:RESET_B 0.000365612
6 *1267:RESET_B 0.00151284
7 *1263:RESET_B 0.00174611
8 *1264:RESET_B 1.47286e-05
9 *1265:RESET_B 0
10 *1266:RESET_B 0
11 *1328:X 0.000253947
12 *259:80 0.00110132
13 *259:40 0.00131494
14 *259:30 0.000891657
15 *259:26 0.00104387
16 *259:19 0.000378055
17 *259:12 0.000509114
18 *259:10 0.000469743
19 *1263:RESET_B *313:10 0.000189848
20 *1267:RESET_B *264:8 0
21 *1267:RESET_B *317:8 0.000144494
22 *1269:RESET_B *272:14 0
23 *1303:RESET_B *353:12 0
24 *1304:RESET_B *1363:A 0.000144158
25 *1304:RESET_B *349:23 3.3746e-05
26 *1305:RESET_B *353:6 9.52332e-06
27 *1305:RESET_B *353:35 3.70071e-06
28 *1306:RESET_B *353:35 2.88123e-05
29 *259:30 *306:10 5.56356e-05
30 *259:30 *314:10 5.56356e-05
31 *259:30 *315:51 5.56279e-05
32 *1076:A *259:10 3.34831e-05
33 *1263:CLK *1267:RESET_B 0.000174742
34 *1264:CLK *1263:RESET_B 6.55795e-05
35 *1267:D *1267:RESET_B 5.02669e-05
36 *1267:D *1269:RESET_B 2.55858e-05
37 *26:12 *259:12 0
38 *26:18 *1304:RESET_B 0
39 *26:18 *259:26 0
40 *38:10 *259:10 0.00010018
41 *38:10 *259:12 0
42 *56:10 *1269:RESET_B 2.14404e-05
43 *58:8 *1269:RESET_B 5.00902e-05
44 *77:8 *1304:RESET_B 4.93341e-05
45 *79:10 *1306:RESET_B 0
46 *105:8 *259:12 4.334e-05
47 *114:71 *1303:RESET_B 0.000600847
48 *224:10 *1303:RESET_B 0
49 *224:10 *1306:RESET_B 0
50 *230:20 *259:12 0
51 *234:10 *259:80 0
52 *234:23 *1303:RESET_B 0
53 *234:23 *259:80 0
54 *234:36 *1305:RESET_B 7.51982e-05
55 *234:36 *1306:RESET_B 4.6318e-06
56 *234:90 *259:12 0.000415752
57 *234:90 *259:19 0.000460778
58 *250:30 *1304:RESET_B 0.000203827
59 *250:30 *259:12 0.000170233
60 *250:30 *259:19 0.0003206
61 *250:30 *259:26 6.14075e-05
*RES
1 *1328:X *259:10 42.93 
2 *259:10 *259:12 7.54 
3 *259:12 *1266:RESET_B 15 
4 *259:12 *259:19 9.30071 
5 *259:19 *1265:RESET_B 15 
6 *259:19 *259:26 1.90571 
7 *259:26 *259:30 25.6264 
8 *259:30 *1264:RESET_B 0.548929 
9 *259:30 *259:40 3.50071 
10 *259:40 *1263:RESET_B 9.76679 
11 *1263:RESET_B *1267:RESET_B 49.4921 
12 *1267:RESET_B *1269:RESET_B 37.2293 
13 *259:40 *259:80 23.5964 
14 *259:80 *1305:RESET_B 22.4675 
15 *1305:RESET_B *1303:RESET_B 37.8921 
16 *259:80 *1306:RESET_B 17.32 
17 *259:26 *1304:RESET_B 22.7782 
*END

*D_NET *260 0.0201015
*CONN
*I *1291:RESET_B I *D sky130_fd_sc_hd__dfrtp_1
*I *1292:RESET_B I *D sky130_fd_sc_hd__dfrtp_1
*I *1290:RESET_B I *D sky130_fd_sc_hd__dfrtp_1
*I *1285:RESET_B I *D sky130_fd_sc_hd__dfrtp_2
*I *1254:RESET_B I *D sky130_fd_sc_hd__dfrtp_1
*I *1293:RESET_B I *D sky130_fd_sc_hd__dfrtp_1
*I *1295:RESET_B I *D sky130_fd_sc_hd__dfrtp_2
*I *1294:RESET_B I *D sky130_fd_sc_hd__dfrtp_4
*I *1286:RESET_B I *D sky130_fd_sc_hd__dfrtp_1
*I *1284:RESET_B I *D sky130_fd_sc_hd__dfrtp_4
*I *1329:X O *D sky130_fd_sc_hd__clkbuf_4
*CAP
1 *1291:RESET_B 0.000323507
2 *1292:RESET_B 0
3 *1290:RESET_B 0.000458532
4 *1285:RESET_B 0.000253677
5 *1254:RESET_B 7.59987e-06
6 *1293:RESET_B 0.000564757
7 *1295:RESET_B 0.000134456
8 *1294:RESET_B 0.0015429
9 *1286:RESET_B 0.000170865
10 *1284:RESET_B 3.71436e-05
11 *1329:X 4.99221e-05
12 *260:121 0.000577325
13 *260:119 0.00100362
14 *260:103 0.00157646
15 *260:101 0.00128485
16 *260:72 0.000650198
17 *260:68 0.000877054
18 *260:52 0.00128521
19 *260:50 0.00102838
20 *260:14 0.000446338
21 *260:8 0.00063091
22 *1254:RESET_B *357:8 1.12709e-05
23 *1285:RESET_B *340:8 2.64654e-05
24 *1293:RESET_B *357:8 4.48402e-06
25 *260:14 *339:10 0
26 *260:50 *263:38 0.000518146
27 *260:50 *311:16 0.000520275
28 *260:50 *348:12 4.45809e-05
29 *260:68 *1092:A2 0
30 *260:68 *1092:S0 0.000512219
31 *260:68 *1347:A 0
32 *260:68 *288:10 0
33 *260:68 *311:16 0
34 *260:68 *348:77 8.62876e-05
35 *260:68 *352:25 2.76611e-06
36 *260:72 *357:8 4.05309e-05
37 *260:101 *310:10 0
38 *260:101 *339:59 0.000132671
39 *260:101 *339:61 5.55743e-06
40 *260:101 *339:67 6.39535e-05
41 *260:101 *348:12 0.00018113
42 *260:103 *310:10 3.18969e-05
43 *260:119 *1124:A1 5.79559e-05
44 *260:119 *347:24 0.000146197
45 *1122:A2 *1291:RESET_B 0.000248989
46 *1230:B1 *260:101 0
47 *1254:CLK *1293:RESET_B 0
48 *1265:CLK *260:50 0.00022823
49 *1284:D *260:14 1.59094e-05
50 *1294:CLK *260:50 4.33627e-05
51 *1294:D *260:50 5.76359e-05
52 *1369:A *260:103 0.000267874
53 *19:10 *1291:RESET_B 0
54 *26:18 *260:68 0.00164768
55 *27:10 *1286:RESET_B 8.7816e-05
56 *27:10 *1294:RESET_B 7.2918e-05
57 *27:10 *260:14 0.000268348
58 *34:10 *1291:RESET_B 0
59 *35:8 *260:121 0.000138727
60 *119:12 *1285:RESET_B 6.25829e-05
61 *119:14 *1285:RESET_B 0.000225265
62 *119:18 *1285:RESET_B 0.000159611
63 *120:10 *1285:RESET_B 3.16259e-05
64 *126:10 *1286:RESET_B 4.697e-05
65 *126:10 *260:14 3.7122e-06
66 *136:29 *1290:RESET_B 0.000366057
67 *136:42 *1290:RESET_B 0.000167633
68 *136:42 *260:121 6.28316e-05
69 *136:53 *1291:RESET_B 0.00015954
70 *136:53 *260:121 3.70094e-05
71 *141:10 *260:121 0.000169674
72 *230:134 *260:8 5.3304e-05
73 *238:23 *1285:RESET_B 4.70852e-05
74 *238:38 *1285:RESET_B 0
75 *238:49 *1285:RESET_B 0
76 *248:25 *1290:RESET_B 0
77 *249:31 *1290:RESET_B 0
78 *249:31 *1291:RESET_B 0
79 *249:31 *260:121 0
80 *251:10 *1293:RESET_B 0.000141052
*RES
1 *1329:X *260:8 38.6214 
2 *260:8 *260:14 19.7643 
3 *260:14 *1284:RESET_B 0.776786 
4 *260:14 *1286:RESET_B 32.61 
5 *260:8 *1294:RESET_B 20.8414 
6 *1294:RESET_B *260:50 47.4104 
7 *260:50 *260:52 4.43286 
8 *260:52 *1295:RESET_B 1.87464 
9 *260:52 *260:68 38.5729 
10 *260:68 *260:72 16.5743 
11 *260:72 *1293:RESET_B 9.31107 
12 *260:72 *1254:RESET_B 0.548929 
13 *1294:RESET_B *260:101 40.6368 
14 *260:101 *260:103 13.0086 
15 *260:103 *1285:RESET_B 36.3282 
16 *260:103 *260:119 24.1971 
17 *260:119 *260:121 4.01857 
18 *260:121 *1290:RESET_B 26.8279 
19 *260:121 *1292:RESET_B 15 
20 *260:119 *1291:RESET_B 22.54 
*END

*D_NET *261 0.0103014
*CONN
*I *1242:A0 I *D sky130_fd_sc_hd__mux2_1
*I *1379:X O *D sky130_fd_sc_hd__buf_1
*CAP
1 *1242:A0 0
2 *1379:X 8.52579e-05
3 *261:18 0.00113123
4 *261:14 0.00341244
5 *261:12 0.00299151
6 *261:8 0.000795565
7 *261:12 *299:10 0
8 *261:14 *272:14 0
9 *261:14 *299:10 0
10 *261:18 *1244:A0 0.00132269
11 *1256:CLK *261:12 0.000117899
12 *1270:CLK *261:14 0
13 *1270:RESET_B *261:14 0
14 *1271:CLK *261:14 0
15 *47:10 *261:12 0.000116314
16 *59:10 *261:14 3.56537e-05
17 *231:33 *261:12 1.16784e-05
18 *231:33 *261:14 0
19 *231:35 *261:12 0.0002812
20 *233:12 *261:14 0
21 *233:45 *261:14 0
22 *241:8 *261:14 0
*RES
1 *1379:X *261:8 39.0979 
2 *261:8 *261:12 17.7832 
3 *261:12 *261:14 43.8211 
4 *261:14 *261:18 32.7729 
5 *261:18 *1242:A0 23 
*END

*D_NET *262 0.00898665
*CONN
*I *1311:SET_B I *D sky130_fd_sc_hd__dfstp_1
*I *1314:RESET_B I *D sky130_fd_sc_hd__dfrtp_1
*I *1313:RESET_B I *D sky130_fd_sc_hd__dfrtp_1
*I *1312:RESET_B I *D sky130_fd_sc_hd__dfrtp_2
*I *1296:RESET_B I *D sky130_fd_sc_hd__dfrtp_1
*I *1310:RESET_B I *D sky130_fd_sc_hd__dfrtp_1
*I *1330:X O *D sky130_fd_sc_hd__buf_2
*CAP
1 *1311:SET_B 0.000162411
2 *1314:RESET_B 4.37154e-05
3 *1313:RESET_B 0
4 *1312:RESET_B 0
5 *1296:RESET_B 0.000197017
6 *1310:RESET_B 0.000308285
7 *1330:X 0
8 *262:68 0.000517601
9 *262:61 0.000615278
10 *262:54 0.000338989
11 *262:50 0.000950044
12 *262:26 0.00199214
13 *262:4 0.00118855
14 *1296:RESET_B *1091:A 0
15 *1311:SET_B *312:18 3.2457e-05
16 *1314:RESET_B *305:18 1.60273e-05
17 *262:26 *1093:B_N 0.000164171
18 *262:26 *350:12 0.000140697
19 *262:50 *1078:A 0.000268868
20 *262:50 *1091:A 4.72245e-05
21 *262:50 *360:8 0.000104519
22 *262:54 *1072:A1 6.48142e-05
23 *262:61 *1072:A1 0.000171906
24 *262:61 *1095:C 0.000196925
25 *262:61 *361:23 0.000210668
26 *262:68 *1095:C 7.52808e-05
27 *262:68 *309:33 0.000138493
28 *1069:B1_N *1314:RESET_B 2.57362e-05
29 *1071:B *262:50 2.62989e-05
30 *1078:B *262:50 0.000272377
31 *1091:B *1296:RESET_B 9.64943e-05
32 *1091:B *262:50 5.53064e-05
33 *1093:A *1310:RESET_B 4.39278e-05
34 *1237:A *262:50 1.59094e-05
35 *99:22 *262:50 0.000198497
36 *99:30 *262:50 2.18409e-05
37 *101:6 *262:50 2.10245e-05
38 *107:8 *262:50 9.03784e-05
39 *107:31 *262:50 0.000125413
40 *114:127 *1311:SET_B 0
41 *116:8 *262:50 1.94693e-05
42 *117:8 *1310:RESET_B 2.79004e-05
43 *229:10 *262:54 0
44 *229:10 *262:61 0
*RES
1 *1330:X *262:4 23 
2 *262:4 *1310:RESET_B 35.1061 
3 *262:4 *262:26 42.5943 
4 *262:26 *1296:RESET_B 2.8275 
5 *262:26 *262:50 48.6843 
6 *262:50 *262:54 15.8493 
7 *262:54 *1312:RESET_B 15 
8 *262:54 *262:61 7.89214 
9 *262:61 *1313:RESET_B 15 
10 *262:61 *262:68 6.13143 
11 *262:68 *1314:RESET_B 16.0461 
12 *262:68 *1311:SET_B 18.3143 
*END

*D_NET *263 0.0118588
*CONN
*I *1330:A I *D sky130_fd_sc_hd__buf_2
*I *1309:RESET_B I *D sky130_fd_sc_hd__dfrtp_1
*I *1307:RESET_B I *D sky130_fd_sc_hd__dfrtp_1
*I *1308:RESET_B I *D sky130_fd_sc_hd__dfrtp_1
*I *1329:A I *D sky130_fd_sc_hd__clkbuf_4
*I *1328:A I *D sky130_fd_sc_hd__clkbuf_4
*I *1331:X O *D sky130_fd_sc_hd__clkbuf_2
*CAP
1 *1330:A 0.00014252
2 *1309:RESET_B 0.000123845
3 *1307:RESET_B 0.000542942
4 *1308:RESET_B 0.000156492
5 *1329:A 0.000459033
6 *1328:A 0
7 *1331:X 0
8 *263:56 0.00100803
9 *263:46 0.00126445
10 *263:40 0.000909233
11 *263:38 0.000977741
12 *263:21 0.00156768
13 *263:14 0.00045988
14 *263:4 0.00059079
15 *1307:RESET_B *355:8 1.84917e-05
16 *1308:RESET_B *355:18 0.000312588
17 *1309:RESET_B *288:10 7.14254e-05
18 *1330:A *1092:A3 2.93747e-05
19 *263:14 *311:16 0.000797516
20 *263:38 *311:16 0.000521921
21 *263:38 *311:22 0.000381747
22 *263:38 *358:8 8.62783e-05
23 *263:46 *1092:A2 1.42605e-05
24 *263:46 *1092:A3 0.000118271
25 *263:46 *355:18 0.000169834
26 *263:56 *288:10 1.00203e-05
27 *263:56 *356:21 3.56377e-05
28 *1240:S *263:56 0
29 *1251:A *1307:RESET_B 0.000236103
30 *1296:CLK *263:38 0
31 *1331:A *1329:A 1.83444e-05
32 *1331:A *263:21 2.79543e-05
33 *26:12 *263:14 0
34 *26:18 *263:14 0
35 *75:10 *263:38 3.46181e-05
36 *82:10 *1307:RESET_B 5.74259e-05
37 *117:8 *263:38 2.60152e-05
38 *230:126 *263:38 2.33476e-05
39 *230:134 *1329:A 0.000146822
40 *237:10 *263:38 0
41 *237:57 *263:38 0
42 *237:68 *263:38 0
43 *260:50 *263:38 0.000518146
*RES
1 *1331:X *263:4 23 
2 *263:4 *263:14 42.5321 
3 *263:14 *1328:A 23 
4 *263:4 *263:21 1.57429 
5 *263:21 *1329:A 31.6171 
6 *263:21 *263:38 39.505 
7 *263:38 *263:40 15 
8 *263:40 *263:46 10.7921 
9 *263:46 *1308:RESET_B 3.4075 
10 *263:46 *263:56 21.4836 
11 *263:56 *1307:RESET_B 26.0511 
12 *263:56 *1309:RESET_B 17.9621 
13 *263:40 *1330:A 25.5686 
*END

*D_NET *264 0.00029872
*CONN
*I *1298:D I *D sky130_fd_sc_hd__dfxtp_1
*I *1332:X O *D sky130_fd_sc_hd__dlygate4sd3_1
*CAP
1 *1298:D 1.13183e-05
2 *1332:X 0.000101759
3 *264:8 0.000113077
4 *264:8 *272:14 5.61311e-05
5 *1267:RESET_B *264:8 0
6 *233:71 *1298:D 1.64354e-05
*RES
1 *1332:X *264:8 40.2579 
2 *264:8 *1298:D 38.1916 
*END

*D_NET *265 0.000337844
*CONN
*I *1120:A1 I *D sky130_fd_sc_hd__o21a_1
*I *1343:X O *D sky130_fd_sc_hd__dlygate4sd3_1
*CAP
1 *1120:A1 0.000138333
2 *1343:X 0.000138333
3 *1120:A2 *1120:A1 6.17437e-06
4 *1120:B1 *1120:A1 5.50049e-05
*RES
1 *1343:X *1120:A1 48.5271 
*END

*D_NET *266 0.00171975
*CONN
*I *1190:A1 I *D sky130_fd_sc_hd__a21oi_1
*I *1189:B1 I *D sky130_fd_sc_hd__a21oi_1
*I *1354:X O *D sky130_fd_sc_hd__dlygate4sd3_1
*CAP
1 *1190:A1 0
2 *1189:B1 0.000144477
3 *1354:X 0
4 *266:21 0.000199769
5 *266:4 0.000344247
6 *266:21 *322:16 0.000197862
7 *1190:A2 *266:21 0.000169674
8 *1193:S *266:21 8.94487e-05
9 *1196:A3 *1189:B1 0.000141052
10 *187:14 *266:21 0.000103555
11 *230:41 *1189:B1 7.1349e-05
12 *230:41 *266:21 6.17437e-06
13 *240:23 *266:21 0.00025214
*RES
1 *1354:X *266:4 23 
2 *266:4 *1189:B1 26.0036 
3 *266:4 *266:21 36.3386 
4 *266:21 *1190:A1 23 
*END

*D_NET *267 0.000108552
*CONN
*I *1096:A I *D sky130_fd_sc_hd__nor2_1
*I *1365:X O *D sky130_fd_sc_hd__dlygate4sd3_1
*CAP
1 *1096:A 8.82136e-06
2 *1365:X 8.82136e-06
3 *1096:A *339:23 5.82853e-05
4 *27:10 *1096:A 3.26241e-05
*RES
1 *1365:X *1096:A 46.6214 
*END

*D_NET *268 0.00102472
*CONN
*I *1162:A1 I *D sky130_fd_sc_hd__a31oi_1
*I *1161:B1 I *D sky130_fd_sc_hd__a21oi_1
*I *1370:X O *D sky130_fd_sc_hd__dlygate4sd3_1
*CAP
1 *1162:A1 0
2 *1161:B1 3.25769e-05
3 *1370:X 0
4 *268:19 0.000188057
5 *268:4 0.000220634
6 *268:19 *316:8 4.34464e-05
7 *1158:B1_N *268:19 1.35751e-05
8 *55:10 *268:19 9.67842e-05
9 *104:81 *268:19 0.000216712
10 *151:29 *1161:B1 5.50049e-05
11 *159:10 *268:19 2.94915e-05
12 *165:12 *268:19 0.000128438
*RES
1 *1370:X *268:4 23 
2 *268:4 *1161:B1 23.6214 
3 *268:4 *268:19 35.0129 
4 *268:19 *1162:A1 23 
*END

*D_NET *269 0.000114064
*CONN
*I *1106:A I *D sky130_fd_sc_hd__inv_2
*I *1371:X O *D sky130_fd_sc_hd__dlygate4sd3_1
*CAP
1 *1106:A 2.95294e-05
2 *1371:X 2.95294e-05
3 *127:8 *1106:A 5.50049e-05
*RES
1 *1371:X *1106:A 46.6214 
*END

*D_NET *270 0.00245482
*CONN
*I *1200:A1 I *D sky130_fd_sc_hd__mux2_1
*I *1127:A0 I *D sky130_fd_sc_hd__mux2_1
*I *1372:X O *D sky130_fd_sc_hd__dlygate4sd3_1
*CAP
1 *1200:A1 0
2 *1127:A0 1.17716e-05
3 *1372:X 4.3533e-05
4 *270:23 0.00049145
5 *270:6 0.000546754
6 *1127:A1 *1127:A0 5.79559e-05
7 *1127:A1 *270:6 0.000130971
8 *1200:S *270:23 3.08847e-05
9 *1201:A *270:23 0
10 *1255:RESET_B *270:23 0.000164288
11 *1324:A *270:23 0.000269775
12 *1325:A *270:23 0.000128401
13 *1387:A *270:6 5.56356e-05
14 *112:117 *1127:A0 5.56279e-05
15 *112:117 *270:6 0.000185371
16 *242:10 *270:23 0.000271715
17 *256:31 *270:23 1.06815e-05
*RES
1 *1372:X *270:6 25.0507 
2 *270:6 *1127:A0 23.6214 
3 *270:6 *270:23 42.3043 
4 *270:23 *1200:A1 23 
*END

*D_NET *271 0.000186828
*CONN
*I *1128:A I *D sky130_fd_sc_hd__clkbuf_1
*I *1373:X O *D sky130_fd_sc_hd__dlygate4sd3_1
*CAP
1 *1128:A 1.48031e-05
2 *1373:X 1.48031e-05
3 *1387:A *1128:A 0.00010018
4 *142:8 *1128:A 5.70419e-05
*RES
1 *1373:X *1128:A 47.0979 
*END

*D_NET *272 0.00679155
*CONN
*I *1244:A0 I *D sky130_fd_sc_hd__mux2_1
*I *1380:X O *D sky130_fd_sc_hd__clkbuf_1
*CAP
1 *1244:A0 0.000789735
2 *1380:X 0.000213856
3 *272:14 0.0020798
4 *272:10 0.00150392
5 *1242:S *1244:A0 3.22879e-05
6 *1244:S *1244:A0 0.000267837
7 *1269:RESET_B *272:14 0
8 *1270:RESET_B *272:14 8.16253e-05
9 *59:10 *272:10 0.000443673
10 *261:14 *272:14 0
11 *261:18 *1244:A0 0.00132269
12 *264:8 *272:14 5.61311e-05
*RES
1 *1380:X *272:10 43.8829 
2 *272:10 *272:14 39.4429 
3 *272:14 *1244:A0 44.5843 
*END

*D_NET *273 0.00363712
*CONN
*I *1069:A1 I *D sky130_fd_sc_hd__a21bo_1
*I *1094:B1 I *D sky130_fd_sc_hd__a311o_1
*I *1374:X O *D sky130_fd_sc_hd__dlygate4sd3_1
*CAP
1 *1069:A1 3.73824e-05
2 *1094:B1 0
3 *1374:X 0.000149982
4 *273:24 0.000281505
5 *273:16 0.000918857
6 *273:6 0.000824716
7 *273:6 *1374:A 6.1216e-05
8 *273:16 *1374:A 1.47795e-05
9 *273:16 *362:6 3.20631e-05
10 *273:16 *362:16 3.88629e-05
11 *273:24 *1095:A 5.67058e-05
12 *273:24 *1229:B 2.93845e-05
13 *273:24 *359:19 0.000619534
14 *99:47 *273:24 0.000257482
15 *99:89 *273:16 0.000297681
16 *229:10 *273:24 1.69668e-05
*RES
1 *1374:X *273:6 25.0507 
2 *273:6 *273:16 41.7243 
3 *273:16 *273:24 39.57 
4 *273:24 *1094:B1 23 
5 *273:6 *1069:A1 23.8493 
*END

*D_NET *274 0.000556368
*CONN
*I *1227:A1 I *D sky130_fd_sc_hd__o22a_1
*I *1333:X O *D sky130_fd_sc_hd__dlygate4sd3_1
*CAP
1 *1227:A1 0
2 *1333:X 0.000198716
3 *274:14 0.000198716
4 *114:12 *274:14 1.24376e-05
5 *114:25 *274:14 1.44745e-05
6 *212:10 *274:14 0.000132025
*RES
1 *1333:X *274:14 41.2936 
2 *274:14 *1227:A1 38 
*END

*D_NET *275 8.92841e-05
*CONN
*I *1181:B2 I *D sky130_fd_sc_hd__a32o_1
*I *1334:X O *D sky130_fd_sc_hd__dlygate4sd3_1
*CAP
1 *1181:B2 1.31402e-05
2 *1334:X 1.31402e-05
3 *1181:A1 *1181:B2 3.07986e-05
4 *1181:A2 *1181:B2 3.22051e-05
*RES
1 *1334:X *1181:B2 46.6214 
*END

*D_NET *276 0.00233216
*CONN
*I *1141:A0 I *D sky130_fd_sc_hd__mux2_1
*I *1223:A1 I *D sky130_fd_sc_hd__mux2_1
*I *1335:X O *D sky130_fd_sc_hd__dlygate4sd3_1
*CAP
1 *1141:A0 8.34597e-05
2 *1223:A1 0.000532183
3 *1335:X 0.000364981
4 *276:10 0.000980624
5 *1223:A1 *332:8 2.34077e-05
6 *276:10 *1335:A 6.17437e-06
7 *276:10 *332:8 5.55704e-05
8 *1302:CLK *1141:A0 0.000142678
9 *93:84 *1223:A1 2.93335e-05
10 *210:10 *1223:A1 5.79559e-05
11 *230:77 *1223:A1 0
12 *249:14 *1141:A0 5.5792e-05
*RES
1 *1335:X *276:10 42.5364 
2 *276:10 *1223:A1 47.0314 
3 *276:10 *1141:A0 40.0714 
*END

*D_NET *277 0.000931049
*CONN
*I *1166:B2 I *D sky130_fd_sc_hd__a32o_1
*I *1336:X O *D sky130_fd_sc_hd__dlygate4sd3_1
*CAP
1 *1166:B2 0
2 *1336:X 0.000251936
3 *277:10 0.000251936
4 *277:10 *1165:A 1.14452e-05
5 *277:10 *317:17 0.000141344
6 *277:10 *317:30 0.000185916
7 *1147:A1 *277:10 2.14599e-05
8 *1164:B *277:10 4.15442e-05
9 *166:10 *277:10 2.54692e-05
*RES
1 *1336:X *277:10 43.4893 
2 *277:10 *1166:B2 38 
*END

*D_NET *278 0.000330405
*CONN
*I *1248:A1 I *D sky130_fd_sc_hd__mux2_1
*I *1337:X O *D sky130_fd_sc_hd__dlygate4sd3_1
*CAP
1 *1248:A1 9.56403e-05
2 *1337:X 9.56403e-05
3 *114:59 *1248:A1 8.22284e-05
4 *114:63 *1248:A1 5.68958e-05
*RES
1 *1337:X *1248:A1 48.5271 
*END

*D_NET *279 0.00088244
*CONN
*I *1137:A1 I *D sky130_fd_sc_hd__mux2_1
*I *1338:X O *D sky130_fd_sc_hd__dlygate4sd3_1
*CAP
1 *1137:A1 0.000164753
2 *1338:X 5.23918e-05
3 *279:8 0.000217145
4 *232:35 *1137:A1 0.000226306
5 *247:10 *279:8 0.000110922
6 *255:20 *279:8 0.000110922
*RES
1 *1338:X *279:8 39.5536 
2 *279:8 *1137:A1 40.5271 
*END

*D_NET *280 0.00103639
*CONN
*I *1138:A I *D sky130_fd_sc_hd__clkbuf_1
*I *1339:X O *D sky130_fd_sc_hd__dlygate4sd3_1
*CAP
1 *1138:A 5.26345e-05
2 *1339:X 0.000244559
3 *280:10 0.000297194
4 *1208:S *280:10 5.3304e-05
5 *49:10 *280:10 0
6 *93:18 *280:10 0
7 *232:27 *280:10 0.000126343
8 *232:35 *1138:A 3.91386e-05
9 *232:35 *280:10 0.000166513
10 *255:40 *1138:A 5.67058e-05
*RES
1 *1339:X *280:10 42.64 
2 *280:10 *1138:A 39.4707 
*END

*D_NET *281 0.00087858
*CONN
*I *1252:A1 I *D sky130_fd_sc_hd__mux2_1
*I *1340:X O *D sky130_fd_sc_hd__dlygate4sd3_1
*CAP
1 *1252:A1 0
2 *1340:X 0.000186552
3 *281:6 0.000186552
4 *281:6 *1340:A 0.000189857
5 *281:6 *311:22 0.00012959
6 *1252:S *281:6 0.000186029
*RES
1 *1340:X *281:6 28.3857 
2 *281:6 *1252:A1 23 
*END

*D_NET *282 0.0027712
*CONN
*I *1139:A0 I *D sky130_fd_sc_hd__mux2_1
*I *1220:A1 I *D sky130_fd_sc_hd__mux2_1
*I *1341:X O *D sky130_fd_sc_hd__dlygate4sd3_1
*CAP
1 *1139:A0 3.38089e-05
2 *1220:A1 0
3 *1341:X 0.000370125
4 *282:16 0.000804179
5 *282:10 0.00120811
6 *282:10 *331:10 0
7 *112:99 *282:10 0
8 *112:99 *282:16 0
9 *112:103 *282:16 0
10 *208:24 *282:16 5.79559e-05
11 *235:66 *282:16 0.000143535
12 *248:12 *1139:A0 5.50049e-05
13 *256:102 *1139:A0 9.84794e-05
14 *256:102 *282:10 0
15 *256:116 *282:10 0
*RES
1 *1341:X *282:10 43.945 
2 *282:10 *282:16 29.7693 
3 *282:16 *1220:A1 23 
4 *282:10 *1139:A0 39.0979 
*END

*D_NET *283 0.00292973
*CONN
*I *1246:A0 I *D sky130_fd_sc_hd__mux2_1
*I *1381:X O *D sky130_fd_sc_hd__clkbuf_1
*CAP
1 *1246:A0 0
2 *1381:X 0.000770242
3 *283:12 7.99831e-05
4 *283:6 0.000850225
5 *283:12 *300:8 0
6 *252:14 *283:6 0.00122928
*RES
1 *1381:X *283:6 36.485 
2 *283:6 *283:12 31.2014 
3 *283:12 *1246:A0 23 
*END

*D_NET *284 0.00176774
*CONN
*I *1135:A0 I *D sky130_fd_sc_hd__mux2_1
*I *1214:A1 I *D sky130_fd_sc_hd__mux2_1
*I *1342:X O *D sky130_fd_sc_hd__dlygate4sd3_1
*CAP
1 *1135:A0 0
2 *1214:A1 0.000303215
3 *1342:X 0.00010678
4 *284:10 0.000303215
5 *284:8 0.00010678
6 *1214:A1 *285:10 0.000272383
7 *1214:A1 *325:8 0.000116315
8 *1214:S *1214:A1 5.79559e-05
9 *112:103 *284:8 7.03869e-05
10 *112:117 *1214:A1 0.000315857
11 *256:41 *1214:A1 0.000114856
*RES
1 *1342:X *284:8 40.2579 
2 *284:8 *284:10 15 
3 *284:10 *1214:A1 31.7207 
4 *284:10 *1135:A0 23 
*END

*D_NET *285 0.00140227
*CONN
*I *1136:A I *D sky130_fd_sc_hd__clkbuf_1
*I *1344:X O *D sky130_fd_sc_hd__dlygate4sd3_1
*CAP
1 *1136:A 4.5562e-05
2 *1344:X 0.000226652
3 *285:10 0.000272214
4 *1214:A1 *285:10 0.000272383
5 *1259:CLK *1136:A 5.67058e-05
6 *1259:D *1136:A 3.91386e-05
7 *1344:A *285:10 2.30292e-05
8 *112:117 *285:10 3.46181e-05
9 *235:76 *1136:A 2.02517e-05
10 *246:12 *285:10 0.000274078
11 *256:41 *285:10 0.000137638
*RES
1 *1344:X *285:10 44.9393 
2 *285:10 *1136:A 39.4707 
*END

*D_NET *286 9.87992e-05
*CONN
*I *1072:B2 I *D sky130_fd_sc_hd__a22o_1
*I *1345:X O *D sky130_fd_sc_hd__dlygate4sd3_1
*CAP
1 *1072:B2 2.10467e-05
2 *1345:X 2.10467e-05
3 *1072:B1 *1072:B2 5.67058e-05
*RES
1 *1345:X *1072:B2 46.6214 
*END

*D_NET *287 0.000329073
*CONN
*I *1312:D I *D sky130_fd_sc_hd__dfrtp_2
*I *1346:X O *D sky130_fd_sc_hd__dlygate4sd3_1
*CAP
1 *1312:D 0.000137034
2 *1346:X 0.000137034
3 *1312:CLK *1312:D 5.50049e-05
*RES
1 *1346:X *1312:D 48.5271 
*END

*D_NET *288 0.000824954
*CONN
*I *1250:A1 I *D sky130_fd_sc_hd__mux2_1
*I *1347:X O *D sky130_fd_sc_hd__dlygate4sd3_1
*CAP
1 *1250:A1 0
2 *1347:X 0.000334379
3 *288:10 0.000334379
4 *1309:RESET_B *288:10 7.14254e-05
5 *26:18 *288:10 0
6 *114:44 *288:10 1.97402e-05
7 *252:14 *288:10 5.50106e-05
8 *260:68 *288:10 0
9 *263:56 *288:10 1.00203e-05
*RES
1 *1347:X *288:10 43.6964 
2 *288:10 *1250:A1 38 
*END

*D_NET *289 0.00276341
*CONN
*I *1208:A1 I *D sky130_fd_sc_hd__mux2_1
*I *1131:A0 I *D sky130_fd_sc_hd__mux2_1
*I *1348:X O *D sky130_fd_sc_hd__dlygate4sd3_1
*CAP
1 *1208:A1 0.000359427
2 *1131:A0 0.000436093
3 *1348:X 0.000375329
4 *289:12 0.00079552
5 *289:10 0.000375329
6 *1131:A1 *1131:A0 4.96207e-05
7 *1131:S *1131:A0 8.06804e-06
8 *1209:A *1208:A1 0.000102971
9 *66:10 *1208:A1 0.000147656
10 *66:10 *289:10 0.000113398
*RES
1 *1348:X *289:10 44.0693 
2 *289:10 *289:12 15 
3 *289:12 *1131:A0 28.3857 
4 *289:12 *1208:A1 30.3329 
*END

*D_NET *290 0.000968754
*CONN
*I *1132:A I *D sky130_fd_sc_hd__clkbuf_1
*I *1349:X O *D sky130_fd_sc_hd__dlygate4sd3_1
*CAP
1 *1132:A 0.00010975
2 *1349:X 0.000114117
3 *290:8 0.000223868
4 *1258:RESET_B *290:8 0.000106185
5 *144:8 *290:8 0.000299308
6 *255:52 *290:8 0.000115526
*RES
1 *1349:X *290:8 42.0186 
2 *290:8 *1132:A 39.9471 
*END

*D_NET *291 0.00246366
*CONN
*I *1204:A1 I *D sky130_fd_sc_hd__mux2_1
*I *1129:A0 I *D sky130_fd_sc_hd__mux2_1
*I *1350:X O *D sky130_fd_sc_hd__dlygate4sd3_1
*CAP
1 *1204:A1 0
2 *1129:A0 0.000314026
3 *1350:X 0
4 *291:23 0.000510005
5 *291:4 0.000824031
6 *1129:A1 *1129:A0 2.47127e-05
7 *1129:S *1129:A0 9.87624e-05
8 *1204:A0 *291:23 2.30292e-05
9 *1205:A *291:23 0.00010018
10 *1388:A *1129:A0 1.32314e-05
11 *1389:A *1129:A0 0.000102389
12 *14:10 *1129:A0 0.000367008
13 *65:8 *291:23 8.62876e-05
14 *197:16 *291:23 0
*RES
1 *1350:X *291:4 23 
2 *291:4 *1129:A0 31.3686 
3 *291:4 *291:23 39.5286 
4 *291:23 *1204:A1 23 
*END

*D_NET *292 0.000938514
*CONN
*I *1130:A I *D sky130_fd_sc_hd__clkbuf_1
*I *1351:X O *D sky130_fd_sc_hd__dlygate4sd3_1
*CAP
1 *1130:A 0
2 *1351:X 0.000422431
3 *292:10 0.000422431
4 *1256:CLK *292:10 0
5 *1388:A *292:10 9.36522e-05
6 *45:10 *292:10 0
7 *243:10 *292:10 0
8 *255:52 *292:10 0
*RES
1 *1351:X *292:10 45.25 
2 *292:10 *1130:A 38 
*END

*D_NET *293 0.000315617
*CONN
*I *1240:A1 I *D sky130_fd_sc_hd__mux2_1
*I *1352:X O *D sky130_fd_sc_hd__dlygate4sd3_1
*CAP
1 *1240:A1 0.000157808
2 *1352:X 0.000157808
*RES
1 *1352:X *1240:A1 48.5479 
*END

*D_NET *294 0.00150045
*CONN
*I *1248:A0 I *D sky130_fd_sc_hd__mux2_1
*I *1382:X O *D sky130_fd_sc_hd__clkbuf_1
*CAP
1 *1248:A0 7.58835e-05
2 *1382:X 0.000440939
3 *294:10 0.000516823
4 *294:10 *1359:A 0.000214054
5 *294:10 *355:18 3.88629e-05
6 *114:63 *1248:A0 2.49531e-05
7 *252:14 *294:10 0.000188934
*RES
1 *1382:X *294:10 46.8864 
2 *294:10 *1248:A0 39.0979 
*END

*D_NET *295 0.000550693
*CONN
*I *1244:A1 I *D sky130_fd_sc_hd__mux2_1
*I *1353:X O *D sky130_fd_sc_hd__dlygate4sd3_1
*CAP
1 *1244:A1 0.000263832
2 *1353:X 0.000263832
3 *1244:S *1244:A1 2.30292e-05
*RES
1 *1353:X *1244:A1 49.48 
*END

*D_NET *296 9.87992e-05
*CONN
*I *1122:A1 I *D sky130_fd_sc_hd__o21ba_1
*I *1355:X O *D sky130_fd_sc_hd__dlygate4sd3_1
*CAP
1 *1122:A1 2.10467e-05
2 *1355:X 2.10467e-05
3 *1122:A1 *346:18 5.67058e-05
*RES
1 *1355:X *1122:A1 46.6214 
*END

*D_NET *297 0.000468769
*CONN
*I *1217:A1 I *D sky130_fd_sc_hd__mux2_1
*I *1356:X O *D sky130_fd_sc_hd__dlygate4sd3_1
*CAP
1 *1217:A1 6.32637e-05
2 *1356:X 4.11681e-05
3 *297:8 0.000104432
4 *1217:S *1217:A1 5.34835e-05
5 *206:10 *297:8 8.85189e-05
6 *232:52 *1217:A1 2.93845e-05
7 *250:24 *297:8 8.85189e-05
*RES
1 *1356:X *297:8 39.2014 
2 *297:8 *1217:A1 39.6157 
*END

*D_NET *298 0.00284615
*CONN
*I *1211:A1 I *D sky130_fd_sc_hd__mux2_1
*I *1133:A0 I *D sky130_fd_sc_hd__mux2_1
*I *1357:X O *D sky130_fd_sc_hd__dlygate4sd3_1
*CAP
1 *1211:A1 0
2 *1133:A0 0
3 *1357:X 0
4 *298:29 0.000534564
5 *298:16 0.000531906
6 *298:4 0.00106647
7 *298:16 *299:10 0
8 *298:29 *1357:A 7.88828e-05
9 *1258:RESET_B *298:16 4.04598e-06
10 *1317:A *298:29 0.000182826
11 *91:51 *298:29 0
12 *93:12 *298:29 9.63815e-05
13 *231:31 *298:16 5.50106e-05
14 *245:14 *298:16 0.000296067
*RES
1 *1357:X *298:4 23 
2 *298:4 *298:16 39.715 
3 *298:16 *1133:A0 23 
4 *298:4 *298:29 40.3779 
5 *298:29 *1211:A1 23 
*END

*D_NET *299 0.000911421
*CONN
*I *1134:A I *D sky130_fd_sc_hd__clkbuf_1
*I *1358:X O *D sky130_fd_sc_hd__dlygate4sd3_1
*CAP
1 *1134:A 0
2 *1358:X 0.000431522
3 *299:10 0.000431522
4 *1258:RESET_B *299:10 4.83778e-05
5 *47:10 *299:10 0
6 *145:10 *299:10 0
7 *245:14 *299:10 0
8 *261:12 *299:10 0
9 *261:14 *299:10 0
10 *298:16 *299:10 0
*RES
1 *1358:X *299:10 46.6379 
2 *299:10 *1134:A 38 
*END

*D_NET *300 0.000595603
*CONN
*I *1246:A1 I *D sky130_fd_sc_hd__mux2_1
*I *1359:X O *D sky130_fd_sc_hd__dlygate4sd3_1
*CAP
1 *1246:A1 0.000134762
2 *1359:X 6.55294e-05
3 *300:8 0.000200291
4 *300:8 *1359:A 4.08641e-05
5 *114:102 *1246:A1 1.21972e-05
6 *234:62 *1246:A1 0.00014196
7 *283:12 *300:8 0
*RES
1 *1359:X *300:8 39.2014 
2 *300:8 *1246:A1 40.0507 
*END

*D_NET *301 7.38572e-05
*CONN
*I *1087:A I *D sky130_fd_sc_hd__inv_2
*I *1360:X O *D sky130_fd_sc_hd__dlygate4sd3_1
*CAP
1 *1087:A 2.07846e-05
2 *1360:X 2.07846e-05
3 *113:10 *1087:A 3.22879e-05
*RES
1 *1360:X *1087:A 46.6214 
*END

*D_NET *302 0.000618427
*CONN
*I *1238:A1 I *D sky130_fd_sc_hd__mux2_1
*I *1361:X O *D sky130_fd_sc_hd__dlygate4sd3_1
*CAP
1 *1238:A1 0.000147257
2 *1361:X 0.000147257
3 *114:65 *1238:A1 0.000323913
*RES
1 *1361:X *1238:A1 49.9564 
*END

*D_NET *303 0.000951184
*CONN
*I *1242:A1 I *D sky130_fd_sc_hd__mux2_1
*I *1362:X O *D sky130_fd_sc_hd__dlygate4sd3_1
*CAP
1 *1242:A1 4.01155e-05
2 *1362:X 0.000342764
3 *303:10 0.000382879
4 *114:71 *303:10 0.000100283
5 *223:8 *303:10 0
6 *233:97 *303:10 8.51432e-05
*RES
1 *1362:X *303:10 44.0693 
2 *303:10 *1242:A1 38.8493 
*END

*D_NET *304 8.4342e-05
*CONN
*I *1233:A I *D sky130_fd_sc_hd__inv_2
*I *1363:X O *D sky130_fd_sc_hd__dlygate4sd3_1
*CAP
1 *1233:A 4.2171e-05
2 *1363:X 4.2171e-05
*RES
1 *1363:X *1233:A 46.6214 
*END

*D_NET *305 0.00916682
*CONN
*I *1250:A0 I *D sky130_fd_sc_hd__mux2_1
*I *1383:X O *D sky130_fd_sc_hd__clkbuf_1
*CAP
1 *1250:A0 0.001497
2 *1383:X 0.000222675
3 *305:18 0.00338734
4 *305:8 0.00211302
5 *305:18 *1374:A 0.000141962
6 *305:18 *309:33 0.00047144
7 *305:18 *362:6 0.00012959
8 *1069:B1_N *305:18 1.32385e-05
9 *1226:A1 *305:18 2.60063e-05
10 *1226:A2 *305:18 0.000141347
11 *1314:RESET_B *305:18 1.60273e-05
12 *40:10 *305:18 0.000233359
13 *106:8 *305:18 2.50118e-05
14 *114:40 *1250:A0 0.000387493
15 *213:10 *305:18 0.000233211
16 *252:31 *1250:A0 0.000128106
*RES
1 *1383:X *305:8 42.0186 
2 *305:8 *305:18 45.0979 
3 *305:18 *1250:A0 44.3564 
*END

*D_NET *306 0.00110794
*CONN
*I *1156:B1 I *D sky130_fd_sc_hd__a31o_1
*I *1364:X O *D sky130_fd_sc_hd__dlygate4sd3_1
*CAP
1 *1156:B1 8.12968e-05
2 *1364:X 0.000147344
3 *306:10 0.000228641
4 *1156:B1 *314:49 0.000144908
5 *1156:B1 *314:55 3.62915e-05
6 *306:10 *314:10 2.40392e-05
7 *1153:A2 *1156:B1 0.000330609
8 *1156:A3 *1156:B1 2.69729e-05
9 *1157:C1 *1156:B1 3.22051e-05
10 *259:30 *306:10 5.56356e-05
*RES
1 *1364:X *306:10 40.175 
2 *306:10 *1156:B1 41.9771 
*END

*D_NET *307 0.00164954
*CONN
*I *1060:A1 I *D sky130_fd_sc_hd__a22o_1
*I *1366:X O *D sky130_fd_sc_hd__dlygate4sd3_1
*CAP
1 *1060:A1 0
2 *1366:X 0.000540534
3 *307:14 0.000540534
4 *307:14 *336:12 0.000181918
5 *307:14 *336:22 9.28265e-05
6 *1085:C *307:14 0.000136905
7 *1144:A *307:14 5.58003e-05
8 *92:10 *307:14 1.7403e-05
9 *104:24 *307:14 8.36198e-05
*RES
1 *1366:X *307:14 47.3629 
2 *307:14 *1060:A1 38 
*END

*D_NET *308 0.00134431
*CONN
*I *1084:B2 I *D sky130_fd_sc_hd__a22o_1
*I *1367:X O *D sky130_fd_sc_hd__dlygate4sd3_1
*CAP
1 *1084:B2 0
2 *1367:X 0.000611103
3 *308:10 0.000611103
4 *308:10 *333:14 3.51359e-05
5 *109:51 *308:10 7.24484e-05
6 *110:55 *308:10 1.01436e-05
7 *184:96 *308:10 4.37586e-06
8 *250:24 *308:10 0
*RES
1 *1367:X *308:10 48.4193 
2 *308:10 *1084:B2 38 
*END

*D_NET *309 0.00416745
*CONN
*I *1077:A I *D sky130_fd_sc_hd__inv_2
*I *1095:C I *D sky130_fd_sc_hd__nor3_2
*I *1368:X O *D sky130_fd_sc_hd__buf_1
*CAP
1 *1077:A 0
2 *1095:C 0.000486223
3 *1368:X 0.000304347
4 *309:33 0.000441996
5 *309:8 0.00123257
6 *1095:C *359:19 0
7 *1095:C *361:8 8.16356e-05
8 *1069:B1_N *309:33 0.000207005
9 *1226:A1 *309:33 2.50118e-05
10 *99:89 *309:8 0.000453646
11 *113:10 *1095:C 1.69668e-05
12 *229:10 *1095:C 0
13 *238:116 *309:33 3.59145e-05
14 *262:61 *1095:C 0.000196925
15 *262:68 *1095:C 7.52808e-05
16 *262:68 *309:33 0.000138493
17 *305:18 *309:33 0.00047144
*RES
1 *1368:X *309:8 42.9093 
2 *309:8 *1095:C 47.5907 
3 *309:8 *309:33 28.4229 
4 *309:33 *1077:A 23 
*END

*D_NET *310 0.0017319
*CONN
*I *1096:B I *D sky130_fd_sc_hd__nor2_1
*I *1369:X O *D sky130_fd_sc_hd__dlygate4sd3_1
*CAP
1 *1096:B 5.64865e-05
2 *1369:X 0.000522362
3 *310:10 0.000578849
4 *1096:B *339:23 0.000145163
5 *310:10 *339:67 4.74023e-05
6 *310:10 *339:98 9.96756e-05
7 *310:10 *340:30 5.7388e-05
8 *310:10 *341:21 1.0092e-05
9 *310:10 *360:14 4.99753e-06
10 *1230:B1 *310:10 0.000138718
11 *121:8 *310:10 3.88725e-05
12 *260:101 *310:10 0
13 *260:103 *310:10 3.18969e-05
*RES
1 *1369:X *310:10 47.4664 
2 *310:10 *1096:B 39.5743 
*END

*D_NET *311 0.0183781
*CONN
*I *1252:A0 I *D sky130_fd_sc_hd__mux2_1
*I *1384:X O *D sky130_fd_sc_hd__buf_1
*CAP
1 *1252:A0 0
2 *1384:X 0
3 *311:22 0.000578481
4 *311:16 0.00194633
5 *311:12 0.00203967
6 *311:6 0.0037555
7 *311:4 0.00308368
8 *311:6 *323:10 6.06279e-05
9 *311:12 *336:76 6.21013e-05
10 *311:16 *1092:S1 6.98883e-05
11 *311:16 *349:38 4.3407e-05
12 *311:22 *1092:A2 0
13 *311:22 *1092:S1 0
14 *311:22 *1340:A 8.35568e-05
15 *311:22 *358:8 4.04054e-05
16 *1086:A *311:16 3.88725e-05
17 *1190:A2 *311:12 0.000159531
18 *1193:S *311:12 0.000318439
19 *1194:A *311:6 0.000124874
20 *1252:S *311:22 8.65972e-05
21 *1273:CLK *311:6 1.84831e-05
22 *26:12 *311:16 0
23 *26:18 *311:16 0
24 *39:8 *311:16 1.223e-05
25 *62:10 *311:6 0.000244996
26 *109:66 *311:12 3.44448e-05
27 *110:70 *311:12 0.000159508
28 *112:86 *311:16 9.66904e-05
29 *193:10 *311:12 0.000134777
30 *193:12 *311:12 0.00100901
31 *230:20 *311:16 0.000105289
32 *237:10 *311:16 0
33 *240:23 *311:12 0.000206323
34 *240:23 *311:16 0.00151334
35 *260:50 *311:16 0.000520275
36 *260:68 *311:16 0
37 *263:14 *311:16 0.000797516
38 *263:38 *311:16 0.000521921
39 *263:38 *311:22 0.000381747
40 *281:6 *311:22 0.00012959
*RES
1 *1384:X *311:4 23 
2 *311:4 *311:6 41.1179 
3 *311:6 *311:12 34.7304 
4 *311:12 *311:16 40.3929 
5 *311:16 *311:22 27.6461 
6 *311:22 *1252:A0 23 
*END

*D_NET *312 0.00154545
*CONN
*I *1088:B I *D sky130_fd_sc_hd__nand2_4
*I *1068:A I *D sky130_fd_sc_hd__or2b_1
*I *1385:X O *D sky130_fd_sc_hd__buf_1
*CAP
1 *1088:B 0
2 *1068:A 0
3 *1385:X 0.000184606
4 *312:18 0.00048112
5 *312:8 0.000665727
6 *312:18 *1068:B_N 2.93747e-05
7 *312:18 *359:6 1.08331e-05
8 *1311:SET_B *312:18 3.2457e-05
9 *21:13 *312:8 5.02496e-05
10 *114:12 *312:8 0
11 *114:127 *312:18 0
12 *238:97 *312:18 9.10818e-05
*RES
1 *1385:X *312:8 25.9 
2 *312:8 *312:18 38.2443 
3 *312:18 *1068:A 23 
4 *312:8 *1088:B 23 
*END

*D_NET *313 0.00540017
*CONN
*I *1152:B I *D sky130_fd_sc_hd__xor2_1
*I *1156:A2 I *D sky130_fd_sc_hd__a31o_1
*I *1154:B I *D sky130_fd_sc_hd__and3_1
*I *1050:C_N I *D sky130_fd_sc_hd__or3b_2
*I *1163:B I *D sky130_fd_sc_hd__and4_1
*I *1147:S I *D sky130_fd_sc_hd__mux2_1
*I *1263:Q O *D sky130_fd_sc_hd__dfrtp_2
*CAP
1 *1152:B 0
2 *1156:A2 0.000116434
3 *1154:B 0.000272394
4 *1050:C_N 1.82394e-05
5 *1163:B 0.00022124
6 *1147:S 0.000134454
7 *1263:Q 0.000283198
8 *313:31 0.000307498
9 *313:29 0.000407637
10 *313:25 0.000382636
11 *313:14 0.000355315
12 *313:12 2.18824e-05
13 *313:10 0.000283198
14 *1147:S *1152:A 2.10502e-05
15 *1156:A2 *314:49 2.50118e-05
16 *1156:A2 *314:55 0.000201136
17 *1156:A2 *315:10 1.24376e-05
18 *1163:B *1163:A 5.50106e-05
19 *1163:B *1163:C 6.17437e-06
20 *1163:B *1163:D 2.61526e-05
21 *1163:B *315:12 0
22 *313:25 *1152:A 3.40669e-05
23 *313:25 *314:55 0.000186029
24 *313:31 *315:12 0
25 *1147:A0 *1147:S 1.1258e-05
26 *1153:B2 *313:25 0.000100477
27 *1156:A3 *1156:A2 3.86731e-05
28 *1263:RESET_B *313:10 0.000189848
29 *84:14 *1050:C_N 2.95526e-05
30 *84:14 *1163:B 8.36198e-05
31 *151:60 *1147:S 0.000415769
32 *151:60 *313:25 0.000302673
33 *156:41 *1163:B 2.33476e-05
34 *156:41 *313:29 0.000101854
35 *156:41 *313:31 7.91258e-05
36 *157:42 *313:10 3.90213e-05
37 *157:42 *313:25 8.28362e-05
38 *234:90 *1050:C_N 5.58003e-05
39 *234:90 *1154:B 0.000475117
*RES
1 *1263:Q *313:10 42.3086 
2 *313:10 *313:12 15 
3 *313:12 *313:14 0.497143 
4 *313:14 *1147:S 27.93 
5 *313:14 *313:25 5.86214 
6 *313:25 *313:29 16.5536 
7 *313:29 *313:31 1.20143 
8 *313:31 *1163:B 41.48 
9 *313:31 *1050:C_N 38.6214 
10 *313:29 *1154:B 43.9036 
11 *313:25 *1156:A2 26.0243 
12 *313:12 *1152:B 23 
*END

*D_NET *314 0.00445221
*CONN
*I *1156:A1 I *D sky130_fd_sc_hd__a31o_1
*I *1153:A1 I *D sky130_fd_sc_hd__a32o_1
*I *1152:A I *D sky130_fd_sc_hd__xor2_1
*I *1154:A I *D sky130_fd_sc_hd__and3_1
*I *1050:A I *D sky130_fd_sc_hd__or3b_2
*I *1163:A I *D sky130_fd_sc_hd__and4_1
*I *1264:Q O *D sky130_fd_sc_hd__dfrtp_2
*CAP
1 *1156:A1 0
2 *1153:A1 0
3 *1152:A 0.000175969
4 *1154:A 4.92246e-05
5 *1050:A 2.53257e-05
6 *1163:A 0.000315499
7 *1264:Q 0.000172986
8 *314:55 0.00030725
9 *314:49 0.000169876
10 *314:29 7.45503e-05
11 *314:16 0.000561773
12 *314:10 0.000457855
13 *1050:A *1154:C 2.02872e-05
14 *1154:A *1154:C 0.000100069
15 *1163:A *1163:D 0.000261518
16 *1163:A *315:12 5.8752e-05
17 *314:16 *315:10 8.57485e-05
18 *314:16 *315:12 7.51016e-05
19 *314:49 *315:10 8.48502e-06
20 *1147:S *1152:A 2.10502e-05
21 *1153:A2 *314:55 0.00010964
22 *1156:A2 *314:49 2.50118e-05
23 *1156:A2 *314:55 0.000201136
24 *1156:A3 *314:49 2.93431e-05
25 *1156:B1 *314:49 0.000144908
26 *1156:B1 *314:55 3.62915e-05
27 *1163:B *1163:A 5.50106e-05
28 *53:10 *1152:A 0.000188526
29 *53:10 *314:55 1.12268e-05
30 *151:89 *1163:A 0
31 *151:93 *314:16 0
32 *156:41 *314:55 5.5792e-05
33 *157:42 *1152:A 0.000253069
34 *234:90 *1050:A 5.3304e-05
35 *234:90 *1154:A 4.78593e-05
36 *259:30 *314:10 5.56356e-05
37 *306:10 *314:10 2.40392e-05
38 *313:25 *1152:A 3.40669e-05
39 *313:25 *314:55 0.000186029
*RES
1 *1264:Q *314:10 40.5271 
2 *314:10 *314:16 4.08071 
3 *314:16 *1163:A 43.7379 
4 *314:16 *314:29 15 
5 *314:29 *1050:A 23.6214 
6 *314:29 *1154:A 24.595 
7 *314:10 *314:49 16.5743 
8 *314:49 *314:55 5.30286 
9 *314:55 *1152:A 27.93 
10 *314:55 *1153:A1 23 
11 *314:49 *1156:A1 23 
*END

*D_NET *315 0.00417425
*CONN
*I *1364:A I *D sky130_fd_sc_hd__dlygate4sd3_1
*I *1050:B I *D sky130_fd_sc_hd__or3b_2
*I *1154:C I *D sky130_fd_sc_hd__and3_1
*I *1163:D I *D sky130_fd_sc_hd__and4_1
*I *1265:Q O *D sky130_fd_sc_hd__dfrtp_1
*CAP
1 *1364:A 0
2 *1050:B 0
3 *1154:C 0.000180526
4 *1163:D 0.000389548
5 *1265:Q 0
6 *315:51 0.000313314
7 *315:12 0.000672755
8 *315:10 0.000583255
9 *315:4 0.000793888
10 *1163:D *1163:C 5.3304e-05
11 *1050:A *1154:C 2.02872e-05
12 *1154:A *1154:C 0.000100069
13 *1156:A2 *315:10 1.24376e-05
14 *1156:A3 *315:10 0.000273494
15 *1157:B1 *315:10 4.53082e-05
16 *1163:A *1163:D 0.000261518
17 *1163:A *315:12 5.8752e-05
18 *1163:B *1163:D 2.61526e-05
19 *1163:B *315:12 0
20 *54:6 *315:10 3.22051e-05
21 *54:6 *315:51 5.40241e-05
22 *84:14 *1163:D 0
23 *104:81 *315:10 6.30285e-06
24 *104:81 *315:51 3.75641e-05
25 *151:41 *1163:D 0
26 *234:90 *1154:C 3.45807e-05
27 *259:30 *315:51 5.56279e-05
28 *313:31 *315:12 0
29 *314:16 *315:10 8.57485e-05
30 *314:16 *315:12 7.51016e-05
31 *314:49 *315:10 8.48502e-06
*RES
1 *1265:Q *315:4 23 
2 *315:4 *315:10 22.0636 
3 *315:10 *315:12 1.90571 
4 *315:12 *1163:D 45.6643 
5 *315:12 *1154:C 40.61 
6 *315:10 *1050:B 38 
7 *315:4 *315:51 35.3857 
8 *315:51 *1364:A 23 
*END

*D_NET *316 0.006221
*CONN
*I *1370:A I *D sky130_fd_sc_hd__dlygate4sd3_1
*I *1163:C I *D sky130_fd_sc_hd__and4_1
*I *1055:A I *D sky130_fd_sc_hd__nand2_1
*I *1052:A I *D sky130_fd_sc_hd__or4bb_1
*I *1266:Q O *D sky130_fd_sc_hd__dfrtp_1
*CAP
1 *1370:A 0
2 *1163:C 0.00010893
3 *1055:A 0
4 *1052:A 0
5 *1266:Q 0
6 *316:55 0.000164846
7 *316:24 0.000634455
8 *316:18 0.00101975
9 *316:8 0.00138511
10 *316:4 0.00105574
11 *316:24 *1184:A1 0.000102971
12 *316:24 *321:80 0
13 *1159:A2 *316:18 1.40958e-05
14 *1159:A3 *316:24 0
15 *1159:B1 *316:18 2.93845e-05
16 *1159:B1 *316:24 0
17 *1162:A2 *316:8 3.52233e-06
18 *1162:A3 *316:8 1.59071e-05
19 *1163:B *1163:C 6.17437e-06
20 *1163:D *1163:C 5.3304e-05
21 *1169:A2 *316:24 0
22 *55:10 *316:8 0.000218476
23 *84:14 *1163:C 7.8483e-05
24 *84:14 *316:18 5.98355e-05
25 *89:6 *316:18 6.70749e-05
26 *90:10 *316:24 0
27 *103:18 *316:24 0
28 *108:35 *316:24 2.52264e-05
29 *151:29 *316:55 0.000141879
30 *151:41 *316:8 0.000388314
31 *153:8 *316:8 5.50106e-05
32 *155:28 *316:24 0.000107
33 *156:41 *1163:C 0.000155068
34 *156:41 *316:18 0.000211616
35 *156:41 *316:24 0
36 *157:23 *316:18 0
37 *157:23 *316:24 0
38 *250:30 *316:55 7.53809e-05
39 *268:19 *316:8 4.34464e-05
*RES
1 *1266:Q *316:4 23 
2 *316:4 *316:8 28.0086 
3 *316:8 *316:18 36.815 
4 *316:18 *316:24 27.5114 
5 *316:24 *1052:A 23 
6 *316:18 *1055:A 38 
7 *316:8 *1163:C 40.8793 
8 *316:4 *316:55 33.48 
9 *316:55 *1370:A 23 
*END

*D_NET *317 0.00817289
*CONN
*I *1165:A I *D sky130_fd_sc_hd__nand2_1
*I *1055:B I *D sky130_fd_sc_hd__nand2_1
*I *1170:A I *D sky130_fd_sc_hd__and2_1
*I *1169:A1 I *D sky130_fd_sc_hd__a21o_1
*I *1051:A I *D sky130_fd_sc_hd__nand2_1
*I *1164:A I *D sky130_fd_sc_hd__or2_1
*I *1336:A I *D sky130_fd_sc_hd__dlygate4sd3_1
*I *1267:Q O *D sky130_fd_sc_hd__dfrtp_2
*CAP
1 *1165:A 1.36662e-05
2 *1055:B 0.000287217
3 *1170:A 0.000194717
4 *1169:A1 1.51302e-05
5 *1051:A 0.000304215
6 *1164:A 0
7 *1336:A 0
8 *1267:Q 0.000179147
9 *317:40 0.000627657
10 *317:38 0.000787517
11 *317:36 0.000825382
12 *317:30 0.000455528
13 *317:17 0.000457063
14 *317:8 0.000448025
15 *1051:A *1059:A 4.33069e-05
16 *1051:A *318:14 0.000234542
17 *1055:B *1177:B2 1.67785e-05
18 *1169:A1 *1169:B1 5.58003e-05
19 *1170:A *1170:B 8.95469e-05
20 *1170:A *320:41 5.3304e-05
21 *1170:A *320:51 5.3304e-05
22 *1170:A *338:27 0.000138859
23 *317:38 *320:51 2.45092e-05
24 *317:38 *338:10 0.000110222
25 *317:40 *1059:A 6.63818e-05
26 *317:40 *320:51 0.000104784
27 *1147:A1 *317:30 0.000163397
28 *1159:A3 *1055:B 0
29 *1164:B *317:17 3.28357e-06
30 *1164:B *317:30 0
31 *1169:A2 *1051:A 4.41821e-06
32 *1169:A2 *317:38 0.000116641
33 *1169:A2 *317:40 0.000139503
34 *1173:A *1170:A 5.82853e-05
35 *1177:B1 *1055:B 7.33095e-05
36 *1267:RESET_B *317:8 0.000144494
37 *89:14 *1055:B 0
38 *93:8 *1051:A 6.68986e-05
39 *153:18 *317:36 3.47776e-05
40 *153:18 *317:38 0.000107538
41 *153:29 *317:30 4.70953e-05
42 *153:29 *317:36 5.10616e-05
43 *155:28 *1055:B 0.000184527
44 *166:12 *1165:A 4.93359e-05
45 *166:12 *317:36 0.000229352
46 *166:12 *317:38 0.000201361
47 *169:6 *1051:A 0.000123415
48 *170:8 *1169:A1 5.58003e-05
49 *174:48 *317:40 7.41204e-05
50 *177:10 *317:36 0.000201482
51 *177:10 *317:38 3.47781e-05
52 *178:8 *317:36 8.27131e-05
53 *277:10 *1165:A 1.14452e-05
54 *277:10 *317:17 0.000141344
55 *277:10 *317:30 0.000185916
*RES
1 *1267:Q *317:8 26.5007 
2 *317:8 *1336:A 23 
3 *317:8 *317:17 4.93 
4 *317:17 *1164:A 23 
5 *317:17 *317:30 19.5054 
6 *317:30 *317:36 6.72179 
7 *317:36 *317:38 8.59643 
8 *317:38 *317:40 5.42714 
9 *317:40 *1051:A 45.6643 
10 *317:40 *1169:A1 38.6214 
11 *317:38 *1170:A 42.4536 
12 *317:36 *1055:B 43.7586 
13 *317:30 *1165:A 38.6732 
*END

*D_NET *318 0.00596331
*CONN
*I *1056:A I *D sky130_fd_sc_hd__or4bb_1
*I *1170:B I *D sky130_fd_sc_hd__and2_1
*I *1169:B1 I *D sky130_fd_sc_hd__a21o_1
*I *1051:B I *D sky130_fd_sc_hd__nand2_1
*I *1167:C I *D sky130_fd_sc_hd__and4b_1
*I *1268:Q O *D sky130_fd_sc_hd__dfrtp_1
*CAP
1 *1056:A 0.000126451
2 *1170:B 0.000461501
3 *1169:B1 0.000116478
4 *1051:B 0
5 *1167:C 0.000130782
6 *1268:Q 0.0002392
7 *318:47 0.000834051
8 *318:30 0.000502988
9 *318:14 0.000202577
10 *318:8 0.000451405
11 *1056:A *1056:D_N 4.05745e-05
12 *1056:A *321:80 0.000100486
13 *1056:A *338:27 2.0964e-05
14 *1169:B1 *319:57 0.000145171
15 *1170:B *1056:D_N 6.17437e-06
16 *1170:B *320:41 2.05588e-05
17 *1170:B *320:51 0.000117078
18 *1170:B *338:27 5.61255e-06
19 *318:47 *1056:D_N 2.86871e-05
20 *318:47 *319:57 3.88725e-05
21 *318:47 *320:59 0.000215252
22 *318:47 *321:80 0.000242738
23 *1051:A *318:14 0.000234542
24 *1169:A1 *1169:B1 5.58003e-05
25 *1169:A2 *318:30 3.50862e-06
26 *1169:A2 *318:47 5.89997e-05
27 *1170:A *1170:B 8.95469e-05
28 *1173:A *1170:B 2.95526e-05
29 *85:6 *1167:C 0.000145163
30 *85:6 *318:14 1.61385e-05
31 *85:14 *318:8 0
32 *85:38 *1167:C 0.000272915
33 *86:16 *1167:C 3.81816e-05
34 *86:16 *318:14 1.9054e-05
35 *91:51 *318:8 0
36 *93:12 *318:8 0.000298974
37 *93:137 *318:8 4.81894e-05
38 *104:30 *1167:C 1.55117e-05
39 *104:52 *1167:C 9.90649e-05
40 *169:6 *1167:C 3.46659e-05
41 *169:6 *318:14 0.000323913
42 *170:8 *1169:B1 0.000120333
43 *183:10 *318:47 1.16551e-05
*RES
1 *1268:Q *318:8 43.4271 
2 *318:8 *318:14 18.9771 
3 *318:14 *1167:C 27.93 
4 *318:14 *1051:B 23 
5 *318:8 *318:30 2.25786 
6 *318:30 *1169:B1 41.9979 
7 *318:30 *318:47 21.4836 
8 *318:47 *1170:B 31.1407 
9 *318:47 *1056:A 25.9 
*END

*D_NET *319 0.0110571
*CONN
*I *1175:A I *D sky130_fd_sc_hd__inv_2
*I *1177:B2 I *D sky130_fd_sc_hd__o22a_1
*I *1176:A I *D sky130_fd_sc_hd__nand2_1
*I *1179:A1 I *D sky130_fd_sc_hd__a31o_1
*I *1180:A I *D sky130_fd_sc_hd__nand3_1
*I *1183:A1 I *D sky130_fd_sc_hd__a31o_1
*I *1056:D_N I *D sky130_fd_sc_hd__or4bb_1
*I *1052:B I *D sky130_fd_sc_hd__or4bb_1
*I *1182:A I *D sky130_fd_sc_hd__nand4_1
*I *1269:Q O *D sky130_fd_sc_hd__dfrtp_4
*CAP
1 *1175:A 0.000369946
2 *1177:B2 0.000191587
3 *1176:A 1.81955e-05
4 *1179:A1 0
5 *1180:A 0
6 *1183:A1 3.82243e-05
7 *1056:D_N 0.000230022
8 *1052:B 7.07745e-05
9 *1182:A 0
10 *1269:Q 5.59858e-05
11 *319:106 0.000634398
12 *319:95 0.000466577
13 *319:57 0.000761102
14 *319:46 9.76782e-05
15 *319:38 0.0010659
16 *319:32 0.000546139
17 *319:30 0.00087687
18 *319:18 0.00104304
19 *319:12 0.000457244
20 *319:6 0.000675049
21 *1056:D_N *321:80 0.000190742
22 *1056:D_N *338:27 4.67488e-05
23 *319:18 *320:83 4.3198e-05
24 *319:18 *320:96 0.000160198
25 *319:30 *320:8 0.000200342
26 *319:30 *320:18 0
27 *319:30 *320:22 0
28 *319:30 *320:83 0.000135037
29 *319:46 *1059:A 0.000132638
30 *1055:B *1177:B2 1.67785e-05
31 *1056:A *1056:D_N 4.05745e-05
32 *1169:B1 *319:57 0.000145171
33 *1170:B *1056:D_N 6.17437e-06
34 *1174:B1 *319:38 5.29205e-05
35 *1174:B1 *319:57 2.193e-05
36 *1176:B *1176:A 8.0163e-06
37 *1176:B *319:106 3.59396e-05
38 *1177:B1 *1176:A 1.14154e-05
39 *1177:B1 *1177:B2 0.000208286
40 *1177:B1 *319:106 1.54983e-05
41 *1178:A1_N *1175:A 0.000264929
42 *1178:B2 *1175:A 7.29428e-05
43 *1179:A2 *319:12 1.68817e-05
44 *1185:A2 *319:46 5.3304e-05
45 *1185:B1 *319:46 2.64616e-05
46 *1270:RESET_B *319:30 0.000184552
47 *57:10 *319:38 1.50735e-05
48 *58:8 *1175:A 0.000261932
49 *58:8 *319:6 0.000144494
50 *60:10 *319:30 0.000317927
51 *153:8 *1175:A 2.18409e-05
52 *153:18 *319:30 6.58373e-05
53 *166:41 *319:106 2.89362e-05
54 *170:8 *319:38 1.09834e-05
55 *170:8 *319:57 3.85853e-05
56 *172:10 *319:30 0
57 *174:68 *319:106 6.69016e-05
58 *175:8 *319:46 0.000134776
59 *179:8 *319:18 2.71929e-05
60 *180:8 *319:18 3.04661e-05
61 *183:10 *1052:B 0.000100486
62 *258:77 *319:30 3.47396e-05
63 *318:47 *1056:D_N 2.86871e-05
64 *318:47 *319:57 3.88725e-05
*RES
1 *1269:Q *319:6 24.5743 
2 *319:6 *319:12 18.7079 
3 *319:12 *319:18 19.06 
4 *319:18 *319:30 46.8821 
5 *319:30 *319:32 15 
6 *319:32 *319:38 21.5871 
7 *319:38 *319:46 32.5271 
8 *319:46 *1182:A 23 
9 *319:38 *319:57 21.5871 
10 *319:57 *1052:B 39.0979 
11 *319:57 *1056:D_N 42.7643 
12 *319:32 *1183:A1 38.8493 
13 *319:18 *1180:A 23 
14 *319:12 *319:95 15.6214 
15 *319:95 *1179:A1 23 
16 *319:95 *319:106 6.13143 
17 *319:106 *1176:A 23.4971 
18 *319:106 *1177:B2 26.6509 
19 *319:6 *1175:A 31.41 
*END

*D_NET *320 0.00654892
*CONN
*I *1179:B1 I *D sky130_fd_sc_hd__a31o_1
*I *1180:B I *D sky130_fd_sc_hd__nand3_1
*I *1334:A I *D sky130_fd_sc_hd__dlygate4sd3_1
*I *1182:B I *D sky130_fd_sc_hd__nand4_1
*I *1056:C_N I *D sky130_fd_sc_hd__or4bb_1
*I *1052:C_N I *D sky130_fd_sc_hd__or4bb_1
*I *1183:A2 I *D sky130_fd_sc_hd__a31o_1
*I *1270:Q O *D sky130_fd_sc_hd__dfrtp_2
*CAP
1 *1179:B1 0
2 *1180:B 0
3 *1334:A 2.25749e-05
4 *1182:B 0
5 *1056:C_N 0
6 *1052:C_N 0
7 *1183:A2 0.000120831
8 *1270:Q 7.40879e-05
9 *320:96 0.000140258
10 *320:83 0.000207033
11 *320:59 0.000123627
12 *320:51 0.000311265
13 *320:43 0.000398415
14 *320:41 0.000562012
15 *320:22 0.000659767
16 *320:18 0.000395417
17 *320:8 0.000326003
18 *1183:A2 *321:37 1.15307e-05
19 *320:51 *1059:A 3.24914e-05
20 *320:51 *338:10 2.81425e-05
21 *320:51 *338:27 9.06164e-05
22 *320:59 *321:50 5.3304e-05
23 *1169:A2 *320:59 6.59904e-05
24 *1170:A *320:41 5.3304e-05
25 *1170:A *320:51 5.3304e-05
26 *1170:B *320:41 2.05588e-05
27 *1170:B *320:51 0.000117078
28 *1171:A *1334:A 0.000100069
29 *1171:A *320:18 9.77405e-05
30 *1179:A2 *320:18 0.000146668
31 *1180:C *320:96 5.56279e-05
32 *1181:A1 *1334:A 4.78593e-05
33 *1181:A1 *320:18 7.4183e-05
34 *1181:A2 *320:18 2.31591e-05
35 *1183:A3 *320:41 5.36496e-06
36 *1185:A2 *320:43 9.09342e-06
37 *1185:B1 *320:43 0.000229395
38 *153:18 *320:8 0.000142173
39 *153:18 *320:18 2.94881e-05
40 *153:18 *320:83 0.000165468
41 *153:18 *320:96 0.000131783
42 *166:41 *320:96 0.000242992
43 *172:10 *320:18 1.12863e-05
44 *172:10 *320:22 5.93746e-05
45 *172:10 *320:41 7.73462e-06
46 *174:21 *320:41 6.90048e-05
47 *175:8 *320:41 3.24914e-05
48 *183:10 *320:59 0.000117031
49 *317:38 *320:51 2.45092e-05
50 *317:40 *320:51 0.000104784
51 *318:47 *320:59 0.000215252
52 *319:18 *320:83 4.3198e-05
53 *319:18 *320:96 0.000160198
54 *319:30 *320:8 0.000200342
55 *319:30 *320:18 0
56 *319:30 *320:22 0
57 *319:30 *320:83 0.000135037
*RES
1 *1270:Q *320:8 25.5479 
2 *320:8 *320:18 34.3293 
3 *320:18 *320:22 18.6664 
4 *320:22 *1183:A2 39.9057 
5 *320:22 *320:41 49.6814 
6 *320:41 *320:43 3.00357 
7 *320:43 *320:51 34.4329 
8 *320:51 *320:59 33.5836 
9 *320:59 *1052:C_N 23 
10 *320:51 *1056:C_N 23 
11 *320:43 *1182:B 23 
12 *320:18 *1334:A 24.0979 
13 *320:8 *320:83 2.05071 
14 *320:83 *1180:B 23 
15 *320:83 *320:96 34.8886 
16 *320:96 *1179:B1 23 
*END

*D_NET *321 0.00534655
*CONN
*I *1056:B I *D sky130_fd_sc_hd__or4bb_1
*I *1184:A1 I *D sky130_fd_sc_hd__a32o_1
*I *1052:D_N I *D sky130_fd_sc_hd__or4bb_1
*I *1182:C I *D sky130_fd_sc_hd__nand4_1
*I *1183:B1 I *D sky130_fd_sc_hd__a31o_1
*I *1271:Q O *D sky130_fd_sc_hd__dfrtp_1
*CAP
1 *1056:B 0
2 *1184:A1 0.000261874
3 *1052:D_N 0
4 *1182:C 1.02602e-05
5 *1183:B1 4.12183e-05
6 *1271:Q 8.9905e-05
7 *321:80 0.000196657
8 *321:50 0.000631708
9 *321:37 0.00104161
10 *321:8 0.000989299
11 *1056:A *321:80 0.000100486
12 *1056:D_N *321:80 0.000190742
13 *1169:A2 *321:80 0
14 *1183:A2 *321:37 1.15307e-05
15 *1183:A3 *321:37 0.000135468
16 *1184:A3 *1184:A1 1.52479e-06
17 *1185:A2 *321:37 0.000223088
18 *1185:A3 *321:37 0.000106217
19 *1185:B1 *321:37 2.31724e-05
20 *1185:B1 *321:50 9.86122e-05
21 *60:10 *1183:B1 5.79559e-05
22 *60:10 *321:8 4.77213e-05
23 *60:10 *321:37 8.65399e-05
24 *86:27 *1184:A1 0.000159782
25 *87:20 *1184:A1 0
26 *104:52 *1184:A1 3.96824e-05
27 *183:10 *1184:A1 0.000364774
28 *183:10 *321:50 3.77062e-05
29 *316:24 *1184:A1 0.000102971
30 *316:24 *321:80 0
31 *318:47 *321:80 0.000242738
32 *320:59 *321:50 5.3304e-05
*RES
1 *1271:Q *321:8 25.0714 
2 *321:8 *1183:B1 24.4707 
3 *321:8 *321:37 44.935 
4 *321:37 *1182:C 23.4971 
5 *321:37 *321:50 3.64571 
6 *321:50 *1052:D_N 23 
7 *321:50 *1184:A1 31.0009 
8 *321:50 *321:80 34.7643 
9 *321:80 *1056:B 23 
*END

*D_NET *322 0.00782663
*CONN
*I *1354:A I *D sky130_fd_sc_hd__dlygate4sd3_1
*I *1062:A3 I *D sky130_fd_sc_hd__a41o_1
*I *1082:B I *D sky130_fd_sc_hd__nand2_1
*I *1191:B I *D sky130_fd_sc_hd__or2_1
*I *1206:A I *D sky130_fd_sc_hd__or2b_1
*I *1202:B_N I *D sky130_fd_sc_hd__or2b_1
*I *1272:Q O *D sky130_fd_sc_hd__dfrtp_2
*CAP
1 *1354:A 0
2 *1062:A3 0
3 *1082:B 9.71705e-05
4 *1191:B 0
5 *1206:A 0
6 *1202:B_N 0
7 *1272:Q 5.52525e-05
8 *322:82 0.000815103
9 *322:42 0.000191224
10 *322:32 0.000749524
11 *322:20 0.000644542
12 *322:18 0.000279038
13 *322:16 0.00122427
14 *322:8 0.000368794
15 *322:20 *323:16 4.74143e-05
16 *322:42 *324:29 0.000191255
17 *322:82 *1062:A1 6.17437e-06
18 *322:82 *1192:A 9.84851e-05
19 *322:82 *1193:A0 0.000139346
20 *322:82 *1210:A 0.000196405
21 *1062:A4 *322:82 5.50106e-05
22 *1192:B *322:82 2.92911e-06
23 *1192:C *322:82 1.95448e-05
24 *1193:A1 *322:82 9.58714e-05
25 *1210:B *322:82 2.92911e-06
26 *1210:C *322:82 7.1915e-05
27 *1210:D *322:82 9.84794e-05
28 *1219:A *322:32 2.64616e-05
29 *1219:C *322:32 9.41704e-05
30 *1272:D *322:8 1.76557e-05
31 *1320:A *322:16 0.000100778
32 *1320:A *322:18 0.000237534
33 *1320:A *322:20 3.70094e-05
34 *110:14 *322:82 7.40624e-06
35 *187:14 *322:8 5.67058e-05
36 *187:14 *322:16 2.44913e-05
37 *188:8 *322:32 1.04213e-05
38 *193:12 *322:16 0.000108681
39 *193:12 *322:18 0.000244526
40 *193:12 *322:20 0.000221364
41 *193:12 *322:32 5.49796e-05
42 *193:36 *322:32 0.000364782
43 *199:10 *322:32 4.29244e-05
44 *200:10 *322:42 0.000106277
45 *202:10 *322:82 0.000272038
46 *208:16 *322:32 0.000149886
47 *266:21 *322:16 0.000197862
*RES
1 *1272:Q *322:8 24.595 
2 *322:8 *322:16 20.4064 
3 *322:16 *322:18 3.31429 
4 *322:18 *322:20 2.96214 
5 *322:20 *322:32 26.31 
6 *322:32 *322:42 34.4536 
7 *322:42 *1202:B_N 23 
8 *322:32 *1206:A 23 
9 *322:20 *1191:B 38 
10 *322:18 *1082:B 39.595 
11 *322:16 *322:82 29.9971 
12 *322:82 *1062:A3 23 
13 *322:8 *1354:A 23 
*END

*D_NET *323 0.00615933
*CONN
*I *1191:A I *D sky130_fd_sc_hd__or2_1
*I *1193:A0 I *D sky130_fd_sc_hd__mux2_1
*I *1082:A I *D sky130_fd_sc_hd__nand2_1
*I *1062:A2 I *D sky130_fd_sc_hd__a41o_1
*I *1206:B_N I *D sky130_fd_sc_hd__or2b_1
*I *1202:A I *D sky130_fd_sc_hd__or2b_1
*I *1273:Q O *D sky130_fd_sc_hd__dfrtp_1
*CAP
1 *1191:A 0
2 *1193:A0 0.000280687
3 *1082:A 0
4 *1062:A2 0.000332794
5 *1206:B_N 8.17178e-05
6 *1202:A 0.000215414
7 *1273:Q 0.000220377
8 *323:26 0.000379037
9 *323:24 0.00102246
10 *323:20 0.000646408
11 *323:16 0.000418488
12 *323:10 0.000319533
13 *1062:A2 *1062:A1 5.56279e-05
14 *1062:A2 *1210:A 0.000137651
15 *1062:A2 *324:68 0.000106151
16 *1202:A *324:8 5.75756e-06
17 *1202:A *324:68 0.000111041
18 *323:26 *324:68 6.60009e-05
19 *1062:A4 *1062:A2 5.94125e-05
20 *1192:C *1193:A0 0.000154138
21 *1192:C *323:16 0.000141572
22 *1193:A1 *1193:A0 4.05745e-05
23 *1193:S *1193:A0 8.07592e-05
24 *1194:A *323:10 0.000233211
25 *1320:A *1193:A0 8.16356e-05
26 *1320:A *323:16 4.6318e-06
27 *62:10 *323:10 0.000318766
28 *110:10 *323:20 1.59094e-05
29 *110:10 *323:24 1.94693e-05
30 *188:8 *323:16 3.90213e-05
31 *200:10 *1202:A 5.79559e-05
32 *208:16 *323:10 0.00020745
33 *208:16 *323:16 5.82853e-05
34 *311:6 *323:10 6.06279e-05
35 *322:20 *323:16 4.74143e-05
36 *322:82 *1193:A0 0.000139346
*RES
1 *1273:Q *323:10 30.3329 
2 *323:10 *323:16 17.8793 
3 *323:16 *323:20 15.6214 
4 *323:20 *323:24 24.6736 
5 *323:24 *323:26 1.90571 
6 *323:26 *1202:A 41.5836 
7 *323:26 *1206:B_N 39.4707 
8 *323:24 *1062:A2 44.0693 
9 *323:20 *1082:A 23 
10 *323:16 *1193:A0 44.4629 
11 *323:10 *1191:A 23 
*END

*D_NET *324 0.0051572
*CONN
*I *1210:A I *D sky130_fd_sc_hd__or4_1
*I *1062:A1 I *D sky130_fd_sc_hd__a41o_1
*I *1081:A I *D sky130_fd_sc_hd__inv_2
*I *1199:A I *D sky130_fd_sc_hd__or4_1
*I *1207:A I *D sky130_fd_sc_hd__or4_1
*I *1203:A I *D sky130_fd_sc_hd__or4_1
*I *1274:Q O *D sky130_fd_sc_hd__dfrtp_2
*CAP
1 *1210:A 0.000175471
2 *1062:A1 8.54311e-05
3 *1081:A 0
4 *1199:A 0
5 *1207:A 1.65829e-05
6 *1203:A 0.000278194
7 *1274:Q 0
8 *324:68 0.000644629
9 *324:50 0.000281775
10 *324:42 0.000538245
11 *324:29 0.000562591
12 *324:8 0.000624014
13 *324:6 0.00044001
14 *324:68 *334:8 0
15 *1062:A2 *1062:A1 5.56279e-05
16 *1062:A2 *1210:A 0.000137651
17 *1062:A2 *324:68 0.000106151
18 *1062:A4 *1210:A 5.50049e-05
19 *1062:A4 *324:68 1.68817e-05
20 *1197:A2 *1062:A1 0
21 *1199:B *324:50 5.37348e-06
22 *1199:D *324:50 0.000139023
23 *1202:A *324:8 5.75756e-06
24 *1202:A *324:68 0.000111041
25 *1203:D *1203:A 3.23857e-06
26 *1207:D *324:42 5.5792e-05
27 *184:51 *324:42 0.000233414
28 *200:10 *324:29 7.77487e-05
29 *202:10 *1062:A1 4.77213e-05
30 *322:42 *324:29 0.000191255
31 *322:82 *1062:A1 6.17437e-06
32 *322:82 *1210:A 0.000196405
33 *323:26 *324:68 6.60009e-05
*RES
1 *1274:Q *324:6 38 
2 *324:6 *324:8 1.20143 
3 *324:8 *1203:A 42.4743 
4 *324:8 *324:29 20.8829 
5 *324:29 *1207:A 23.4971 
6 *324:29 *324:42 5.075 
7 *324:42 *324:50 35.6136 
8 *324:50 *1199:A 23 
9 *324:42 *1081:A 23 
10 *324:6 *324:68 24.0107 
11 *324:68 *1062:A1 25.0714 
12 *324:68 *1210:A 27.4536 
*END

*D_NET *325 0.00239627
*CONN
*I *1372:A I *D sky130_fd_sc_hd__dlygate4sd3_1
*I *1276:Q O *D sky130_fd_sc_hd__dfrtp_1
*CAP
1 *1372:A 0.000245097
2 *1276:Q 0.000365002
3 *325:8 0.000610099
4 *1214:A1 *325:8 0.000116315
5 *1214:S *325:8 0.000185368
6 *1327:A *325:8 5.67058e-05
7 *44:10 *1372:A 0.00014411
8 *93:57 *325:8 0.000135173
9 *112:117 *1372:A 3.89103e-05
10 *205:10 *325:8 5.79559e-05
11 *235:76 *1372:A 0.000105165
12 *256:31 *1372:A 8.62876e-05
13 *256:53 *1372:A 0.000105799
14 *258:8 *325:8 0.00014428
*RES
1 *1276:Q *325:8 46.7207 
2 *325:8 *1372:A 44.1314 
*END

*D_NET *326 0.000512808
*CONN
*I *1350:A I *D sky130_fd_sc_hd__dlygate4sd3_1
*I *1277:Q O *D sky130_fd_sc_hd__dfrtp_1
*CAP
1 *1350:A 0.000140391
2 *1277:Q 0.000116013
3 *326:8 0.000256404
*RES
1 *1277:Q *326:8 39.9057 
2 *326:8 *1350:A 40.5271 
*END

*D_NET *327 0.000573284
*CONN
*I *1348:A I *D sky130_fd_sc_hd__dlygate4sd3_1
*I *1278:Q O *D sky130_fd_sc_hd__dfrtp_1
*CAP
1 *1348:A 0.000179622
2 *1278:Q 0.00010702
3 *327:8 0.000286642
*RES
1 *1278:Q *327:8 39.9057 
2 *327:8 *1348:A 41.0036 
*END

*D_NET *328 0.000435186
*CONN
*I *1357:A I *D sky130_fd_sc_hd__dlygate4sd3_1
*I *1279:Q O *D sky130_fd_sc_hd__dfrtp_1
*CAP
1 *1357:A 6.7348e-05
2 *1279:Q 0.000110804
3 *328:8 0.000178152
4 *93:12 *328:8 0
5 *298:29 *1357:A 7.88828e-05
*RES
1 *1279:Q *328:8 39.9057 
2 *328:8 *1357:A 39.5743 
*END

*D_NET *329 0.000457212
*CONN
*I *1342:A I *D sky130_fd_sc_hd__dlygate4sd3_1
*I *1280:Q O *D sky130_fd_sc_hd__dfrtp_1
*CAP
1 *1342:A 0.000228606
2 *1280:Q 0.000228606
*RES
1 *1280:Q *1342:A 49.9564 
*END

*D_NET *330 0.00368077
*CONN
*I *1356:A I *D sky130_fd_sc_hd__dlygate4sd3_1
*I *1137:A0 I *D sky130_fd_sc_hd__mux2_1
*I *1281:Q O *D sky130_fd_sc_hd__dfrtp_1
*CAP
1 *1356:A 0
2 *1137:A0 0.000893696
3 *1281:Q 0
4 *330:25 0.000641266
5 *330:4 0.00153496
6 *1199:B *330:25 0
7 *1281:CLK *1137:A0 1.12349e-05
8 *1281:RESET_B *1137:A0 1.53169e-05
9 *1324:A *330:25 2.93747e-05
10 *64:10 *330:25 0
11 *112:54 *1137:A0 5.70419e-05
12 *193:52 *330:25 0
13 *194:8 *330:25 0
14 *206:10 *330:25 0
15 *232:35 *1137:A0 0.000369815
16 *232:52 *1137:A0 3.87288e-05
17 *240:10 *330:25 0
18 *250:24 *330:25 0
19 *255:6 *1137:A0 2.13733e-05
20 *255:6 *330:25 1.73399e-05
21 *255:20 *1137:A0 5.06248e-05
*RES
1 *1281:Q *330:4 23 
2 *330:4 *1137:A0 37.8314 
3 *330:4 *330:25 39.6321 
4 *330:25 *1356:A 23 
*END

*D_NET *331 0.00078623
*CONN
*I *1341:A I *D sky130_fd_sc_hd__dlygate4sd3_1
*I *1282:Q O *D sky130_fd_sc_hd__dfrtp_1
*CAP
1 *1341:A 0
2 *1282:Q 0.000352217
3 *331:10 0.000352217
4 *112:99 *331:10 0
5 *256:102 *331:10 8.1796e-05
6 *256:116 *331:10 0
7 *282:10 *331:10 0
*RES
1 *1282:Q *331:10 44.2971 
2 *331:10 *1341:A 38 
*END

*D_NET *332 0.000936779
*CONN
*I *1335:A I *D sky130_fd_sc_hd__dlygate4sd3_1
*I *1283:Q O *D sky130_fd_sc_hd__dfrtp_1
*CAP
1 *1335:A 0.000162379
2 *1283:Q 0.000249859
3 *332:8 0.000412238
4 *1223:A1 *332:8 2.34077e-05
5 *51:8 *332:8 2.71504e-05
6 *276:10 *1335:A 6.17437e-06
7 *276:10 *332:8 5.55704e-05
*RES
1 *1283:Q *332:8 42.7229 
2 *332:8 *1335:A 41.0036 
*END

*D_NET *333 0.00846255
*CONN
*I *1198:B I *D sky130_fd_sc_hd__or3_2
*I *1187:B I *D sky130_fd_sc_hd__nor2_1
*I *1074:B_N I *D sky130_fd_sc_hd__or2b_2
*I *1145:A1 I *D sky130_fd_sc_hd__o21ba_1
*I *1058:A I *D sky130_fd_sc_hd__or2b_1
*I *1195:B I *D sky130_fd_sc_hd__or2_1
*I *1299:Q O *D sky130_fd_sc_hd__dfstp_1
*CAP
1 *1198:B 4.43608e-05
2 *1187:B 0
3 *1074:B_N 0.000164025
4 *1145:A1 0
5 *1058:A 0.000137025
6 *1195:B 0.000365895
7 *1299:Q 0
8 *333:54 0.000946005
9 *333:37 0.00107079
10 *333:22 0.00107062
11 *333:14 0.000841203
12 *333:4 0.000332625
13 *1195:B *1186:B1 0.000166513
14 *1195:B *1195:A 1.92918e-05
15 *1195:B *334:10 5.77646e-05
16 *333:22 *1187:A 8.60475e-05
17 *333:22 *334:33 0.0003151
18 *333:22 *334:74 0.000466434
19 *333:37 *1186:B1 0.000129504
20 *333:54 *1168:B1 8.12336e-05
21 *333:54 *336:22 1.29944e-05
22 *333:54 *338:27 2.64616e-05
23 *333:54 *338:38 2.98103e-05
24 *1085:C *333:54 0
25 *1145:A2 *1074:B_N 0.000319079
26 *1145:A2 *333:54 3.73783e-05
27 *84:58 *333:37 9.168e-05
28 *84:58 *333:54 0.000279095
29 *91:33 *333:54 0.000216719
30 *91:43 *333:37 1.88972e-05
31 *91:43 *333:54 1.18379e-05
32 *91:68 *333:22 3.42479e-05
33 *91:68 *333:37 5.12605e-05
34 *110:55 *333:14 0.000267951
35 *112:16 *333:22 0.000382453
36 *184:102 *333:14 0.000139647
37 *193:10 *333:14 0
38 *230:24 *333:14 4.33081e-05
39 *254:10 *333:54 0
40 *258:46 *1198:B 6.02638e-05
41 *258:46 *333:14 6.47435e-06
42 *258:60 *1058:A 0.000103415
43 *308:10 *333:14 3.51359e-05
*RES
1 *1299:Q *333:4 23 
2 *333:4 *333:14 36.2039 
3 *333:14 *333:22 29.4793 
4 *333:22 *1195:B 42.9093 
5 *333:22 *333:37 3.66643 
6 *333:37 *1058:A 40.0507 
7 *333:37 *333:54 28.5057 
8 *333:54 *1145:A1 23 
9 *333:54 *1074:B_N 26.48 
10 *333:14 *1187:B 23 
11 *333:4 *1198:B 23.8596 
*END

*D_NET *334 0.00922828
*CONN
*I *1195:A I *D sky130_fd_sc_hd__or2_1
*I *1186:B1 I *D sky130_fd_sc_hd__o31a_2
*I *1187:A I *D sky130_fd_sc_hd__nor2_1
*I *1189:A1 I *D sky130_fd_sc_hd__a21oi_1
*I *1192:A I *D sky130_fd_sc_hd__and3_1
*I *1143:B I *D sky130_fd_sc_hd__or3_1
*I *1149:B I *D sky130_fd_sc_hd__or2_2
*I *1367:A I *D sky130_fd_sc_hd__dlygate4sd3_1
*I *1061:A I *D sky130_fd_sc_hd__inv_2
*I *1300:Q O *D sky130_fd_sc_hd__dfrtp_4
*CAP
1 *1195:A 5.71017e-05
2 *1186:B1 0.000275146
3 *1187:A 4.29221e-05
4 *1189:A1 7.43301e-05
5 *1192:A 0.00012502
6 *1143:B 0.000438298
7 *1149:B 0
8 *1367:A 5.25533e-05
9 *1061:A 7.85793e-05
10 *1300:Q 0.000295251
11 *334:78 0.000345694
12 *334:74 0.000435803
13 *334:48 0.000695077
14 *334:37 0.00046033
15 *334:33 0.000666713
16 *334:16 0.000578796
17 *334:10 0.000573549
18 *334:8 0.000419716
19 *1143:B *335:43 5.55743e-06
20 *1143:B *335:53 0.000309966
21 *1062:A4 *1061:A 1.01436e-05
22 *1195:B *1186:B1 0.000166513
23 *1195:B *1195:A 1.92918e-05
24 *1195:B *334:10 5.77646e-05
25 *1196:A3 *1189:A1 4.41403e-05
26 *63:8 *334:8 0
27 *85:38 *1186:B1 5.50049e-05
28 *91:43 *1186:B1 8.62876e-05
29 *91:68 *1186:B1 4.00259e-06
30 *94:20 *1186:B1 0
31 *94:20 *334:10 0
32 *94:31 *334:8 7.03663e-05
33 *104:24 *334:48 0
34 *109:32 *1192:A 6.7177e-06
35 *109:32 *334:78 6.7177e-06
36 *109:51 *334:78 0.00021448
37 *110:14 *1192:A 3.06338e-05
38 *110:33 *1189:A1 0
39 *110:33 *1192:A 0.000110913
40 *110:55 *1192:A 3.88504e-05
41 *110:55 *334:78 7.64567e-05
42 *112:14 *1143:B 7.67324e-05
43 *112:14 *334:37 5.66294e-05
44 *112:14 *334:48 9.66231e-05
45 *184:6 *1367:A 3.71369e-05
46 *191:8 *334:8 8.85189e-05
47 *192:14 *1061:A 5.73288e-05
48 *192:14 *334:8 1.79046e-05
49 *192:14 *334:10 5.62433e-06
50 *230:41 *334:16 0.000316338
51 *232:14 *334:8 0
52 *232:85 *1061:A 5.56279e-05
53 *254:10 *1061:A 7.39034e-05
54 *254:10 *334:33 0.000161121
55 *258:56 *334:37 4.2812e-06
56 *258:56 *334:48 0.000108287
57 *258:60 *1186:B1 4.79641e-05
58 *322:82 *1192:A 9.84851e-05
59 *324:68 *334:8 0
60 *333:22 *1187:A 8.60475e-05
61 *333:22 *334:33 0.0003151
62 *333:22 *334:74 0.000466434
63 *333:37 *1186:B1 0.000129504
*RES
1 *1300:Q *334:8 43.2511 
2 *334:8 *334:10 1.3775 
3 *334:10 *334:16 33.48 
4 *334:16 *1061:A 39.8229 
5 *334:16 *334:33 20.7379 
6 *334:33 *334:37 17.9621 
7 *334:37 *1367:A 39.0979 
8 *334:37 *334:48 5.075 
9 *334:48 *1149:B 38 
10 *334:48 *1143:B 46.5343 
11 *334:33 *334:74 5.38571 
12 *334:74 *334:78 18.6664 
13 *334:78 *1192:A 41.0036 
14 *334:78 *1189:A1 39.1186 
15 *334:74 *1187:A 24.0979 
16 *334:10 *1186:B1 44.5871 
17 *334:8 *1195:A 38.9425 
*END

*D_NET *335 0.0128476
*CONN
*I *1143:C I *D sky130_fd_sc_hd__or3_1
*I *1054:A I *D sky130_fd_sc_hd__inv_2
*I *1073:B1 I *D sky130_fd_sc_hd__o31a_1
*I *1150:A I *D sky130_fd_sc_hd__nor2_1
*I *1184:B2 I *D sky130_fd_sc_hd__a32o_1
*I *1168:B1 I *D sky130_fd_sc_hd__a21o_1
*I *1198:C I *D sky130_fd_sc_hd__or3_2
*I *1301:Q O *D sky130_fd_sc_hd__dfrtp_4
*CAP
1 *1143:C 2.01555e-05
2 *1054:A 0.000177868
3 *1073:B1 0.000273136
4 *1150:A 8.51837e-05
5 *1184:B2 7.35916e-05
6 *1168:B1 0.000415231
7 *1198:C 0.000431318
8 *1301:Q 0.000402156
9 *335:106 0.000627976
10 *335:89 0.000507616
11 *335:57 0.000542786
12 *335:55 0.000299424
13 *335:53 0.000863998
14 *335:43 0.00109565
15 *335:37 0.000503622
16 *335:10 0.0011256
17 *1143:C *1084:A1 5.55743e-06
18 *1150:A *338:27 3.84882e-05
19 *1150:A *338:38 0
20 *1168:B1 *336:22 5.2273e-05
21 *1198:C *336:76 8.25768e-05
22 *335:43 *1084:A1 7.15428e-05
23 *335:53 *1084:A1 4.839e-05
24 *335:53 *1085:A 0.000228233
25 *1057:A *1054:A 0.000122275
26 *1057:C *1073:B1 0.00022109
27 *1057:D *1073:B1 2.55231e-05
28 *1080:C *1168:B1 0.0001088
29 *1083:B *1198:C 6.00824e-05
30 *1084:A2 *335:37 0.000312462
31 *1084:B1 *335:43 0.000144996
32 *1085:C *335:53 3.90213e-05
33 *1143:B *335:43 5.55743e-06
34 *1143:B *335:53 0.000309966
35 *1168:A1 *1168:B1 5.55743e-06
36 *1301:RESET_B *1198:C 8.9728e-05
37 *1301:RESET_B *335:10 0.000560152
38 *1302:RESET_B *1198:C 0.000187612
39 *1326:A *1198:C 0.000372682
40 *84:18 *335:106 3.62714e-05
41 *84:33 *335:57 2.46399e-05
42 *84:33 *335:89 0.000102579
43 *84:33 *335:106 0.000163449
44 *84:45 *1168:B1 0.000183544
45 *84:58 *1168:B1 0.000147344
46 *87:20 *1168:B1 3.21827e-05
47 *87:20 *1184:B2 2.64616e-05
48 *87:20 *335:57 2.66471e-05
49 *91:14 *1054:A 0.000140259
50 *91:14 *1073:B1 5.50049e-05
51 *91:33 *1054:A 4.08664e-05
52 *91:33 *335:53 1.36433e-05
53 *91:33 *335:89 0
54 *91:43 *1168:B1 0.000135616
55 *103:18 *1073:B1 8.06804e-06
56 *104:24 *335:53 0.000145851
57 *108:8 *1168:B1 7.95762e-05
58 *108:35 *1168:B1 2.69681e-05
59 *108:44 *1168:B1 7.30224e-05
60 *109:66 *1198:C 7.50355e-05
61 *110:70 *1198:C 0.000141355
62 *112:14 *335:53 2.02872e-05
63 *112:80 *335:37 9.79925e-05
64 *112:86 *335:37 3.6608e-05
65 *152:8 *335:89 4.21594e-06
66 *152:8 *335:106 0.000137737
67 *155:10 *335:53 8.9728e-05
68 *235:44 *335:10 0
69 *257:8 *335:37 1.59094e-05
70 *258:46 *1198:C 0.000147636
71 *333:54 *1168:B1 8.12336e-05
*RES
1 *1301:Q *335:10 47.5907 
2 *335:10 *1198:C 49.8486 
3 *335:10 *335:37 35.6343 
4 *335:37 *335:43 19.4536 
5 *335:43 *335:53 44.8314 
6 *335:53 *335:55 15 
7 *335:55 *335:57 1.20143 
8 *335:57 *1168:B1 48.73 
9 *335:57 *1184:B2 39.0979 
10 *335:55 *335:89 2.96214 
11 *335:89 *1150:A 39.9679 
12 *335:89 *335:106 20.4271 
13 *335:106 *1073:B1 27.8057 
14 *335:106 *1054:A 27.3293 
15 *335:43 *1143:C 23.4971 
*END

*D_NET *336 0.00572155
*CONN
*I *1198:A I *D sky130_fd_sc_hd__or3_2
*I *1366:A I *D sky130_fd_sc_hd__dlygate4sd3_1
*I *1084:A1 I *D sky130_fd_sc_hd__a22o_1
*I *1143:A I *D sky130_fd_sc_hd__or3_1
*I *1085:A I *D sky130_fd_sc_hd__nand3_4
*I *1149:A I *D sky130_fd_sc_hd__or2_2
*I *1167:A_N I *D sky130_fd_sc_hd__and4b_1
*I *1302:Q O *D sky130_fd_sc_hd__dfrtp_4
*CAP
1 *1198:A 0
2 *1366:A 0
3 *1084:A1 9.26453e-05
4 *1143:A 0
5 *1085:A 5.75618e-05
6 *1149:A 0
7 *1167:A_N 0
8 *1302:Q 0
9 *336:76 0.000158658
10 *336:38 0.000366552
11 *336:22 0.000356753
12 *336:12 0.000523445
13 *336:8 0.000467743
14 *336:6 0.000173767
15 *336:4 0.00024772
16 *1084:B1 *1084:A1 3.24148e-05
17 *1143:C *1084:A1 5.55743e-06
18 *1144:A *336:12 5.3304e-05
19 *1168:B1 *336:22 5.2273e-05
20 *1198:C *336:76 8.25768e-05
21 *39:8 *336:76 1.0092e-05
22 *84:58 *336:22 0.000190571
23 *91:43 *336:22 0.000188618
24 *108:44 *336:6 0.000231542
25 *108:44 *336:8 0.000232049
26 *108:44 *336:12 0.000486963
27 *108:44 *336:22 0.000301036
28 *112:14 *1085:A 9.79925e-05
29 *112:80 *1084:A1 0.000381853
30 *112:80 *1085:A 0.000103804
31 *150:8 *336:38 6.35124e-05
32 *250:30 *336:38 1.79317e-05
33 *258:46 *336:76 4.66122e-05
34 *307:14 *336:12 0.000181918
35 *307:14 *336:22 9.28265e-05
36 *311:12 *336:76 6.21013e-05
37 *333:54 *336:22 1.29944e-05
38 *335:43 *1084:A1 7.15428e-05
39 *335:53 *1084:A1 4.839e-05
40 *335:53 *1085:A 0.000228233
*RES
1 *1302:Q *336:4 23 
2 *336:4 *336:6 2.52714 
3 *336:6 *336:8 2.52714 
4 *336:8 *336:12 5.88286 
5 *336:12 *336:22 39.4457 
6 *336:22 *1167:A_N 23 
7 *336:12 *1149:A 23 
8 *336:8 *336:38 32.9621 
9 *336:38 *1085:A 25.5271 
10 *336:38 *1143:A 23 
11 *336:38 *1084:A1 27.4536 
12 *336:6 *1366:A 23 
13 *336:4 *336:76 33.8736 
14 *336:76 *1198:A 23 
*END

*D_NET *337 0.000603491
*CONN
*I *1332:A I *D sky130_fd_sc_hd__dlygate4sd3_1
*I *1297:Q O *D sky130_fd_sc_hd__dfxtp_1
*CAP
1 *1332:A 0
2 *1297:Q 0.000301745
3 *337:8 0.000301745
*RES
1 *1297:Q *337:8 27.3293 
2 *337:8 *1332:A 23 
*END

*D_NET *338 0.010248
*CONN
*I *1085:B I *D sky130_fd_sc_hd__nand3_4
*I *1074:A I *D sky130_fd_sc_hd__or2b_2
*I *1145:B1_N I *D sky130_fd_sc_hd__o21ba_1
*I *1059:A I *D sky130_fd_sc_hd__buf_2
*I *1298:Q O *D sky130_fd_sc_hd__dfxtp_1
*CAP
1 *1085:B 0
2 *1074:A 0
3 *1145:B1_N 0
4 *1059:A 0.000368852
5 *1298:Q 0.000327665
6 *338:51 0.000290619
7 *338:38 0.000623387
8 *338:27 0.00149787
9 *338:10 0.0026019
10 *338:8 0.00139562
11 *1051:A *1059:A 4.33069e-05
12 *1056:A *338:27 2.0964e-05
13 *1056:D_N *338:27 4.67488e-05
14 *1145:A2 *338:38 0.000116661
15 *1147:A1 *338:10 0.000389274
16 *1150:A *338:27 3.84882e-05
17 *1150:A *338:38 0
18 *1150:B *338:27 2.95526e-05
19 *1170:A *338:27 0.000138859
20 *1170:B *338:27 5.61255e-06
21 *1263:CLK *338:10 0
22 *90:10 *338:27 1.99691e-05
23 *104:10 *338:38 0.000100069
24 *104:10 *338:51 0.000130971
25 *104:24 *338:51 0.000107249
26 *112:14 *338:51 7.34394e-06
27 *151:66 *338:10 0.000379126
28 *153:18 *338:10 0.000532368
29 *153:29 *338:10 0.000181943
30 *156:8 *338:27 2.92911e-06
31 *164:18 *338:10 3.49583e-05
32 *167:8 *338:10 0.00014028
33 *175:8 *1059:A 9.81117e-05
34 *233:71 *338:8 6.05747e-05
35 *317:38 *338:10 0.000110222
36 *317:40 *1059:A 6.63818e-05
37 *319:46 *1059:A 0.000132638
38 *320:51 *1059:A 3.24914e-05
39 *320:51 *338:10 2.81425e-05
40 *320:51 *338:27 9.06164e-05
41 *333:54 *338:27 2.64616e-05
42 *333:54 *338:38 2.98103e-05
*RES
1 *1298:Q *338:8 42.4329 
2 *338:8 *338:10 25.4993 
3 *338:10 *1059:A 45.54 
4 *338:10 *338:27 30.9086 
5 *338:27 *1145:B1_N 23 
6 *338:27 *338:38 5.77929 
7 *338:38 *1074:A 23 
8 *338:38 *338:51 35.2407 
9 *338:51 *1085:B 23 
*END

*D_NET *339 0.00768542
*CONN
*I *1103:B I *D sky130_fd_sc_hd__nand3_1
*I *1107:B I *D sky130_fd_sc_hd__and4_1
*I *1230:A1 I *D sky130_fd_sc_hd__a41o_1
*I *1099:B I *D sky130_fd_sc_hd__or2_1
*I *1098:B I *D sky130_fd_sc_hd__nand2_1
*I *1228:A I *D sky130_fd_sc_hd__and4_1
*I *1066:A I *D sky130_fd_sc_hd__and3_1
*I *1102:A2 I *D sky130_fd_sc_hd__a21o_1
*I *1365:A I *D sky130_fd_sc_hd__dlygate4sd3_1
*I *1284:Q O *D sky130_fd_sc_hd__dfrtp_4
*CAP
1 *1103:B 0
2 *1107:B 0.000376715
3 *1230:A1 0
4 *1099:B 0
5 *1098:B 0
6 *1228:A 0
7 *1066:A 0
8 *1102:A2 1.71939e-05
9 *1365:A 4.44299e-05
10 *1284:Q 2.89499e-05
11 *339:122 0.000272094
12 *339:105 0.000797912
13 *339:98 0.000204171
14 *339:81 0.000296905
15 *339:67 0.000101664
16 *339:61 0.000114557
17 *339:59 0.000451563
18 *339:44 0.000398221
19 *339:23 0.000664075
20 *339:12 0.00029309
21 *339:10 0.000627718
22 *339:6 0.000459835
23 *1107:B *1107:C 6.17437e-06
24 *339:61 *1098:A 5.55743e-06
25 *339:81 *1098:A 4.0205e-05
26 *339:81 *340:8 7.97439e-06
27 *339:98 *1098:A 5.3304e-05
28 *339:98 *340:30 4.41821e-06
29 *339:98 *360:14 6.15744e-05
30 *339:122 *341:6 5.70419e-05
31 *339:122 *341:15 5.70419e-05
32 *339:122 *341:21 0
33 *1096:A *339:23 5.82853e-05
34 *1096:B *339:23 0.000145163
35 *1100:A *1102:A2 1.1258e-05
36 *1100:A *339:44 5.90839e-05
37 *1100:B *339:23 0.000108016
38 *1100:B *339:44 0.000178391
39 *1100:C *339:44 9.97435e-06
40 *1104:A_N *1107:B 0.000128442
41 *1104:C *339:122 2.5415e-05
42 *1109:A2 *339:122 1.19692e-05
43 *1230:A4 *339:44 2.02517e-05
44 *27:10 *1365:A 5.28076e-05
45 *27:10 *339:23 7.04956e-05
46 *96:14 *339:44 0
47 *96:16 *339:44 1.59094e-05
48 *97:18 *339:44 5.92108e-05
49 *124:14 *339:10 0.000112527
50 *124:14 *339:23 0.000279227
51 *124:14 *339:59 1.57386e-05
52 *125:8 *339:122 0.00014196
53 *126:10 *339:6 2.17466e-05
54 *229:10 *339:44 0.000367902
55 *260:14 *339:10 0
56 *260:101 *339:59 0.000132671
57 *260:101 *339:61 5.55743e-06
58 *260:101 *339:67 6.39535e-05
59 *310:10 *339:67 4.74023e-05
60 *310:10 *339:98 9.96756e-05
*RES
1 *1284:Q *339:6 23.6214 
2 *339:6 *339:10 20.4271 
3 *339:10 *339:12 15 
4 *339:12 *1365:A 24.0979 
5 *339:12 *339:23 7.31214 
6 *339:23 *1102:A2 23.4971 
7 *339:23 *339:44 38.7414 
8 *339:44 *1066:A 23 
9 *339:10 *339:59 21.7321 
10 *339:59 *339:61 0.497143 
11 *339:61 *339:67 32.2579 
12 *339:67 *1228:A 23 
13 *339:61 *1098:B 23 
14 *339:59 *339:81 2.07143 
15 *339:81 *1099:B 23 
16 *339:81 *339:98 33.9979 
17 *339:98 *1230:A1 23 
18 *339:6 *339:105 2.52714 
19 *339:105 *1107:B 28.6343 
20 *339:105 *339:122 34.6607 
21 *339:122 *1103:B 23 
*END

*D_NET *340 0.00424167
*CONN
*I *1065:A_N I *D sky130_fd_sc_hd__and4bb_1
*I *1102:A1 I *D sky130_fd_sc_hd__a21o_1
*I *1107:A I *D sky130_fd_sc_hd__and4_1
*I *1103:A I *D sky130_fd_sc_hd__nand3_1
*I *1098:A I *D sky130_fd_sc_hd__nand2_1
*I *1099:A I *D sky130_fd_sc_hd__or2_1
*I *1285:Q O *D sky130_fd_sc_hd__dfrtp_2
*CAP
1 *1065:A_N 0.000151828
2 *1102:A1 0
3 *1107:A 3.27378e-05
4 *1103:A 0.000214435
5 *1098:A 0.000123204
6 *1099:A 0
7 *1285:Q 0
8 *340:32 0.000418414
9 *340:30 0.000352629
10 *340:10 0.000156891
11 *340:8 0.000672875
12 *340:4 0.000609629
13 *1065:A_N *1065:B_N 1.3523e-05
14 *1103:A *1103:C 0
15 *1103:A *1107:C 0.000140949
16 *1103:A *341:15 5.50049e-05
17 *1103:A *341:21 9.01462e-05
18 *1103:A *341:30 0.000118737
19 *340:30 *341:21 2.79653e-05
20 *340:32 *341:21 0.000159703
21 *1104:A_N *1107:A 5.50049e-05
22 *1285:D *340:8 0.000104373
23 *1285:RESET_B *340:8 2.64654e-05
24 *122:10 *340:8 4.98295e-05
25 *229:10 *1103:A 0
26 *229:10 *340:32 0
27 *238:10 *340:30 0.000140821
28 *238:10 *340:32 3.88725e-05
29 *238:23 *1065:A_N 3.06803e-05
30 *238:23 *1098:A 6.37041e-06
31 *238:23 *340:8 0.000281731
32 *310:10 *340:30 5.7388e-05
33 *339:61 *1098:A 5.55743e-06
34 *339:81 *1098:A 4.0205e-05
35 *339:81 *340:8 7.97439e-06
36 *339:98 *1098:A 5.3304e-05
37 *339:98 *340:30 4.41821e-06
*RES
1 *1285:Q *340:4 23 
2 *340:4 *340:8 10.6471 
3 *340:8 *340:10 0.621429 
4 *340:10 *1099:A 23 
5 *340:10 *1098:A 25.5686 
6 *340:8 *340:30 19.0186 
7 *340:30 *340:32 4.37071 
8 *340:32 *1103:A 43.0336 
9 *340:32 *1107:A 38.6214 
10 *340:30 *1102:A1 38 
11 *340:4 *1065:A_N 25.5479 
*END

*D_NET *341 0.00241205
*CONN
*I *1064:B_N I *D sky130_fd_sc_hd__and4bb_1
*I *1107:D I *D sky130_fd_sc_hd__and4_1
*I *1102:B1 I *D sky130_fd_sc_hd__a21o_1
*I *1103:C I *D sky130_fd_sc_hd__nand3_1
*I *1286:Q O *D sky130_fd_sc_hd__dfrtp_1
*CAP
1 *1064:B_N 0
2 *1107:D 0
3 *1102:B1 0
4 *1103:C 2.34823e-05
5 *1286:Q 5.834e-05
6 *341:38 0.000100868
7 *341:30 0.000214393
8 *341:21 0.000381471
9 *341:15 0.000573959
10 *341:6 0.000160785
11 *341:21 *1107:C 2.472e-05
12 *341:30 *1064:A_N 5.50106e-05
13 *341:30 *343:38 0
14 *341:38 *1107:C 0.000120248
15 *1103:A *1103:C 0
16 *1103:A *341:15 5.50049e-05
17 *1103:A *341:21 9.01462e-05
18 *1103:A *341:30 0.000118737
19 *1104:A_N *341:38 1.5769e-05
20 *1109:A2 *341:21 0
21 *124:14 *341:21 0
22 *125:8 *341:6 1.76557e-05
23 *128:34 *341:30 1.37232e-05
24 *129:10 *341:30 2.02872e-05
25 *229:10 *341:38 5.561e-05
26 *310:10 *341:21 1.0092e-05
27 *339:122 *341:6 5.70419e-05
28 *339:122 *341:15 5.70419e-05
29 *339:122 *341:21 0
30 *340:30 *341:21 2.79653e-05
31 *340:32 *341:21 0.000159703
*RES
1 *1286:Q *341:6 24.5743 
2 *341:6 *1103:C 23.4971 
3 *341:6 *341:15 2.05071 
4 *341:15 *341:21 38.5964 
5 *341:21 *1102:B1 23 
6 *341:15 *341:30 2.9 
7 *341:30 *341:38 32.175 
8 *341:38 *1107:D 23 
9 *341:30 *1064:B_N 23 
*END

*D_NET *342 0.00177185
*CONN
*I *1107:C I *D sky130_fd_sc_hd__and4_1
*I *1064:A_N I *D sky130_fd_sc_hd__and4bb_1
*I *1371:A I *D sky130_fd_sc_hd__dlygate4sd3_1
*I *1287:Q O *D sky130_fd_sc_hd__dfrtp_1
*CAP
1 *1107:C 0.000184793
2 *1064:A_N 1.49804e-05
3 *1371:A 0
4 *1287:Q 0.000153557
5 *342:19 0.000298124
6 *342:10 0.000251908
7 *1103:A *1107:C 0.000140949
8 *1104:A_N *1107:C 5.50106e-05
9 *1107:B *1107:C 6.17437e-06
10 *30:12 *342:10 0
11 *129:10 *1064:A_N 5.50106e-05
12 *129:10 *342:10 1.01436e-05
13 *129:10 *342:19 0.000154138
14 *229:10 *1107:C 4.16868e-05
15 *229:10 *342:10 4.58924e-05
16 *229:10 *342:19 5.93278e-05
17 *257:58 *342:10 0.00010018
18 *341:21 *1107:C 2.472e-05
19 *341:30 *1064:A_N 5.50106e-05
20 *341:38 *1107:C 0.000120248
*RES
1 *1287:Q *342:10 41.0036 
2 *342:10 *1371:A 38 
3 *342:10 *342:19 2.61 
4 *342:19 *1064:A_N 38.6214 
5 *342:19 *1107:C 41.9357 
*END

*D_NET *343 0.00536049
*CONN
*I *1118:B I *D sky130_fd_sc_hd__and4_2
*I *1111:A I *D sky130_fd_sc_hd__or2_1
*I *1110:A I *D sky130_fd_sc_hd__nand2_1
*I *1064:D I *D sky130_fd_sc_hd__and4bb_1
*I *1114:B I *D sky130_fd_sc_hd__and3_1
*I *1115:A1 I *D sky130_fd_sc_hd__a21o_1
*I *1288:Q O *D sky130_fd_sc_hd__dfrtp_1
*CAP
1 *1118:B 9.53526e-05
2 *1111:A 2.78488e-05
3 *1110:A 0
4 *1064:D 1.56543e-05
5 *1114:B 0
6 *1115:A1 0
7 *1288:Q 0.000310193
8 *343:51 0.000397496
9 *343:38 0.00064458
10 *343:27 0.000703621
11 *343:25 0.000791105
12 *343:12 0.00025141
13 *343:10 0.000310193
14 *343:25 *1118:A 8.29264e-05
15 *343:25 *344:24 8.58779e-05
16 *343:51 *344:36 0
17 *1111:B *1111:A 5.50106e-05
18 *1116:C *343:25 9.72368e-05
19 *1288:RESET_B *343:10 0.000212297
20 *1289:CLK *343:10 6.70822e-05
21 *32:8 *343:25 1.74874e-06
22 *128:14 *343:51 0
23 *128:34 *1064:D 5.50049e-05
24 *128:34 *343:38 0.00014698
25 *128:41 *343:38 9.45591e-05
26 *128:52 *343:27 2.9938e-05
27 *128:52 *343:38 2.4754e-05
28 *128:64 *1118:B 5.3304e-05
29 *128:64 *343:27 2.02872e-05
30 *129:10 *1064:D 2.32004e-05
31 *129:10 *343:38 9.84851e-05
32 *130:8 *1111:A 8.1796e-05
33 *133:8 *343:27 0.000359206
34 *136:29 *1118:B 0.000144501
35 *229:10 *343:51 0
36 *236:62 *343:10 2.93335e-05
37 *248:25 *343:25 0
38 *257:58 *1111:A 4.95081e-05
39 *341:30 *343:38 0
*RES
1 *1288:Q *343:10 43.5929 
2 *343:10 *343:12 15 
3 *343:12 *1115:A1 23 
4 *343:12 *343:25 34.06 
5 *343:25 *343:27 6.33857 
6 *343:27 *1114:B 23 
7 *343:27 *343:38 6.38 
8 *343:38 *1064:D 23.6214 
9 *343:38 *343:51 35.4271 
10 *343:51 *1110:A 23 
11 *343:51 *1111:A 24.5743 
12 *343:25 *1118:B 25.7757 
*END

*D_NET *344 0.00479704
*CONN
*I *1115:B1 I *D sky130_fd_sc_hd__a21o_1
*I *1118:A I *D sky130_fd_sc_hd__and4_2
*I *1064:C I *D sky130_fd_sc_hd__and4bb_1
*I *1114:A I *D sky130_fd_sc_hd__and3_1
*I *1289:Q O *D sky130_fd_sc_hd__dfrtp_1
*CAP
1 *1115:B1 0
2 *1118:A 7.15582e-05
3 *1064:C 0.000328257
4 *1114:A 0
5 *1289:Q 0.000124897
6 *344:38 0.000328257
7 *344:36 0.000598844
8 *344:24 0.000729128
9 *344:18 0.000473135
10 *344:8 0.000539307
11 *1112:A *344:36 0
12 *1114:C *1064:C 1.14154e-05
13 *1116:A_N *344:36 0.000137885
14 *1116:B *344:36 0.000188934
15 *1116:C *344:18 8.76309e-05
16 *1116:C *344:24 5.56279e-05
17 *119:35 *1064:C 5.50106e-05
18 *120:16 *344:36 0
19 *128:34 *1064:C 0.000253858
20 *128:41 *1064:C 7.88828e-05
21 *128:64 *1118:A 9.93434e-05
22 *128:64 *344:24 8.58779e-05
23 *135:10 *344:18 0.000199467
24 *135:10 *344:24 5.3304e-05
25 *135:10 *344:36 8.27475e-05
26 *249:31 *344:8 4.48671e-05
27 *343:25 *1118:A 8.29264e-05
28 *343:25 *344:24 8.58779e-05
29 *343:51 *344:36 0
*RES
1 *1289:Q *344:8 39.9057 
2 *344:8 *344:18 22.9543 
3 *344:18 *344:24 16.8229 
4 *344:24 *344:36 40.4193 
5 *344:36 *344:38 15 
6 *344:38 *1114:A 23 
7 *344:38 *1064:C 29.525 
8 *344:24 *1118:A 39.5536 
9 *344:18 *1115:B1 23 
*END

*D_NET *345 0.00425398
*CONN
*I *1065:B_N I *D sky130_fd_sc_hd__and4bb_1
*I *1343:A I *D sky130_fd_sc_hd__dlygate4sd3_1
*I *1118:C I *D sky130_fd_sc_hd__and4_2
*I *1290:Q O *D sky130_fd_sc_hd__dfrtp_1
*CAP
1 *1065:B_N 0.000570654
2 *1343:A 0.000172575
3 *1118:C 0.000284325
4 *1290:Q 0.000288684
5 *345:21 0.000896821
6 *345:8 0.000726603
7 *1065:B_N *1123:A 0.00012437
8 *1065:B_N *346:54 5.58003e-05
9 *1065:B_N *347:12 8.65377e-05
10 *1065:B_N *347:24 5.8118e-05
11 *1065:A_N *1065:B_N 1.3523e-05
12 *1120:A2 *1118:C 0
13 *1120:A2 *345:21 0
14 *97:10 *1065:B_N 1.358e-05
15 *136:29 *1065:B_N 0.000167123
16 *136:29 *1118:C 0.000403294
17 *136:29 *345:21 0.000301899
18 *139:10 *1065:B_N 9.00773e-05
*RES
1 *1290:Q *345:8 41.48 
2 *345:8 *1118:C 42.6814 
3 *345:8 *345:21 4.01857 
4 *345:21 *1343:A 40.5271 
5 *345:21 *1065:B_N 49.7657 
*END

*D_NET *346 0.00494201
*CONN
*I *1355:A I *D sky130_fd_sc_hd__dlygate4sd3_1
*I *1123:A I *D sky130_fd_sc_hd__nand3_1
*I *1065:C I *D sky130_fd_sc_hd__and4bb_1
*I *1121:A1 I *D sky130_fd_sc_hd__a211o_1
*I *1124:A1 I *D sky130_fd_sc_hd__a21o_1
*I *1291:Q O *D sky130_fd_sc_hd__dfrtp_1
*CAP
1 *1355:A 0
2 *1123:A 0.000104944
3 *1065:C 0
4 *1121:A1 4.58916e-05
5 *1124:A1 0.000125641
6 *1291:Q 0.000368014
7 *346:54 0.000481239
8 *346:35 0.000622378
9 *346:18 0.00077591
10 *346:10 0.000818092
11 *1123:A *347:12 1.46286e-05
12 *346:54 *347:24 0.000322089
13 *1065:B_N *1123:A 0.00012437
14 *1065:B_N *346:54 5.58003e-05
15 *1121:A2 *1121:A1 1.87687e-05
16 *1121:A2 *346:35 0.000188817
17 *1121:B1 *1121:A1 5.47983e-06
18 *1121:C1 *1121:A1 7.86509e-06
19 *1122:A1 *346:18 5.67058e-05
20 *1122:A2 *346:18 0.000207391
21 *41:10 *1121:A1 1.16915e-05
22 *97:10 *1123:A 9.76057e-05
23 *97:10 *346:54 0.00019353
24 *136:42 *346:54 0
25 *136:53 *1124:A1 0.000136609
26 *136:53 *346:18 1.12863e-05
27 *136:53 *346:54 0
28 *138:10 *346:18 6.48356e-05
29 *139:10 *346:54 2.44742e-05
30 *260:119 *1124:A1 5.79559e-05
*RES
1 *1291:Q *346:10 29.4836 
2 *346:10 *346:18 23.845 
3 *346:18 *1124:A1 40.5271 
4 *346:18 *346:35 18.9771 
5 *346:35 *1121:A1 24.1186 
6 *346:35 *346:54 39.0107 
7 *346:54 *1065:C 23 
8 *346:54 *1123:A 26.5421 
9 *346:10 *1355:A 23 
*END

*D_NET *347 0.00307351
*CONN
*I *1123:B I *D sky130_fd_sc_hd__nand3_1
*I *1065:D I *D sky130_fd_sc_hd__and4bb_1
*I *1124:B1 I *D sky130_fd_sc_hd__a21o_1
*I *1292:Q O *D sky130_fd_sc_hd__dfrtp_1
*CAP
1 *1123:B 0
2 *1065:D 0
3 *1124:B1 0
4 *1292:Q 0.000682426
5 *347:24 0.000285516
6 *347:12 0.000342156
7 *347:10 0.000739065
8 *1065:B_N *347:12 8.65377e-05
9 *1065:B_N *347:24 5.8118e-05
10 *1123:A *347:12 1.46286e-05
11 *136:42 *347:24 0
12 *139:10 *347:12 0.000146822
13 *139:10 *347:24 5.56356e-05
14 *140:8 *347:24 0.000194318
15 *260:119 *347:24 0.000146197
16 *346:54 *347:24 0.000322089
*RES
1 *1292:Q *347:10 34.3721 
2 *347:10 *347:12 2.05071 
3 *347:12 *347:24 37.7679 
4 *347:24 *1124:B1 23 
5 *347:12 *1065:D 23 
6 *347:10 *1123:B 23 
*END

*D_NET *348 0.00921255
*CONN
*I *1070:C I *D sky130_fd_sc_hd__and3_1
*I *1236:A2 I *D sky130_fd_sc_hd__a31o_1
*I *1092:S0 I *D sky130_fd_sc_hd__mux4_1
*I *1090:S0 I *D sky130_fd_sc_hd__mux4_1
*I *1231:A I *D sky130_fd_sc_hd__nand2_1
*I *1234:A2 I *D sky130_fd_sc_hd__a31o_1
*I *1232:A1 I *D sky130_fd_sc_hd__o21a_1
*I *1294:Q O *D sky130_fd_sc_hd__dfrtp_4
*CAP
1 *1070:C 0.000134868
2 *1236:A2 9.75883e-06
3 *1092:S0 0.000238566
4 *1090:S0 1.08768e-05
5 *1231:A 0
6 *1234:A2 7.72995e-05
7 *1232:A1 0.000119841
8 *1294:Q 0.000483747
9 *348:77 0.000439455
10 *348:67 0.000667144
11 *348:65 0.00121716
12 *348:53 0.00125489
13 *348:51 0.000348103
14 *348:31 0.000143733
15 *348:25 0.000517529
16 *348:12 0.000869415
17 *1070:C *1070:A 6.16883e-05
18 *1070:C *1070:B 0.000110897
19 *1070:C *1236:A1 9.64943e-05
20 *1090:S0 *353:35 5.50049e-05
21 *1090:S0 *354:25 5.67058e-05
22 *1092:S0 *1092:A2 0
23 *1092:S0 *1092:S1 0
24 *1092:S0 *352:25 0
25 *348:51 *349:44 0
26 *348:53 *1236:A1 1.3523e-05
27 *348:77 *349:32 4.38756e-05
28 *348:77 *353:35 4.86734e-05
29 *1232:A2 *1232:A1 1.32314e-05
30 *1237:A *1070:C 7.86962e-05
31 *1237:A *348:53 1.08287e-05
32 *1237:A *348:65 3.61029e-05
33 *1296:CLK *348:65 6.343e-05
34 *115:12 *348:65 8.50366e-05
35 *214:6 *1232:A1 0.000263936
36 *214:19 *348:25 0
37 *215:37 *348:51 0
38 *215:37 *348:65 4.00259e-06
39 *215:48 *348:25 1.96983e-05
40 *215:48 *348:51 1.71223e-05
41 *216:16 *1234:A2 1.33082e-05
42 *216:16 *348:31 1.12349e-05
43 *216:26 *348:25 6.38433e-05
44 *216:26 *348:51 0.000293866
45 *216:26 *348:65 1.12863e-05
46 *217:6 *1234:A2 0.000191255
47 *217:6 *348:31 2.1819e-05
48 *217:14 *1232:A1 1.37232e-05
49 *218:10 *348:25 0
50 *222:8 *348:77 4.16601e-05
51 *250:30 *348:77 0.000115013
52 *260:50 *348:12 4.45809e-05
53 *260:68 *1092:S0 0.000512219
54 *260:68 *348:77 8.62876e-05
55 *260:101 *348:12 0.00018113
*RES
1 *1294:Q *348:12 45.6643 
2 *348:12 *1232:A1 41.5007 
3 *348:12 *348:25 3.66643 
4 *348:25 *348:31 16.4707 
5 *348:31 *1234:A2 25.5479 
6 *348:31 *1231:A 23 
7 *348:25 *348:51 19.5157 
8 *348:51 *348:53 0.621429 
9 *348:53 *348:65 45.9086 
10 *348:65 *348:67 15 
11 *348:67 *348:77 36.7114 
12 *348:77 *1090:S0 38.6214 
13 *348:67 *1092:S0 44.8357 
14 *348:53 *1236:A2 23.4971 
15 *348:51 *1070:C 26.9564 
*END

*D_NET *349 0.00701347
*CONN
*I *1092:S1 I *D sky130_fd_sc_hd__mux4_1
*I *1236:A1 I *D sky130_fd_sc_hd__a31o_1
*I *1070:B I *D sky130_fd_sc_hd__and3_1
*I *1234:A1 I *D sky130_fd_sc_hd__a31o_1
*I *1090:S1 I *D sky130_fd_sc_hd__mux4_1
*I *1363:A I *D sky130_fd_sc_hd__dlygate4sd3_1
*I *1295:Q O *D sky130_fd_sc_hd__dfrtp_2
*CAP
1 *1092:S1 0.000403251
2 *1236:A1 8.23356e-05
3 *1070:B 0.000103476
4 *1234:A1 0
5 *1090:S1 0
6 *1363:A 0.000302068
7 *1295:Q 9.82853e-05
8 *349:55 0.000512803
9 *349:44 0.000144974
10 *349:38 0.00120534
11 *349:32 0.001399
12 *349:23 0.000463416
13 *349:8 0.000601395
14 *1092:S1 *1092:A2 4.6318e-06
15 *1092:S1 *352:25 0.000103019
16 *1236:A1 *1070:A 5.3304e-05
17 *349:23 *354:25 1.97329e-05
18 *349:38 *352:25 6.79006e-05
19 *1070:C *1070:B 0.000110897
20 *1070:C *1236:A1 9.64943e-05
21 *1092:S0 *1092:S1 0
22 *1237:A *1236:A1 1.46205e-05
23 *1304:CLK *349:38 0.000132166
24 *1304:RESET_B *1363:A 0.000144158
25 *1304:RESET_B *349:23 3.3746e-05
26 *26:18 *1363:A 9.46108e-05
27 *26:18 *349:23 0.000234008
28 *115:12 *349:32 5.12254e-05
29 *215:23 *349:55 1.81373e-05
30 *215:37 *349:38 7.74491e-06
31 *215:37 *349:44 7.49159e-05
32 *215:37 *349:55 2.92911e-06
33 *215:48 *349:44 0.000139856
34 *216:26 *1236:A1 3.72912e-05
35 *216:26 *349:55 8.50457e-05
36 *218:10 *349:44 0
37 *237:68 *349:44 0
38 *250:30 *349:23 0
39 *311:16 *1092:S1 6.98883e-05
40 *311:16 *349:38 4.3407e-05
41 *311:22 *1092:S1 0
42 *348:51 *349:44 0
43 *348:53 *1236:A1 1.3523e-05
44 *348:77 *349:32 4.38756e-05
*RES
1 *1295:Q *349:8 39.0979 
2 *349:8 *1363:A 45.1464 
3 *349:8 *349:23 19.7229 
4 *349:23 *1090:S1 23 
5 *349:23 *349:32 19.4329 
6 *349:32 *349:38 25.6264 
7 *349:38 *349:44 33.6664 
8 *349:44 *1234:A1 23 
9 *349:38 *349:55 19.205 
10 *349:55 *1070:B 39.5743 
11 *349:55 *1236:A1 39.9471 
12 *349:32 *1092:S1 46.5964 
*END

*D_NET *350 0.00162596
*CONN
*I *1091:A I *D sky130_fd_sc_hd__or2_1
*I *1093:B_N I *D sky130_fd_sc_hd__or2b_1
*I *1236:B1 I *D sky130_fd_sc_hd__a31o_1
*I *1070:A I *D sky130_fd_sc_hd__and3_1
*I *1296:Q O *D sky130_fd_sc_hd__dfrtp_1
*CAP
1 *1091:A 0.000115392
2 *1093:B_N 0.000102166
3 *1236:B1 0
4 *1070:A 4.96509e-05
5 *1296:Q 0
6 *350:12 0.000236023
7 *350:8 0.000344163
8 *350:4 0.000171017
9 *1070:C *1070:A 6.16883e-05
10 *1091:B *1091:A 5.56356e-05
11 *1091:B *350:8 8.06804e-06
12 *1091:B *350:12 2.27289e-05
13 *1236:A1 *1070:A 5.3304e-05
14 *1237:A *1070:A 5.40337e-05
15 *1296:RESET_B *1091:A 0
16 *262:26 *1093:B_N 0.000164171
17 *262:26 *350:12 0.000140697
18 *262:50 *1091:A 4.72245e-05
*RES
1 *1296:Q *350:4 23 
2 *350:4 *350:8 15.6214 
3 *350:8 *350:12 18.6664 
4 *350:12 *1070:A 24.595 
5 *350:12 *1236:B1 23 
6 *350:8 *1093:B_N 40.2579 
7 *350:4 *1091:A 25.7757 
*END

*D_NET *351 0.00330905
*CONN
*I *1090:A0 I *D sky130_fd_sc_hd__mux4_1
*I *1361:A I *D sky130_fd_sc_hd__dlygate4sd3_1
*I *1303:Q O *D sky130_fd_sc_hd__dfrtp_1
*CAP
1 *1090:A0 0
2 *1361:A 0
3 *1303:Q 0.000162163
4 *351:29 0.00106003
5 *351:12 0.000127978
6 *351:6 0.00135018
7 *351:29 *353:35 0.000248626
8 *351:29 *355:18 3.7122e-06
9 *1308:CLK *351:6 2.64616e-05
10 *1308:CLK *351:29 6.17437e-06
11 *81:8 *351:12 4.04496e-05
12 *234:36 *351:29 0
13 *234:47 *351:12 6.25829e-05
14 *234:47 *351:29 0
15 *234:62 *351:12 0.00022069
*RES
1 *1303:Q *351:6 25.0507 
2 *351:6 *351:12 33.6664 
3 *351:12 *1361:A 23 
4 *351:6 *351:29 47.0271 
5 *351:29 *1090:A0 23 
*END

*D_NET *352 0.002716
*CONN
*I *1352:A I *D sky130_fd_sc_hd__dlygate4sd3_1
*I *1090:A1 I *D sky130_fd_sc_hd__mux4_1
*I *1304:Q O *D sky130_fd_sc_hd__dfrtp_1
*CAP
1 *1352:A 0
2 *1090:A1 0
3 *1304:Q 0
4 *352:25 0.000762854
5 *352:12 0.000277013
6 *352:4 0.00103987
7 *352:12 *354:12 0
8 *1092:S0 *352:25 0
9 *1092:S1 *352:25 0.000103019
10 *1241:A *352:12 3.18142e-05
11 *77:8 *352:12 5.70007e-05
12 *77:8 *352:25 0.00037377
13 *260:68 *352:25 2.76611e-06
14 *349:38 *352:25 6.79006e-05
*RES
1 *1304:Q *352:4 23 
2 *352:4 *352:12 33.9564 
3 *352:12 *1090:A1 23 
4 *352:4 *352:25 42.4907 
5 *352:25 *1352:A 23 
*END

*D_NET *353 0.00330287
*CONN
*I *1090:A2 I *D sky130_fd_sc_hd__mux4_1
*I *1362:A I *D sky130_fd_sc_hd__dlygate4sd3_1
*I *1305:Q O *D sky130_fd_sc_hd__dfrtp_1
*CAP
1 *1090:A2 0
2 *1362:A 0
3 *1305:Q 0.000107778
4 *353:35 0.00087509
5 *353:12 8.01902e-05
6 *353:6 0.00106306
7 *353:35 *354:25 0.000373366
8 *1090:S0 *353:35 5.50049e-05
9 *1303:RESET_B *353:12 0
10 *1305:RESET_B *353:6 9.52332e-06
11 *1305:RESET_B *353:35 3.70071e-06
12 *1306:RESET_B *353:35 2.88123e-05
13 *224:10 *353:12 0.000141879
14 *234:36 *353:6 5.67058e-05
15 *234:36 *353:35 0.000210461
16 *348:77 *353:35 4.86734e-05
17 *351:29 *353:35 0.000248626
*RES
1 *1305:Q *353:6 24.5743 
2 *353:6 *353:12 31.9057 
3 *353:12 *1362:A 23 
4 *353:6 *353:35 49.1037 
5 *353:35 *1090:A2 23 
*END

*D_NET *354 0.00185321
*CONN
*I *1090:A3 I *D sky130_fd_sc_hd__mux4_1
*I *1353:A I *D sky130_fd_sc_hd__dlygate4sd3_1
*I *1306:Q O *D sky130_fd_sc_hd__dfrtp_1
*CAP
1 *1090:A3 0
2 *1353:A 0
3 *1306:Q 0
4 *354:25 0.000527899
5 *354:12 0.000129072
6 *354:4 0.000656971
7 *1090:S0 *354:25 5.67058e-05
8 *26:18 *354:25 0
9 *77:8 *354:12 0
10 *250:30 *354:25 8.9458e-05
11 *349:23 *354:25 1.97329e-05
12 *352:12 *354:12 0
13 *353:35 *354:25 0.000373366
*RES
1 *1306:Q *354:4 23 
2 *354:4 *354:12 32.0507 
3 *354:12 *1353:A 23 
4 *354:4 *354:25 38.4929 
5 *354:25 *1090:A3 23 
*END

*D_NET *355 0.00370856
*CONN
*I *1359:A I *D sky130_fd_sc_hd__dlygate4sd3_1
*I *1092:A0 I *D sky130_fd_sc_hd__mux4_1
*I *1307:Q O *D sky130_fd_sc_hd__dfrtp_1
*CAP
1 *1359:A 0.000347695
2 *1092:A0 0
3 *1307:Q 4.79803e-05
4 *355:18 0.000749833
5 *355:8 0.00114551
6 *355:18 *1092:A1 0.000271476
7 *355:18 *356:6 1.65191e-05
8 *1307:RESET_B *355:8 1.84917e-05
9 *1308:RESET_B *355:18 0.000312588
10 *81:8 *355:18 0.000143166
11 *234:62 *1359:A 0
12 *252:14 *1359:A 0.000187976
13 *263:46 *355:18 0.000169834
14 *294:10 *1359:A 0.000214054
15 *294:10 *355:18 3.88629e-05
16 *300:8 *1359:A 4.08641e-05
17 *351:29 *355:18 3.7122e-06
*RES
1 *1307:Q *355:8 38.6214 
2 *355:8 *355:18 31.9443 
3 *355:18 *1092:A0 23 
4 *355:8 *1359:A 46.5343 
*END

*D_NET *356 0.000923325
*CONN
*I *1337:A I *D sky130_fd_sc_hd__dlygate4sd3_1
*I *1092:A1 I *D sky130_fd_sc_hd__mux4_1
*I *1308:Q O *D sky130_fd_sc_hd__dfrtp_1
*CAP
1 *1337:A 0
2 *1092:A1 0.000146835
3 *1308:Q 4.15421e-05
4 *356:21 0.000111469
5 *356:6 0.000299846
6 *263:56 *356:21 3.56377e-05
7 *355:18 *1092:A1 0.000271476
8 *355:18 *356:6 1.65191e-05
*RES
1 *1308:Q *356:6 23.6214 
2 *356:6 *1092:A1 26.8529 
3 *356:6 *356:21 31.9057 
4 *356:21 *1337:A 23 
*END

*D_NET *357 0.00247863
*CONN
*I *1347:A I *D sky130_fd_sc_hd__dlygate4sd3_1
*I *1092:A2 I *D sky130_fd_sc_hd__mux4_1
*I *1309:Q O *D sky130_fd_sc_hd__dfrtp_1
*CAP
1 *1347:A 0.000313698
2 *1092:A2 0.000443564
3 *1309:Q 0.000377515
4 *357:8 0.00113478
5 *1092:A2 *1092:A3 2.35426e-05
6 *1092:S0 *1092:A2 0
7 *1092:S1 *1092:A2 4.6318e-06
8 *1254:CLK *357:8 6.71408e-06
9 *1254:RESET_B *357:8 1.12709e-05
10 *1293:RESET_B *357:8 4.48402e-06
11 *114:25 *1092:A2 0
12 *114:25 *1347:A 0
13 *252:14 *1347:A 0.000103637
14 *260:68 *1092:A2 0
15 *260:68 *1347:A 0
16 *260:72 *357:8 4.05309e-05
17 *263:46 *1092:A2 1.42605e-05
18 *311:22 *1092:A2 0
*RES
1 *1309:Q *357:8 42.9093 
2 *357:8 *1092:A2 46.1666 
3 *357:8 *1347:A 44.0693 
*END

*D_NET *358 0.00196021
*CONN
*I *1340:A I *D sky130_fd_sc_hd__dlygate4sd3_1
*I *1092:A3 I *D sky130_fd_sc_hd__mux4_1
*I *1310:Q O *D sky130_fd_sc_hd__dfrtp_1
*CAP
1 *1340:A 0.000334392
2 *1092:A3 0.000213987
3 *1310:Q 9.67754e-05
4 *358:8 0.000645155
5 *1092:A2 *1092:A3 2.35426e-05
6 *1252:S *1340:A 1.0092e-05
7 *1330:A *1092:A3 2.93747e-05
8 *117:8 *358:8 8.85189e-05
9 *263:38 *358:8 8.62783e-05
10 *263:46 *1092:A3 0.000118271
11 *281:6 *1340:A 0.000189857
12 *311:22 *1340:A 8.35568e-05
13 *311:22 *358:8 4.04054e-05
*RES
1 *1310:Q *358:8 40.2579 
2 *358:8 *1092:A3 42.4329 
3 *358:8 *1340:A 45.5193 
*END

*D_NET *359 0.00368335
*CONN
*I *1088:A I *D sky130_fd_sc_hd__nand2_4
*I *1094:C1 I *D sky130_fd_sc_hd__a311o_1
*I *1229:B I *D sky130_fd_sc_hd__and2b_1
*I *1068:B_N I *D sky130_fd_sc_hd__or2b_1
*I *1311:Q O *D sky130_fd_sc_hd__dfstp_1
*CAP
1 *1088:A 0.00018119
2 *1094:C1 5.26373e-05
3 *1229:B 0.000145839
4 *1068:B_N 2.1093e-05
5 *1311:Q 1.34644e-05
6 *359:19 0.00074874
7 *359:15 0.000731453
8 *359:6 3.45574e-05
9 *1094:C1 *1095:A 1.76557e-05
10 *1229:B *1095:A 1.41077e-05
11 *1229:B *1229:A_N 1.21972e-05
12 *359:19 *361:8 0
13 *1095:C *359:19 0
14 *21:13 *1088:A 5.37348e-06
15 *43:10 *359:19 2.71586e-05
16 *100:8 *359:19 0
17 *113:10 *359:19 0
18 *114:12 *1088:A 9.84851e-05
19 *114:127 *1088:A 5.68527e-05
20 *114:127 *359:19 0.0001783
21 *116:8 *1094:C1 0
22 *116:8 *1229:B 0.000270682
23 *229:8 *1094:C1 5.50106e-05
24 *229:8 *1229:B 0.000267167
25 *229:10 *359:19 1.58805e-05
26 *238:97 *1068:B_N 2.93747e-05
27 *238:97 *359:6 1.70074e-05
28 *238:116 *1088:A 0
29 *238:116 *359:19 0
30 *273:24 *1229:B 2.93845e-05
31 *273:24 *359:19 0.000619534
32 *312:18 *1068:B_N 2.93747e-05
33 *312:18 *359:6 1.08331e-05
*RES
1 *1311:Q *359:6 23.3832 
2 *359:6 *1068:B_N 23.6214 
3 *359:6 *359:15 15 
4 *359:15 *359:19 28.8786 
5 *359:19 *1229:B 27.4329 
6 *359:19 *1094:C1 24.4707 
7 *359:15 *1088:A 41.7079 
*END

*D_NET *360 0.00568686
*CONN
*I *1095:A I *D sky130_fd_sc_hd__nor3_2
*I *1094:A1 I *D sky130_fd_sc_hd__a311o_1
*I *1229:A_N I *D sky130_fd_sc_hd__and2b_1
*I *1078:A I *D sky130_fd_sc_hd__and3_1
*I *1345:A I *D sky130_fd_sc_hd__dlygate4sd3_1
*I *1230:A2 I *D sky130_fd_sc_hd__a41o_1
*I *1228:B I *D sky130_fd_sc_hd__and4_1
*I *1312:Q O *D sky130_fd_sc_hd__dfrtp_2
*CAP
1 *1095:A 0.000268477
2 *1094:A1 0
3 *1229:A_N 0.000216109
4 *1078:A 0.000171439
5 *1345:A 8.63912e-05
6 *1230:A2 0
7 *1228:B 0.000283305
8 *1312:Q 9.88081e-05
9 *360:56 0.000618008
10 *360:37 0.000348931
11 *360:14 0.000635822
12 *360:10 0.000559169
13 *360:8 0.000263138
14 *1071:B *1078:A 8.46337e-05
15 *1072:B1 *1345:A 0.000183733
16 *1078:B *1078:A 0
17 *1094:A3 *1229:A_N 0.000228001
18 *1094:C1 *1095:A 1.76557e-05
19 *1228:D *1228:B 0.000260475
20 *1229:B *1095:A 1.41077e-05
21 *1229:B *1229:A_N 1.21972e-05
22 *1230:B1 *360:14 0.000170909
23 *99:30 *1078:A 1.24376e-05
24 *99:30 *360:56 0.000114083
25 *102:8 *360:10 8.85189e-05
26 *116:8 *1229:A_N 0.000117954
27 *215:10 *1078:A 2.24608e-05
28 *215:10 *1229:A_N 0.00018282
29 *215:10 *360:10 3.81927e-05
30 *215:10 *360:14 3.3123e-05
31 *215:10 *360:37 1.32728e-05
32 *215:10 *360:56 3.61397e-05
33 *229:8 *1095:A 9.88574e-06
34 *229:10 *360:10 0
35 *229:10 *360:14 0
36 *229:10 *360:37 0
37 *229:10 *360:56 0
38 *262:50 *1078:A 0.000268868
39 *262:50 *360:8 0.000104519
40 *273:24 *1095:A 5.67058e-05
41 *310:10 *360:14 4.99753e-06
42 *339:98 *360:14 6.15744e-05
*RES
1 *1312:Q *360:8 39.5743 
2 *360:8 *360:10 2.25786 
3 *360:10 *360:14 21.4836 
4 *360:14 *1228:B 26.9564 
5 *360:14 *1230:A2 23 
6 *360:10 *1345:A 40.0507 
7 *360:8 *360:37 0.673214 
8 *360:37 *1078:A 42.7954 
9 *360:37 *360:56 17.7861 
10 *360:56 *1229:A_N 28.3857 
11 *360:56 *1094:A1 23 
12 *360:56 *1095:A 27.93 
*END

*D_NET *361 0.00212378
*CONN
*I *1095:B I *D sky130_fd_sc_hd__nor3_2
*I *1072:A1 I *D sky130_fd_sc_hd__a22o_1
*I *1360:A I *D sky130_fd_sc_hd__dlygate4sd3_1
*I *1313:Q O *D sky130_fd_sc_hd__dfrtp_1
*CAP
1 *1095:B 0
2 *1072:A1 0.000324128
3 *1360:A 0
4 *1313:Q 8.22782e-05
5 *361:23 0.000505273
6 *361:12 0.000263672
7 *361:8 0.000164806
8 *1072:B1 *1072:A1 2.93431e-05
9 *1095:C *361:8 8.16356e-05
10 *99:8 *1072:A1 2.89256e-05
11 *99:22 *1072:A1 0
12 *99:114 *1072:A1 1.70513e-05
13 *99:120 *1072:A1 1.19796e-05
14 *113:10 *361:8 8.62876e-05
15 *113:10 *361:12 4.9346e-05
16 *113:10 *361:23 3.16665e-05
17 *119:10 *1072:A1 0
18 *229:10 *1072:A1 0
19 *238:60 *1072:A1 0
20 *238:60 *361:23 0
21 *238:71 *361:23 0
22 *262:54 *1072:A1 6.48142e-05
23 *262:61 *1072:A1 0.000171906
24 *262:61 *361:23 0.000210668
25 *359:19 *361:8 0
*RES
1 *1313:Q *361:8 40.2579 
2 *361:8 *361:12 16.5743 
3 *361:12 *1360:A 23 
4 *361:12 *361:23 19.06 
5 *361:23 *1072:A1 45.2293 
6 *361:23 *1095:B 38 
*END

*D_NET *362 0.0017052
*CONN
*I *1374:A I *D sky130_fd_sc_hd__dlygate4sd3_1
*I *1368:A I *D sky130_fd_sc_hd__buf_1
*I *1314:Q O *D sky130_fd_sc_hd__dfrtp_1
*CAP
1 *1374:A 0.000174202
2 *1368:A 0
3 *1314:Q 7.28526e-05
4 *362:16 0.000196336
5 *362:6 0.000443391
6 *1069:B1_N *362:6 3.71887e-05
7 *40:10 *1374:A 0.00023585
8 *99:89 *362:16 5.45541e-05
9 *99:95 *362:16 6.58399e-05
10 *238:86 *362:16 6.5117e-06
11 *273:6 *1374:A 6.1216e-05
12 *273:16 *1374:A 1.47795e-05
13 *273:16 *362:6 3.20631e-05
14 *273:16 *362:16 3.88629e-05
15 *305:18 *1374:A 0.000141962
16 *305:18 *362:6 0.00012959
*RES
1 *1314:Q *362:6 25.5271 
2 *362:6 *362:16 34.205 
3 *362:16 *1368:A 23 
4 *362:6 *1374:A 28.3857 
*END
